%%MatrixMarket matrix coordinate integer general
500 106 38741
1 1 10193
2 1 10551
3 1 11091
4 1 6167
5 1 10571
6 1 11817
7 1 5920
8 1 12369
9 1 9844
10 1 8670
11 1 5037
12 1 6247
13 1 8428
14 1 12227
15 1 31368
16 1 5187
17 1 11220
18 1 16036
19 1 23295
20 1 8707
21 1 3789
22 1 12850
23 1 13340
24 1 7459
25 1 8211
26 1 5978
27 1 6013
28 1 8712
29 1 12458
30 1 10243
31 1 12824
32 1 6699
33 1 7484
34 1 10553
35 1 14609
36 1 11741
37 1 8875
38 1 7818
39 1 13256
40 1 14657
41 1 12134
42 1 9481
43 1 23261
44 1 5472
45 1 11965
46 1 7267
47 1 6866
48 1 14291
49 1 8378
50 1 12897
51 1 17499
52 1 11150
53 1 12710
54 1 7342
55 1 11590
56 1 10669
57 1 9895
58 1 6535
59 1 6809
60 1 6099
61 1 8719
62 1 10092
63 1 6167
64 1 12879
65 1 11054
66 1 13144
67 1 9373
68 1 17098
69 1 7312
70 1 7521
71 1 23264
72 1 5673
73 1 10268
74 1 14429
75 1 8761
76 1 12026
77 1 7269
78 1 5621
79 1 9631
80 1 6750
81 1 9155
82 1 10428
83 1 11375
84 1 19656
85 1 8867
86 1 6817
87 1 9991
88 1 9325
89 1 7247
90 1 6848
91 1 14981
92 1 5340
93 1 13631
94 1 9240
95 1 16529
96 1 11052
97 1 5719
98 1 9670
99 1 8673
100 1 17322
101 1 9920
102 1 11200
103 1 8040
104 1 27918
105 1 5826
106 1 6479
107 1 29191
108 1 8921
109 1 23073
110 1 4968
111 1 6147
112 1 27254
113 1 9708
114 1 13213
115 1 8780
116 1 22469
117 1 6043
118 1 8787
119 1 11480
120 1 9175
121 1 15440
122 1 11832
123 1 12259
124 1 10482
125 1 7518
126 1 14244
127 1 8842
128 1 11821
129 1 7560
130 1 12625
131 1 5945
132 1 11452
133 1 39269
134 1 9220
135 1 9285
136 1 3121
137 1 12311
138 1 7406
139 1 20663
140 1 11642
141 1 15049
142 1 11498
143 1 10966
144 1 15452
145 1 7986
146 1 15606
147 1 7353
148 1 10583
149 1 13246
150 1 10455
151 1 10092
152 1 23371
153 1 13970
154 1 14598
155 1 5323
156 1 8525
157 1 23478
158 1 7396
159 1 5014
160 1 5238
161 1 8896
162 1 5126
163 1 9440
164 1 12994
165 1 6235
166 1 9833
167 1 8218
168 1 4314
169 1 8965
170 1 6585
171 1 7739
172 1 10814
173 1 5005
174 1 6938
175 1 7889
176 1 6404
177 1 15836
178 1 7437
179 1 11955
180 1 10649
181 1 6122
182 1 12673
183 1 6166
184 1 12281
185 1 11031
186 1 8108
187 1 7589
188 1 5003
189 1 6216
190 1 11925
191 1 17729
192 1 20221
193 1 5149
194 1 7327
195 1 11825
196 1 7598
197 1 14152
198 1 6362
199 1 9484
200 1 16786
201 1 7970
202 1 12423
203 1 10150
204 1 8919
205 1 13391
206 1 7358
207 1 12022
208 1 8958
209 1 4509
210 1 13548
211 1 13335
212 1 23156
213 1 9469
214 1 6525
215 1 4939
216 1 7264
217 1 9281
218 1 9580
219 1 9320
220 1 7471
221 1 5661
222 1 10611
223 1 6734
224 1 6749
225 1 12695
226 1 17761
227 1 3935
228 1 12662
229 1 24538
230 1 8832
231 1 7178
232 1 6611
233 1 23924
234 1 15539
235 1 8769
236 1 10067
237 1 9775
238 1 24924
239 1 6942
240 1 8718
241 1 8579
242 1 8269
243 1 18248
244 1 11443
245 1 10196
246 1 11637
247 1 14529
248 1 13755
249 1 9847
250 1 14960
251 1 13382
252 1 7436
253 1 7726
254 1 11801
255 1 7486
256 1 6499
257 1 15669
258 1 8708
259 1 13050
260 1 7289
261 1 6966
262 1 17016
263 1 12733
264 1 8566
265 1 7300
266 1 9497
267 1 11707
268 1 11304
269 1 7628
270 1 9038
271 1 7523
272 1 15752
273 1 6458
274 1 15477
275 1 12609
276 1 5049
277 1 6922
278 1 11556
279 1 8318
280 1 8765
281 1 7464
282 1 13637
283 1 28031
284 1 12106
285 1 22516
286 1 8487
287 1 6115
288 1 5585
289 1 4994
290 1 6940
291 1 8986
292 1 7533
293 1 8290
294 1 9283
295 1 7812
296 1 15176
297 1 6783
298 1 18907
299 1 10708
300 1 5648
301 1 8308
302 1 12907
303 1 18449
304 1 10047
305 1 6184
306 1 6003
307 1 8635
308 1 10844
309 1 8693
310 1 6668
311 1 9223
312 1 8186
313 1 8362
314 1 11914
315 1 7840
316 1 8785
317 1 10186
318 1 7567
319 1 11523
320 1 8307
321 1 7318
322 1 20070
323 1 15869
324 1 9507
325 1 10095
326 1 9163
327 1 12263
328 1 13013
329 1 8383
330 1 16144
331 1 16986
332 1 9479
333 1 10107
334 1 7511
335 1 11524
336 1 20394
337 1 9408
338 1 19653
339 1 15622
340 1 15385
341 1 5066
342 1 8905
343 1 7849
344 1 5939
345 1 20098
346 1 8523
347 1 7984
348 1 8635
349 1 10262
350 1 7503
351 1 9571
352 1 10925
353 1 3859
354 1 9418
355 1 7566
356 1 11108
357 1 20540
358 1 9988
359 1 11552
360 1 9277
361 1 7446
362 1 12196
363 1 6932
364 1 6645
365 1 12609
366 1 11340
367 1 8844
368 1 6282
369 1 7469
370 1 6317
371 1 7813
372 1 6546
373 1 9681
374 1 15143
375 1 6267
376 1 15039
377 1 7770
378 1 12170
379 1 28028
380 1 11124
381 1 8816
382 1 7075
383 1 13223
384 1 7445
385 1 9644
386 1 28116
387 1 6923
388 1 18887
389 1 15554
390 1 6188
391 1 7181
392 1 21721
393 1 13199
394 1 11923
395 1 9464
396 1 8481
397 1 7188
398 1 7370
399 1 11903
400 1 6758
401 1 13229
402 1 4797
403 1 9898
404 1 7543
405 1 7584
406 1 7332
407 1 8845
408 1 10830
409 1 6976
410 1 7963
411 1 5753
412 1 14768
413 1 9268
414 1 13423
415 1 15346
416 1 7281
417 1 6885
418 1 10414
419 1 6588
420 1 9761
421 1 6967
422 1 17672
423 1 9160
424 1 6275
425 1 8166
426 1 10284
427 1 12796
428 1 8889
429 1 8996
430 1 7421
431 1 8446
432 1 13059
433 1 12148
434 1 5905
435 1 5501
436 1 29456
437 1 9401
438 1 9227
439 1 6151
440 1 8882
441 1 6577
442 1 10543
443 1 11691
444 1 15350
445 1 11238
446 1 10174
447 1 9145
448 1 5570
449 1 9117
450 1 5894
451 1 8703
452 1 11042
453 1 9797
454 1 7908
455 1 27686
456 1 8534
457 1 13171
458 1 8136
459 1 14460
460 1 9855
461 1 7528
462 1 21878
463 1 8626
464 1 6695
465 1 8043
466 1 8612
467 1 3966
468 1 4694
469 1 5004
470 1 5461
471 1 9037
472 1 6103
473 1 9316
474 1 11989
475 1 9084
476 1 10425
477 1 12370
478 1 7431
479 1 9975
480 1 12703
481 1 9769
482 1 5727
483 1 6869
484 1 9015
485 1 10354
486 1 12413
487 1 5060
488 1 10090
489 1 10224
490 1 8948
491 1 7632
492 1 9291
493 1 8106
494 1 6947
495 1 10509
496 1 8196
497 1 5147
498 1 14459
499 1 7362
500 1 10273
1 2 3828
2 2 5167
3 2 4520
4 2 4908
5 2 8573
6 2 5438
7 2 4958
8 2 7262
9 2 5772
10 2 3647
11 2 3223
12 2 3622
13 2 3822
14 2 2818
15 2 2980
16 2 2508
17 2 4678
18 2 3596
19 2 4817
20 2 8402
21 2 7698
22 2 3565
23 2 4874
24 2 5498
25 2 3013
26 2 4702
27 2 1945
28 2 5408
29 2 7162
30 2 3960
31 2 4599
32 2 5797
33 2 2891
34 2 1942
35 2 8136
36 2 7544
37 2 5375
38 2 3726
39 2 5941
40 2 4974
41 2 8313
42 2 3726
43 2 5062
44 2 1140
45 2 3249
46 2 4928
47 2 5637
48 2 6568
49 2 5687
50 2 2150
51 2 4943
52 2 8993
53 2 4753
54 2 4195
55 2 4983
56 2 2641
57 2 13496
58 2 6181
59 2 5704
60 2 5403
61 2 3710
62 2 4786
63 2 4963
64 2 4949
65 2 6139
66 2 5151
67 2 2845
68 2 4621
69 2 5548
70 2 4423
71 2 9015
72 2 2480
73 2 13752
74 2 4764
75 2 5443
76 2 6037
77 2 2630
78 2 5926
79 2 3555
80 2 6844
81 2 5351
82 2 2235
83 2 2052
84 2 8048
85 2 3950
86 2 5144
87 2 5222
88 2 4547
89 2 5274
90 2 6194
91 2 7476
92 2 2229
93 2 5879
94 2 5340
95 2 3974
96 2 4356
97 2 2937
98 2 5572
99 2 4528
100 2 4253
101 2 5030
102 2 3066
103 2 2344
104 2 5049
105 2 6131
106 2 5267
107 2 3671
108 2 7387
109 2 9073
110 2 2316
111 2 2614
112 2 1424
113 2 7534
114 2 6507
115 2 4110
116 2 4098
117 2 3020
118 2 5029
119 2 5301
120 2 6621
121 2 8490
122 2 6421
123 2 6621
124 2 5748
125 2 9897
126 2 3511
127 2 3961
128 2 3018
129 2 4417
130 2 3655
131 2 4897
132 2 5516
133 2 2461
134 2 6901
135 2 5395
136 2 3727
137 2 9200
138 2 3870
139 2 4936
140 2 7460
141 2 5110
142 2 7479
143 2 7001
144 2 8529
145 2 2898
146 2 1653
147 2 3987
148 2 4539
149 2 5730
150 2 2745
151 2 5100
152 2 2130
153 2 6355
154 2 6586
155 2 7930
156 2 4783
157 2 2074
158 2 2972
159 2 3143
160 2 7852
161 2 5963
162 2 3149
163 2 7248
164 2 2244
165 2 3674
166 2 5432
167 2 3928
168 2 4518
169 2 3933
170 2 4370
171 2 4012
172 2 5599
173 2 3995
174 2 2550
175 2 2364
176 2 4434
177 2 3246
178 2 4238
179 2 8506
180 2 4376
181 2 5469
182 2 9246
183 2 3687
184 2 12221
185 2 3573
186 2 4960
187 2 4576
188 2 5919
189 2 5520
190 2 5444
191 2 4309
192 2 2690
193 2 3125
194 2 5412
195 2 5136
196 2 2923
197 2 3275
198 2 5355
199 2 6068
200 2 4752
201 2 2877
202 2 7247
203 2 4662
204 2 3843
205 2 5847
206 2 6156
207 2 8508
208 2 6020
209 2 2146
210 2 2485
211 2 5829
212 2 9070
213 2 6256
214 2 7412
215 2 5982
216 2 3248
217 2 9358
218 2 3466
219 2 5250
220 2 5621
221 2 3591
222 2 5139
223 2 6180
224 2 6904
225 2 7042
226 2 5196
227 2 7849
228 2 5096
229 2 4498
230 2 3261
231 2 2906
232 2 4063
233 2 2134
234 2 5085
235 2 9422
236 2 5169
237 2 7734
238 2 4404
239 2 5172
240 2 5799
241 2 6130
242 2 5410
243 2 7679
244 2 6157
245 2 3102
246 2 6599
247 2 4196
248 2 2501
249 2 4755
250 2 5921
251 2 3968
252 2 6117
253 2 5122
254 2 5081
255 2 4232
256 2 4513
257 2 8615
258 2 3326
259 2 3140
260 2 7739
261 2 6135
262 2 4735
263 2 6978
264 2 6881
265 2 5507
266 2 5325
267 2 5851
268 2 4083
269 2 5865
270 2 7741
271 2 5164
272 2 7388
273 2 2689
274 2 5147
275 2 3051
276 2 3145
277 2 3714
278 2 5364
279 2 2481
280 2 4465
281 2 3421
282 2 5694
283 2 5059
284 2 4231
285 2 3986
286 2 7190
287 2 6066
288 2 6889
289 2 5951
290 2 3910
291 2 4384
292 2 5744
293 2 7549
294 2 3522
295 2 2619
296 2 4395
297 2 2894
298 2 2630
299 2 4382
300 2 7025
301 2 5358
302 2 6814
303 2 6111
304 2 5147
305 2 5400
306 2 6235
307 2 8302
308 2 4469
309 2 6840
310 2 3377
311 2 6657
312 2 4878
313 2 5798
314 2 3004
315 2 2865
316 2 3977
317 2 3116
318 2 6167
319 2 6321
320 2 4595
321 2 5167
322 2 6746
323 2 3256
324 2 4873
325 2 7726
326 2 4681
327 2 5285
328 2 2145
329 2 4681
330 2 7314
331 2 4720
332 2 6741
333 2 9286
334 2 4574
335 2 2829
336 2 8129
337 2 5306
338 2 7946
339 2 1771
340 2 5811
341 2 4112
342 2 3187
343 2 3568
344 2 4881
345 2 8068
346 2 4103
347 2 3774
348 2 7544
349 2 5174
350 2 7525
351 2 6350
352 2 3533
353 2 3229
354 2 3628
355 2 4431
356 2 4126
357 2 2734
358 2 5511
359 2 5923
360 2 9264
361 2 3344
362 2 5225
363 2 3824
364 2 12066
365 2 5211
366 2 6017
367 2 4019
368 2 6956
369 2 5564
370 2 5115
371 2 3434
372 2 6083
373 2 4753
374 2 5591
375 2 5432
376 2 7316
377 2 4604
378 2 3481
379 2 5136
380 2 6041
381 2 5992
382 2 3970
383 2 3101
384 2 5949
385 2 6102
386 2 5107
387 2 2633
388 2 5994
389 2 5816
390 2 6312
391 2 4017
392 2 3102
393 2 5862
394 2 5398
395 2 5176
396 2 7369
397 2 4410
398 2 6888
399 2 6994
400 2 5943
401 2 7246
402 2 3204
403 2 3968
404 2 4007
405 2 5606
406 2 5698
407 2 5030
408 2 7418
409 2 3489
410 2 4102
411 2 2620
412 2 5803
413 2 2788
414 2 7088
415 2 5817
416 2 6910
417 2 3602
418 2 3515
419 2 6464
420 2 5643
421 2 3457
422 2 4394
423 2 5911
424 2 8840
425 2 3122
426 2 3039
427 2 3759
428 2 4436
429 2 5268
430 2 5239
431 2 8176
432 2 4355
433 2 8009
434 2 2583
435 2 5260
436 2 3645
437 2 7557
438 2 4134
439 2 5475
440 2 6692
441 2 3433
442 2 5085
443 2 2880
444 2 5882
445 2 4221
446 2 5594
447 2 6963
448 2 4437
449 2 5949
450 2 4846
451 2 3649
452 2 4716
453 2 4387
454 2 2358
455 2 1436
456 2 3311
457 2 5267
458 2 5569
459 2 4045
460 2 7753
461 2 4157
462 2 3131
463 2 6820
464 2 2977
465 2 3741
466 2 9492
467 2 4714
468 2 3355
469 2 6187
470 2 4501
471 2 4130
472 2 7379
473 2 8178
474 2 6542
475 2 9110
476 2 4371
477 2 7265
478 2 6230
479 2 5286
480 2 7541
481 2 5653
482 2 5203
483 2 5274
484 2 5931
485 2 2463
486 2 5108
487 2 3157
488 2 5106
489 2 6941
490 2 7884
491 2 2914
492 2 7384
493 2 9436
494 2 3828
495 2 5458
496 2 3048
497 2 3681
498 2 6376
499 2 3245
500 2 3115
1 3 3536
2 3 2418
3 3 1970
4 3 4226
5 3 4276
6 3 6831
7 3 2090
8 3 2993
9 3 2602
10 3 2356
11 3 2254
12 3 2200
13 3 1908
14 3 1869
15 3 2609
16 3 2338
17 3 2923
18 3 4423
19 3 2543
20 3 2111
21 3 2103
22 3 1750
23 3 4753
24 3 2711
25 3 2722
26 3 2222
27 3 2318
28 3 5827
29 3 3072
30 3 3810
31 3 3872
32 3 3106
33 3 1602
34 3 2740
35 3 4163
36 3 3317
37 3 5567
38 3 2930
39 3 4177
40 3 5396
41 3 3706
42 3 4370
43 3 2631
44 3 1857
45 3 4170
46 3 1288
47 3 3276
48 3 3503
49 3 3156
50 3 3322
51 3 1948
52 3 3390
53 3 3464
54 3 2849
55 3 2987
56 3 2613
57 3 6992
58 3 2630
59 3 3315
60 3 5896
61 3 2171
62 3 5888
63 3 4071
64 3 4079
65 3 4112
66 3 1842
67 3 1820
68 3 3206
69 3 2791
70 3 3743
71 3 4717
72 3 1638
73 3 6981
74 3 4679
75 3 5930
76 3 3617
77 3 3975
78 3 3564
79 3 4506
80 3 2680
81 3 5129
82 3 2323
83 3 2444
84 3 4034
85 3 2854
86 3 3908
87 3 1708
88 3 6671
89 3 3437
90 3 1922
91 3 2921
92 3 2255
93 3 6653
94 3 3206
95 3 2868
96 3 2530
97 3 2953
98 3 3939
99 3 1411
100 3 2296
101 3 2888
102 3 3389
103 3 2876
104 3 3109
105 3 4341
106 3 3381
107 3 2735
108 3 3831
109 3 4674
110 3 5035
111 3 1844
112 3 2190
113 3 3586
114 3 4577
115 3 2842
116 3 3828
117 3 2930
118 3 1749
119 3 3306
120 3 3211
121 3 5268
122 3 8409
123 3 3234
124 3 4933
125 3 1726
126 3 3608
127 3 2802
128 3 3464
129 3 3840
130 3 1792
131 3 2142
132 3 2710
133 3 3260
134 3 2703
135 3 4106
136 3 1318
137 3 5392
138 3 1360
139 3 4212
140 3 3272
141 3 2909
142 3 4272
143 3 4962
144 3 5294
145 3 1864
146 3 1867
147 3 5123
148 3 3184
149 3 3525
150 3 1455
151 3 3444
152 3 1679
153 3 2399
154 3 6357
155 3 3841
156 3 3545
157 3 1670
158 3 1725
159 3 2378
160 3 3828
161 3 1693
162 3 2309
163 3 1488
164 3 3354
165 3 2171
166 3 4553
167 3 3149
168 3 3007
169 3 3193
170 3 4365
171 3 4235
172 3 5002
173 3 2311
174 3 1401
175 3 2826
176 3 3184
177 3 2706
178 3 2900
179 3 3599
180 3 5328
181 3 3261
182 3 5402
183 3 2188
184 3 6212
185 3 3357
186 3 6759
187 3 5122
188 3 2898
189 3 3386
190 3 6921
191 3 4420
192 3 2229
193 3 2365
194 3 2772
195 3 2837
196 3 1667
197 3 3183
198 3 5852
199 3 4029
200 3 3225
201 3 1936
202 3 3037
203 3 2390
204 3 3752
205 3 3170
206 3 3515
207 3 3672
208 3 4609
209 3 1542
210 3 2695
211 3 3491
212 3 4630
213 3 3954
214 3 3846
215 3 2894
216 3 3629
217 3 4252
218 3 2144
219 3 3081
220 3 2837
221 3 1624
222 3 5228
223 3 3241
224 3 2742
225 3 3475
226 3 3402
227 3 2106
228 3 3459
229 3 3306
230 3 3723
231 3 2004
232 3 3601
233 3 1737
234 3 2888
235 3 2900
236 3 1657
237 3 1815
238 3 3398
239 3 3962
240 3 2965
241 3 2801
242 3 1856
243 3 3807
244 3 5194
245 3 1848
246 3 3833
247 3 7224
248 3 2681
249 3 3086
250 3 3297
251 3 1893
252 3 3528
253 3 2045
254 3 2730
255 3 5365
256 3 3131
257 3 5178
258 3 3295
259 3 1985
260 3 4472
261 3 1970
262 3 3218
263 3 3531
264 3 3431
265 3 2763
266 3 2771
267 3 2957
268 3 5179
269 3 5257
270 3 4646
271 3 4289
272 3 5254
273 3 1921
274 3 2867
275 3 2374
276 3 2325
277 3 2862
278 3 3771
279 3 4106
280 3 1423
281 3 1913
282 3 5179
283 3 3082
284 3 3893
285 3 3954
286 3 3542
287 3 3483
288 3 3071
289 3 2894
290 3 2987
291 3 3467
292 3 2031
293 3 4810
294 3 3790
295 3 2035
296 3 3075
297 3 1392
298 3 1707
299 3 5477
300 3 3156
301 3 1889
302 3 4470
303 3 3687
304 3 1730
305 3 5769
306 3 2632
307 3 2195
308 3 1888
309 3 3200
310 3 5248
311 3 3202
312 3 3062
313 3 3097
314 3 3546
315 3 1861
316 3 2854
317 3 3397
318 3 3558
319 3 3596
320 3 3198
321 3 3614
322 3 5652
323 3 2639
324 3 4197
325 3 3965
326 3 3513
327 3 3892
328 3 3284
329 3 3224
330 3 5201
331 3 3183
332 3 5398
333 3 6975
334 3 3016
335 3 2523
336 3 2411
337 3 5083
338 3 2538
339 3 1925
340 3 4772
341 3 2360
342 3 3434
343 3 2744
344 3 2131
345 3 2486
346 3 3263
347 3 2955
348 3 3867
349 3 1727
350 3 6085
351 3 5050
352 3 3375
353 3 2870
354 3 3806
355 3 3918
356 3 5172
357 3 2237
358 3 3921
359 3 2932
360 3 4267
361 3 3027
362 3 3501
363 3 2933
364 3 4115
365 3 2796
366 3 5040
367 3 5292
368 3 1547
369 3 2840
370 3 4139
371 3 3177
372 3 2588
373 3 3051
374 3 4415
375 3 5761
376 3 2922
377 3 5125
378 3 2123
379 3 3031
380 3 2981
381 3 1741
382 3 5526
383 3 1824
384 3 1946
385 3 4546
386 3 3149
387 3 2827
388 3 3628
389 3 4750
390 3 2584
391 3 5387
392 3 4011
393 3 3436
394 3 2256
395 3 4193
396 3 5175
397 3 3176
398 3 4134
399 3 1766
400 3 3015
401 3 3300
402 3 1621
403 3 2068
404 3 5523
405 3 4507
406 3 3818
407 3 1733
408 3 1921
409 3 3049
410 3 2923
411 3 1690
412 3 3437
413 3 1821
414 3 4523
415 3 4673
416 3 4002
417 3 3128
418 3 1569
419 3 5165
420 3 4014
421 3 3621
422 3 4485
423 3 3518
424 3 5472
425 3 3256
426 3 1855
427 3 1746
428 3 2376
429 3 4471
430 3 4413
431 3 4153
432 3 4390
433 3 3276
434 3 1694
435 3 3970
436 3 2762
437 3 4564
438 3 2120
439 3 5856
440 3 4424
441 3 5078
442 3 4192
443 3 2543
444 3 4397
445 3 3318
446 3 4874
447 3 4565
448 3 4285
449 3 3464
450 3 5699
451 3 3999
452 3 4147
453 3 4026
454 3 2929
455 3 2240
456 3 3229
457 3 1833
458 3 4875
459 3 4475
460 3 4024
461 3 5452
462 3 3911
463 3 3172
464 3 3200
465 3 2793
466 3 2427
467 3 3501
468 3 1596
469 3 2926
470 3 4290
471 3 4531
472 3 3662
473 3 4076
474 3 4991
475 3 3803
476 3 2884
477 3 2998
478 3 3543
479 3 2537
480 3 4811
481 3 3921
482 3 4087
483 3 4021
484 3 5895
485 3 2063
486 3 3381
487 3 3170
488 3 1720
489 3 2152
490 3 3016
491 3 1736
492 3 3062
493 3 4326
494 3 2826
495 3 5651
496 3 2717
497 3 3408
498 3 3536
499 3 3099
500 3 1894
5 4 3
10 4 3870
12 4 10
13 4 30
14 4 1484
16 4 1595
18 4 2
19 4 2161
21 4 377
22 4 1876
25 4 3
26 4 2786
27 4 1869
30 4 43
32 4 9
33 4 27
34 4 2253
36 4 4
38 4 4
43 4 2157
44 4 2293
45 4 3
46 4 236
58 4 386
64 4 4
67 4 3118
70 4 27
72 4 2568
77 4 40
81 4 8
83 4 2151
90 4 6
91 4 2
92 4 3
99 4 176
107 4 6
108 4 8
110 4 2690
111 4 278
112 4 3543
113 4 3
117 4 5045
118 4 5
122 4 9
125 4 1139
130 4 1934
134 4 6
135 4 8
136 4 40
138 4 1583
140 4 7
145 4 376
146 4 221
147 4 6
152 4 545
153 4 44
155 4 7
157 4 519
158 4 25
159 4 2109
160 4 2
165 4 9
166 4 2
167 4 16
168 4 36
173 4 38
174 4 1051
176 4 119
177 4 4477
181 4 1
183 4 9
189 4 5
191 4 7
192 4 1950
196 4 26
201 4 385
209 4 32
210 4 1739
221 4 2582
227 4 444
229 4 4
231 4 35
233 4 502
237 4 1305
238 4 4
245 4 1807
248 4 1799
251 4 160
253 4 2226
256 4 115
259 4 3
261 4 3
268 4 33
271 4 4
275 4 69
278 4 3
280 4 188
291 4 576
292 4 27
294 4 3457
297 4 2278
298 4 2
315 4 398
317 4 138
320 4 5
323 4 4507
327 4 10
329 4 6
335 4 2183
336 4 8
337 4 4
338 4 5
339 4 257
341 4 33
345 4 14
347 4 3
353 4 2065
354 4 3388
355 4 37
356 4 22
357 4 1962
364 4 4
365 4 1
368 4 2323
372 4 366
374 4 4
376 4 4
382 4 5
383 4 20
384 4 26
391 4 7
392 4 15
394 4 7
395 4 3
398 4 4283
399 4 2776
400 4 3
402 4 1089
403 4 2377
407 4 6
410 4 11
411 4 2683
413 4 3219
416 4 4226
421 4 10
422 4 9
423 4 64
425 4 16
426 4 1807
427 4 2014
428 4 56
430 4 3
434 4 2601
436 4 4
438 4 1068
443 4 2171
448 4 8
449 4 70
455 4 3454
462 4 16
465 4 1920
468 4 1146
470 4 2
472 4 3001
476 4 14
484 4 4
485 4 32
491 4 26
496 4 5
497 4 11
500 4 1814
10 5 3656
13 5 4
14 5 742
16 5 82
18 5 13
19 5 1123
22 5 525
26 5 55
27 5 144
30 5 46
34 5 893
43 5 1086
44 5 8
46 5 130
58 5 222
67 5 415
72 5 1516
99 5 109
102 5 1
110 5 1925
111 5 6
112 5 2129
117 5 2331
130 5 507
138 5 756
145 5 48
146 5 23
152 5 385
153 5 10
157 5 378
159 5 395
173 5 20
176 5 7
177 5 1654
192 5 1318
201 5 41
210 5 283
221 5 1568
233 5 375
237 5 577
245 5 936
248 5 255
251 5 13
253 5 2190
256 5 3
259 5 3
268 5 85
275 5 2
280 5 85
291 5 7
294 5 1607
297 5 114
315 5 56
317 5 81
323 5 1699
335 5 822
339 5 26
341 5 17
353 5 297
354 5 1609
356 5 125
357 5 1328
368 5 1417
372 5 238
398 5 2201
399 5 37
402 5 1328
403 5 43
411 5 1617
413 5 357
416 5 2263
426 5 933
427 5 507
434 5 1654
438 5 477
443 5 808
455 5 2178
465 5 701
468 5 1299
472 5 465
500 5 911
1 6 2944
3 6 31
4 6 3143
5 6 3762
6 6 2968
7 6 4
8 6 14
9 6 764
10 6 1273
11 6 7
12 6 595
13 6 157
14 6 523
15 6 1093
17 6 2126
18 6 1368
19 6 636
20 6 2598
22 6 592
23 6 3927
25 6 1384
28 6 3107
29 6 17
30 6 135
31 6 4211
32 6 361
33 6 10
34 6 243
35 6 5062
36 6 2850
37 6 1760
38 6 826
39 6 3475
40 6 4363
41 6 2491
42 6 350
43 6 549
44 6 300
45 6 2502
46 6 430
47 6 2011
48 6 2369
49 6 2608
50 6 1672
51 6 1761
52 6 2825
53 6 2464
55 6 3563
56 6 1128
57 6 5356
58 6 1199
59 6 2034
60 6 12
62 6 2644
63 6 4097
64 6 2881
65 6 3616
70 6 129
71 6 2985
72 6 531
73 6 5486
74 6 83
75 6 3099
76 6 3416
77 6 276
78 6 33
79 6 326
81 6 47
84 6 3277
85 6 2269
86 6 2946
87 6 5
88 6 2023
89 6 2854
90 6 2258
91 6 3144
92 6 548
93 6 3980
94 6 2400
95 6 2952
96 6 773
97 6 338
98 6 531
99 6 720
100 6 1608
101 6 205
102 6 181
104 6 6455
105 6 4273
106 6 2852
107 6 595
108 6 3786
109 6 2943
111 6 117
112 6 1328
113 6 4404
114 6 2309
115 6 2336
116 6 1655
118 6 2032
119 6 3207
120 6 1310
121 6 4590
122 6 3011
123 6 5647
124 6 3049
127 6 2310
129 6 2244
130 6 642
131 6 4
132 6 3223
134 6 2211
135 6 221
136 6 36
137 6 4151
138 6 1489
139 6 4341
140 6 2812
142 6 4084
143 6 3879
144 6 4592
145 6 1444
146 6 50
147 6 2579
148 6 137
149 6 638
151 6 1191
152 6 1043
153 6 172
154 6 3971
156 6 4468
157 6 1067
158 6 15
159 6 22
161 6 2576
162 6 2
163 6 2079
164 6 1582
165 6 545
166 6 3357
167 6 73
168 6 296
169 6 2321
170 6 1657
171 6 2491
172 6 3765
173 6 59
176 6 1721
177 6 1452
178 6 710
179 6 2583
180 6 3744
181 6 1347
182 6 4312
183 6 560
184 6 3807
185 6 2140
186 6 2255
187 6 121
188 6 12
189 6 1424
190 6 2823
191 6 2193
193 6 4
195 6 1385
196 6 6
197 6 2932
198 6 13
199 6 1042
201 6 1416
202 6 10
203 6 1828
204 6 3345
205 6 3963
207 6 2574
208 6 2140
209 6 6
210 6 1848
211 6 653
212 6 2974
213 6 977
214 6 879
215 6 18
216 6 1266
217 6 1027
218 6 1765
219 6 1465
222 6 4290
223 6 2710
225 6 2940
226 6 2240
228 6 3505
229 6 2272
230 6 2867
231 6 5
232 6 4529
233 6 1054
235 6 5953
236 6 11
237 6 285
238 6 2337
239 6 2927
240 6 2595
241 6 2402
242 6 898
243 6 3492
244 6 4888
245 6 1702
246 6 3140
247 6 2506
248 6 1832
249 6 119
250 6 2137
251 6 1408
253 6 2429
254 6 1426
255 6 1514
256 6 1781
257 6 3797
258 6 72
259 6 708
260 6 641
261 6 2209
263 6 2923
264 6 2233
266 6 2621
267 6 2339
268 6 2557
269 6 2852
270 6 4256
271 6 2
272 6 4706
275 6 712
276 6 1
277 6 777
278 6 2805
279 6 1670
280 6 714
281 6 49
282 6 3092
283 6 6416
284 6 2116
285 6 1678
286 6 2462
287 6 3062
288 6 513
289 6 19
290 6 175
292 6 743
293 6 5548
294 6 1468
295 6 365
296 6 3434
297 6 9
298 6 1304
299 6 2386
300 6 555
301 6 901
302 6 2620
303 6 3006
304 6 2
305 6 13
306 6 4457
307 6 2716
308 6 31
309 6 2646
311 6 1257
312 6 890
313 6 2598
315 6 1379
316 6 2337
317 6 1365
319 6 2679
320 6 289
321 6 1537
322 6 4693
323 6 1488
324 6 3124
325 6 4032
326 6 2373
327 6 5094
328 6 1590
329 6 286
330 6 4821
332 6 2521
333 6 2487
334 6 4227
335 6 612
336 6 568
337 6 49
338 6 537
339 6 49
340 6 4302
341 6 55
342 6 4103
343 6 2848
344 6 1
345 6 519
346 6 3620
347 6 781
348 6 3663
349 6 6
350 6 621
351 6 4458
352 6 2348
353 6 3
354 6 1426
355 6 114
356 6 2604
358 6 511
359 6 2307
360 6 1087
361 6 3468
362 6 4671
363 6 150
364 6 2910
365 6 2551
366 6 3846
367 6 2911
368 6 888
370 6 3219
371 6 2052
372 6 1219
373 6 127
374 6 1069
375 6 6
376 6 3001
377 6 122
378 6 843
379 6 6287
380 6 4002
381 6 2578
382 6 2406
383 6 865
384 6 732
385 6 1770
386 6 6393
388 6 3047
389 6 4204
390 6 4546
391 6 2412
392 6 18
393 6 737
394 6 2346
395 6 236
396 6 2183
397 6 2010
399 6 8
400 6 362
401 6 2245
402 6 1254
403 6 336
404 6 1551
405 6 2716
406 6 4389
407 6 2148
408 6 4752
410 6 221
411 6 548
412 6 2109
414 6 2595
415 6 4244
418 6 2448
419 6 1783
420 6 501
422 6 2140
423 6 14
424 6 3711
425 6 265
426 6 1731
427 6 594
429 6 3313
430 6 3
431 6 2439
432 6 2671
433 6 3354
434 6 521
435 6 3031
436 6 545
437 6 3580
438 6 1001
439 6 15
440 6 2857
442 6 3457
443 6 662
444 6 2306
445 6 3856
446 6 2210
447 6 3001
448 6 1565
449 6 6
450 6 2378
451 6 3217
452 6 259
453 6 2852
455 6 1301
456 6 2
458 6 3973
459 6 2122
460 6 4140
461 6 1513
462 6 22
463 6 2563
464 6 1722
465 6 71
466 6 1781
468 6 1283
469 6 18
470 6 1520
471 6 3124
472 6 43
473 6 3939
474 6 2314
475 6 957
476 6 2085
477 6 12
479 6 3949
480 6 4752
481 6 511
482 6 3082
483 6 3041
484 6 3801
485 6 21
486 6 3418
488 6 3
489 6 2046
490 6 3461
491 6 13
492 6 3659
493 6 4330
494 6 157
495 6 4068
496 6 1256
497 6 555
498 6 378
499 6 3482
500 6 1681
2 7 1073
3 7 40
5 7 6
6 7 17
7 7 1662
8 7 55
11 7 1638
12 7 15
19 7 8
20 7 7
21 7 2
24 7 547
29 7 44
33 7 42
37 7 5
42 7 7
43 7 3
54 7 2601
60 7 691
61 7 773
62 7 4
63 7 7
66 7 1448
68 7 156
69 7 543
70 7 2
74 7 47
78 7 74
79 7 4
80 7 2641
81 7 247
82 7 1137
87 7 605
89 7 3
96 7 4
103 7 2252
107 7 7
116 7 5
118 7 5
125 7 8
126 7 2983
128 7 1472
131 7 1764
133 7 1471
141 7 2072
147 7 1
148 7 96
149 7 6
150 7 1385
151 7 1
154 7 8
155 7 1354
156 7 8
158 7 53
160 7 1344
161 7 5
162 7 1645
163 7 9
165 7 16
170 7 6
175 7 2271
183 7 13
187 7 40
188 7 316
190 7 25
191 7 14
193 7 1619
194 7 522
196 7 46
198 7 694
200 7 148
202 7 39
204 7 12
206 7 1333
209 7 30
211 7 5
215 7 329
216 7 7
220 7 509
224 7 2671
227 7 4
234 7 2051
236 7 625
241 7 6
249 7 19
252 7 1335
255 7 4
258 7 34
260 7 5
262 7 157
265 7 557
271 7 1846
273 7 2150
274 7 1961
276 7 1647
281 7 10
285 7 4
289 7 329
290 7 2
291 7 12
296 7 3
304 7 635
305 7 662
307 7 6
308 7 48
310 7 1691
314 7 1432
318 7 1324
320 7 5
329 7 4
331 7 134
337 7 248
344 7 1739
346 7 6
349 7 684
350 7 45
355 7 3
363 7 4
369 7 559
373 7 19
375 7 714
377 7 64
381 7 6
387 7 2442
392 7 61
393 7 3
396 7 6
403 7 2
404 7 4
407 7 6
409 7 1787
410 7 8
417 7 1754
421 7 1064
422 7 14
423 7 3
425 7 4
428 7 10
429 7 8
430 7 1796
436 7 7
439 7 687
441 7 1606
444 7 4
448 7 4
449 7 5
451 7 14
452 7 7
454 7 2337
456 7 491
457 7 1437
461 7 7
462 7 60
466 7 5
467 7 1200
469 7 356
470 7 12
477 7 40
478 7 1319
485 7 11
487 7 2715
488 7 640
491 7 51
494 7 5
3 8 46
7 8 168
8 8 6
11 8 869
24 8 415
29 8 4
54 8 1875
60 8 1052
66 8 1238
68 8 197
69 8 421
74 8 21
78 8 21
80 8 255
81 8 3
82 8 1647
87 8 289
103 8 2057
126 8 54
128 8 619
131 8 177
133 8 28
141 8 1141
148 8 55
150 8 5
155 8 430
160 8 408
162 8 865
175 8 2022
187 8 13
188 8 81
193 8 826
194 8 432
198 8 1052
200 8 198
202 8 2
206 8 309
215 8 91
220 8 407
224 8 268
234 8 1180
236 8 328
252 8 325
260 8 15
262 8 191
265 8 423
271 8 555
273 8 1205
274 8 1079
276 8 945
289 8 97
304 8 290
305 8 1066
308 8 47
310 8 1620
314 8 559
318 8 300
331 8 206
337 8 3
344 8 173
349 8 304
369 8 415
375 8 1052
377 8 14
387 8 1279
409 8 1768
417 8 1708
430 8 525
439 8 1099
441 8 1643
454 8 2027
456 8 43
457 8 1230
467 8 756
469 8 105
477 8 5
478 8 344
487 8 1612
488 8 327
1 9 2642
3 9 1224
4 9 1033
5 9 4281
6 9 1598
7 9 1265
8 9 1640
9 9 3824
11 9 1630
12 9 159
13 9 3
15 9 475
17 9 1901
18 9 523
20 9 3216
21 9 14
22 9 4
23 9 2137
24 9 1529
25 9 1278
28 9 1803
29 9 1616
30 9 36
31 9 5990
32 9 150
33 9 25
35 9 3136
36 9 3885
37 9 3527
38 9 1041
39 9 4915
40 9 4388
41 9 3478
42 9 375
45 9 3473
47 9 915
48 9 3318
49 9 1956
50 9 1852
51 9 1269
52 9 3052
53 9 3672
54 9 1774
55 9 1873
56 9 860
57 9 5627
58 9 19
59 9 922
60 9 3665
62 9 2705
63 9 2691
64 9 1300
65 9 3268
68 9 3167
69 9 1539
70 9 303
71 9 2333
73 9 5720
74 9 557
75 9 1846
76 9 3614
77 9 205
78 9 1122
79 9 408
80 9 1428
81 9 1406
84 9 5222
85 9 1908
86 9 2321
87 9 2703
88 9 1012
89 9 1787
90 9 3654
91 9 3135
92 9 525
93 9 4096
94 9 2299
95 9 4048
96 9 1102
97 9 388
98 9 127
99 9 14
100 9 1277
101 9 1433
102 9 88
103 9 1884
104 9 2567
105 9 3537
106 9 4738
107 9 1507
108 9 2983
109 9 2363
111 9 2
113 9 2708
114 9 2963
115 9 1889
116 9 2175
118 9 809
119 9 2539
120 9 1478
121 9 3640
122 9 3153
123 9 5597
124 9 2139
126 9 589
127 9 1880
128 9 66
129 9 2220
131 9 1325
132 9 2378
134 9 2576
135 9 267
136 9 25
137 9 3319
139 9 3768
140 9 3747
141 9 1565
142 9 4406
143 9 2330
144 9 3616
145 9 11
147 9 1807
148 9 2406
149 9 1129
151 9 988
152 9 5
153 9 19
154 9 2945
155 9 1874
156 9 3361
157 9 4
158 9 23
160 9 1986
161 9 1179
162 9 1573
163 9 2452
164 9 1864
165 9 161
166 9 3427
167 9 71
168 9 208
169 9 2265
170 9 1392
171 9 1713
172 9 2470
173 9 77
175 9 1837
176 9 75
178 9 2212
179 9 3367
180 9 5455
181 9 1576
182 9 3365
183 9 155
184 9 5497
185 9 1394
186 9 3040
187 9 1378
188 9 2309
189 9 1609
190 9 1661
191 9 1443
193 9 1619
194 9 1564
195 9 1028
196 9 20
197 9 2773
198 9 3652
199 9 1901
200 9 3191
201 9 15
202 9 1539
203 9 2095
204 9 3253
205 9 1594
206 9 2460
207 9 3448
208 9 3420
209 9 8
210 9 23
211 9 1067
212 9 2324
213 9 1950
214 9 244
215 9 2305
216 9 723
217 9 1651
218 9 2396
219 9 2259
220 9 1590
222 9 2484
223 9 3239
224 9 1364
225 9 2865
226 9 3951
227 9 10
228 9 3942
229 9 1359
230 9 2895
232 9 4136
234 9 1583
235 9 4548
236 9 2796
238 9 1416
239 9 2183
240 9 1980
241 9 2541
242 9 1479
243 9 2537
244 9 2691
246 9 3365
247 9 1641
248 9 15
249 9 889
250 9 1269
251 9 263
252 9 2449
254 9 978
255 9 1989
256 9 81
257 9 4573
258 9 240
259 9 260
260 9 2727
261 9 3465
262 9 3110
263 9 2769
264 9 2135
265 9 1499
266 9 1807
267 9 1399
268 9 121
269 9 2348
270 9 1604
271 9 1257
272 9 5152
273 9 415
274 9 1671
275 9 129
276 9 1648
277 9 1874
278 9 3330
279 9 3394
280 9 19
281 9 138
282 9 3132
283 9 2477
284 9 1113
285 9 2216
286 9 3157
287 9 1785
288 9 1531
289 9 2303
290 9 286
292 9 59
293 9 3116
295 9 997
296 9 3440
298 9 933
299 9 4081
300 9 1628
301 9 1510
302 9 2191
303 9 2265
304 9 2761
305 9 3825
306 9 2525
307 9 3317
308 9 1166
309 9 2243
311 9 1459
312 9 884
313 9 1945
314 9 77
315 9 6
316 9 1932
317 9 34
318 9 2482
319 9 3879
320 9 210
321 9 2122
322 9 5755
324 9 2512
325 9 1804
326 9 2772
327 9 3727
328 9 1901
329 9 238
330 9 5206
331 9 3164
332 9 3162
333 9 2463
334 9 3160
336 9 316
337 9 1399
338 9 312
340 9 4022
341 9 82
342 9 3620
343 9 2914
344 9 1305
345 9 316
346 9 4285
347 9 1097
348 9 4629
349 9 2696
350 9 881
351 9 3264
352 9 1370
355 9 336
356 9 139
358 9 157
359 9 1426
360 9 1672
361 9 2319
362 9 4105
363 9 286
364 9 3759
365 9 2090
366 9 1892
367 9 2050
369 9 1520
370 9 1025
371 9 622
372 9 18
373 9 903
374 9 826
375 9 3861
376 9 2902
377 9 1406
378 9 643
379 9 2474
380 9 3639
381 9 1133
382 9 2318
383 9 251
384 9 51
385 9 2097
386 9 2451
387 9 1517
388 9 2352
389 9 4037
390 9 2508
391 9 2236
392 9 41
393 9 1133
394 9 2212
395 9 236
396 9 2247
397 9 2550
400 9 150
401 9 3092
404 9 1920
405 9 1361
406 9 4042
407 9 736
408 9 1314
410 9 480
412 9 1330
414 9 2233
415 9 3975
418 9 1897
419 9 1266
420 9 152
422 9 1419
423 9 3
424 9 2991
425 9 1133
427 9 4
429 9 2729
430 9 1337
431 9 2795
432 9 4382
433 9 3181
435 9 1737
436 9 1451
437 9 1790
439 9 3797
440 9 2929
442 9 2856
444 9 2205
445 9 2331
446 9 2666
447 9 3048
448 9 957
449 9 4
450 9 2541
451 9 1666
452 9 551
453 9 1194
454 9 1830
456 9 27
458 9 3796
459 9 2535
460 9 1837
461 9 1989
462 9 50
463 9 2196
464 9 1734
466 9 2881
467 9 545
469 9 2316
470 9 1093
471 9 4462
473 9 1852
474 9 2719
475 9 2480
476 9 1992
477 9 1673
478 9 2507
479 9 5200
480 9 5014
481 9 140
482 9 1751
483 9 2277
484 9 2035
485 9 21
486 9 4084
488 9 2702
489 9 2471
490 9 3044
491 9 33
492 9 2600
493 9 2745
494 9 281
495 9 897
496 9 1261
497 9 590
498 9 1002
499 9 2247
1 10 2667
3 10 134
4 10 913
5 10 1755
6 10 2795
7 10 186
8 10 280
9 10 441
10 10 36
11 10 243
12 10 301
13 10 103
15 10 705
17 10 180
18 10 1093
19 10 4
20 10 2375
22 10 35
23 10 2328
24 10 196
25 10 1137
28 10 1873
29 10 317
30 10 87
31 10 5197
32 10 122
33 10 21
35 10 2524
36 10 1701
37 10 4130
38 10 1164
39 10 3255
40 10 3072
41 10 3141
42 10 536
43 10 5
44 10 10
45 10 3900
46 10 11
47 10 1381
48 10 3649
49 10 2521
50 10 541
51 10 543
52 10 3791
53 10 3137
54 10 43
55 10 1451
56 10 918
57 10 2954
58 10 698
59 10 1369
60 10 131
62 10 1883
63 10 2714
64 10 2893
65 10 4911
68 10 300
69 10 134
70 10 99
71 10 3864
72 10 6
73 10 2956
74 10 493
75 10 1784
76 10 2650
77 10 194
78 10 120
79 10 560
80 10 5
81 10 631
84 10 4017
85 10 1574
86 10 4131
87 10 163
88 10 592
89 10 1814
90 10 2464
91 10 2835
92 10 820
93 10 2842
94 10 4772
95 10 2693
96 10 285
97 10 330
98 10 278
99 10 153
100 10 1166
101 10 703
102 10 145
103 10 29
104 10 3084
105 10 3465
106 10 1974
107 10 969
108 10 3324
109 10 3870
111 10 43
112 10 4
113 10 3617
114 10 3265
115 10 1607
116 10 1607
118 10 1665
119 10 1933
120 10 840
121 10 2579
122 10 1580
123 10 3292
124 10 3365
126 10 5
127 10 1543
129 10 2732
130 10 43
131 10 179
132 10 2506
134 10 1385
135 10 69
136 10 34
137 10 2159
138 10 182
139 10 1780
140 10 1696
141 10 45
142 10 4557
143 10 2193
144 10 2563
145 10 489
146 10 51
147 10 2146
148 10 734
149 10 545
151 10 1186
152 10 57
153 10 133
154 10 4134
155 10 57
156 10 1570
157 10 54
158 10 9
160 10 62
161 10 878
162 10 260
163 10 1724
164 10 531
165 10 296
166 10 1718
167 10 325
168 10 234
169 10 2252
170 10 999
171 10 3014
172 10 2072
173 10 61
175 10 34
176 10 789
177 10 48
178 10 1327
179 10 3079
180 10 2193
181 10 962
182 10 2271
183 10 326
184 10 3761
185 10 728
186 10 1954
187 10 334
188 10 180
189 10 994
190 10 2894
191 10 3413
193 10 233
194 10 154
195 10 2403
196 10 9
197 10 3547
198 10 134
199 10 1837
200 10 302
201 10 490
202 10 319
203 10 991
204 10 2033
205 10 5290
206 10 131
207 10 3084
208 10 2421
209 10 6
210 10 322
211 10 558
212 10 3889
213 10 1867
214 10 1351
215 10 176
216 10 2069
217 10 1764
218 10 2699
219 10 1329
220 10 134
222 10 2874
223 10 3725
224 10 5
225 10 4258
226 10 3438
228 10 2632
229 10 2271
230 10 3012
231 10 4
232 10 3585
233 10 72
234 10 38
235 10 2913
236 10 191
237 10 44
238 10 2245
239 10 4182
240 10 2529
241 10 1826
242 10 1836
243 10 2724
244 10 2472
245 10 258
246 10 2187
247 10 1468
248 10 293
249 10 195
250 10 1713
251 10 174
252 10 130
253 10 92
254 10 2456
255 10 2041
256 10 752
257 10 2706
258 10 226
259 10 406
260 10 732
261 10 2376
262 10 267
263 10 4199
264 10 2601
265 10 143
266 10 2205
267 10 2513
268 10 305
269 10 3828
270 10 2860
271 10 134
272 10 4195
274 10 42
275 10 390
276 10 259
277 10 1272
278 10 2074
279 10 2663
280 10 175
281 10 88
282 10 1871
283 10 3149
284 10 1259
285 10 1628
286 10 2834
287 10 2231
288 10 1399
289 10 174
290 10 390
292 10 197
293 10 2621
295 10 498
296 10 2933
298 10 858
299 10 2311
300 10 1310
301 10 1822
302 10 2361
303 10 1334
304 10 191
305 10 122
306 10 2906
307 10 2397
308 10 122
309 10 3754
311 10 851
312 10 1125
313 10 2474
315 10 559
316 10 1568
317 10 1002
318 10 136
319 10 2962
320 10 332
321 10 1947
322 10 2823
323 10 55
324 10 2893
325 10 3070
326 10 2211
327 10 2578
328 10 546
329 10 312
330 10 4216
331 10 278
332 10 2061
333 10 2989
334 10 2329
336 10 461
337 10 639
338 10 464
339 10 60
340 10 1429
341 10 47
342 10 3128
343 10 2163
344 10 174
345 10 477
346 10 2935
347 10 1229
348 10 2004
349 10 185
350 10 1194
351 10 1702
352 10 820
355 10 111
356 10 297
358 10 287
359 10 2504
360 10 1782
361 10 1987
362 10 1915
363 10 366
364 10 3428
365 10 1876
366 10 2308
367 10 2706
368 10 14
369 10 156
370 10 914
371 10 947
372 10 765
373 10 181
374 10 377
375 10 152
376 10 2793
377 10 301
378 10 465
379 10 3145
380 10 3093
381 10 937
382 10 872
383 10 756
384 10 184
385 10 2448
386 10 2972
387 10 26
388 10 1384
389 10 1439
390 10 2746
391 10 838
392 10 28
393 10 559
394 10 1348
395 10 73
396 10 1756
397 10 1323
400 10 118
401 10 3298
402 10 289
403 10 29
404 10 2026
405 10 1843
406 10 4055
407 10 1610
408 10 2209
410 10 238
411 10 11
412 10 1720
414 10 2415
415 10 1504
418 10 1977
419 10 899
420 10 290
422 10 3346
423 10 17
424 10 3097
425 10 537
426 10 302
427 10 36
428 10 15
429 10 2903
430 10 145
431 10 2598
432 10 2594
433 10 2103
434 10 12
435 10 1493
436 10 1010
437 10 2133
438 10 63
439 10 138
440 10 4259
442 10 1374
444 10 2200
445 10 2934
446 10 2649
447 10 4357
448 10 1967
449 10 16
450 10 2960
451 10 2095
452 10 192
453 10 1113
454 10 15
455 10 2
456 10 1
458 10 3031
459 10 2142
460 10 3106
461 10 2084
462 10 26
463 10 3853
464 10 656
466 10 2170
468 10 280
469 10 190
470 10 1918
471 10 2520
473 10 2785
474 10 1392
475 10 673
476 10 1491
477 10 307
478 10 109
479 10 3018
480 10 2865
481 10 296
482 10 1489
483 10 4179
484 10 3468
485 10 68
486 10 2610
488 10 201
489 10 1718
490 10 2842
491 10 18
492 10 1734
493 10 4009
494 10 359
495 10 2506
496 10 1190
497 10 571
498 10 505
499 10 1866
500 10 275
1 11 137
2 11 294
3 11 986
4 11 145
5 11 133
6 11 128
7 11 1131
8 11 510
9 11 203
10 11 415
11 11 727
12 11 248
13 11 290
14 11 649
15 11 156
16 11 312
17 11 112
18 11 179
19 11 771
20 11 102
21 11 672
22 11 699
23 11 44
24 11 362
25 11 101
26 11 561
27 11 417
28 11 35
29 11 549
30 11 767
31 11 20
32 11 156
33 11 449
34 11 224
35 11 93
36 11 148
37 11 86
38 11 274
39 11 5
40 11 15
41 11 58
42 11 506
43 11 762
44 11 238
45 11 71
46 11 320
47 11 102
48 11 45
49 11 182
50 11 105
51 11 90
52 11 19
53 11 79
54 11 337
55 11 100
56 11 83
57 11 287
58 11 819
59 11 112
60 11 582
61 11 520
62 11 66
63 11 171
64 11 55
65 11 128
66 11 1033
67 11 823
68 11 939
69 11 390
70 11 120
71 11 16
72 11 264
73 11 274
74 11 450
75 11 31
76 11 75
77 11 566
78 11 785
79 11 498
80 11 463
81 11 551
82 11 553
83 11 462
84 11 107
85 11 5
86 11 133
87 11 738
88 11 209
89 11 169
90 11 88
91 11 101
92 11 216
93 11 50
94 11 93
95 11 193
96 11 119
97 11 256
98 11 133
99 11 502
100 11 556
101 11 507
102 11 335
103 11 468
104 11 212
105 11 156
106 11 197
107 11 185
108 11 56
109 11 16
110 11 440
111 11 124
112 11 133
113 11 97
114 11 185
115 11 1
116 11 99
117 11 847
118 11 32
119 11 141
120 11 206
121 11 95
122 11 20
123 11 4
124 11 75
125 11 1002
126 11 1184
127 11 3
128 11 1328
129 11 196
130 11 681
131 11 1156
132 11 34
133 11 389
134 11 66
135 11 174
136 11 465
137 11 47
138 11 761
139 11 124
140 11 161
141 11 315
142 11 76
143 11 83
144 11 107
145 11 614
146 11 641
147 11 32
148 11 545
149 11 227
150 11 411
151 11 227
152 11 167
153 11 391
154 11 222
155 11 1401
156 11 35
157 11 145
158 11 418
159 11 272
160 11 1342
161 11 244
162 11 731
163 11 191
164 11 98
165 11 234
166 11 83
167 11 495
168 11 1098
169 11 232
170 11 118
171 11 99
172 11 84
173 11 397
174 11 899
175 11 476
176 11 432
177 11 732
178 11 140
179 11 80
180 11 40
181 11 118
182 11 45
183 11 265
184 11 192
185 11 125
186 11 119
187 11 1359
188 11 757
189 11 109
190 11 129
191 11 178
192 11 884
193 11 729
194 11 363
195 11 381
196 11 437
197 11 130
198 11 621
199 11 123
200 11 935
201 11 587
202 11 509
203 11 205
204 11 39
205 11 81
206 11 755
207 11 74
208 11 107
209 11 405
210 11 450
211 11 206
212 11 13
213 11 145
214 11 398
215 11 811
216 11 156
217 11 176
218 11 101
219 11 132
220 11 364
221 11 436
222 11 108
223 11 137
224 11 442
225 11 148
226 11 147
227 11 710
229 11 186
230 11 103
231 11 602
232 11 136
233 11 145
234 11 323
235 11 103
236 11 676
237 11 991
238 11 185
239 11 120
240 11 223
241 11 111
242 11 275
243 11 110
244 11 191
245 11 542
246 11 122
247 11 153
248 11 432
249 11 494
250 11 334
251 11 311
252 11 771
253 11 319
254 11 345
255 11 47
256 11 388
257 11 236
258 11 368
259 11 159
260 11 254
261 11 108
262 11 904
263 11 145
264 11 51
265 11 402
266 11 131
267 11 136
268 11 475
269 11 34
270 11 13
271 11 777
272 11 44
273 11 629
274 11 337
275 11 194
276 11 706
277 11 147
278 11 107
279 11 53
280 11 513
281 11 307
282 11 23
283 11 159
284 11 194
285 11 74
286 11 58
287 11 73
288 11 503
289 11 724
290 11 158
291 11 559
292 11 369
293 11 159
294 11 759
295 11 257
296 11 71
297 11 516
298 11 305
299 11 34
300 11 508
301 11 279
302 11 97
303 11 112
304 11 724
305 11 589
306 11 48
307 11 113
308 11 947
309 11 45
310 11 1283
311 11 165
312 11 219
313 11 228
314 11 1322
315 11 601
316 11 5
317 11 254
318 11 724
319 11 160
320 11 290
321 11 119
322 11 14
323 11 696
324 11 38
325 11 21
326 11 55
327 11 131
328 11 110
329 11 286
330 11 35
331 11 948
332 11 103
333 11 81
334 11 132
335 11 733
336 11 166
337 11 572
338 11 143
339 11 678
340 11 10
341 11 377
342 11 204
343 11 20
344 11 1087
345 11 163
346 11 133
347 11 267
348 11 19
349 11 755
350 11 329
351 11 4
352 11 104
353 11 441
354 11 769
355 11 99
356 11 463
357 11 912
358 11 101
359 11 141
360 11 131
361 11 102
362 11 132
363 11 195
364 11 215
365 11 149
366 11 76
367 11 109
368 11 1623
369 11 354
370 11 158
371 11 370
372 11 924
373 11 469
374 11 346
375 11 677
376 11 90
377 11 1385
378 11 307
379 11 168
380 11 83
381 11 246
382 11 111
383 11 388
384 11 363
385 11 197
386 11 173
387 11 601
388 11 112
389 11 6
390 11 37
391 11 92
392 11 563
393 11 224
394 11 96
395 11 183
396 11 95
397 11 83
398 11 660
399 11 644
400 11 157
401 11 92
402 11 399
403 11 521
404 11 54
405 11 60
406 11 90
407 11 36
408 11 126
409 11 593
410 11 692
411 11 269
412 11 365
413 11 819
414 11 94
415 11 5
416 11 603
417 11 589
418 11 87
419 11 115
420 11 103
421 11 607
422 11 172
423 11 727
424 11 55
425 11 595
426 11 570
427 11 700
428 11 644
429 11 38
430 11 823
431 11 121
432 11 5
433 11 228
434 11 301
435 11 171
436 11 179
437 11 63
438 11 869
439 11 629
440 11 84
441 11 1411
442 11 25
443 11 746
444 11 187
445 11 79
446 11 203
447 11 95
448 11 280
449 11 667
450 11 143
451 11 212
452 11 310
453 11 64
454 11 466
455 11 144
456 11 1061
457 11 1045
458 11 89
459 11 117
460 11 23
461 11 59
462 11 582
463 11 33
464 11 123
465 11 491
466 11 253
467 11 1093
468 11 396
469 11 815
470 11 259
471 11 211
472 11 968
473 11 101
474 11 154
475 11 116
476 11 191
477 11 494
478 11 789
479 11 69
480 11 130
481 11 107
482 11 146
483 11 131
484 11 180
485 11 161
487 11 318
488 11 702
489 11 121
490 11 124
491 11 433
492 11 35
493 11 290
494 11 212
495 11 111
496 11 111
497 11 133
498 11 216
499 11 102
500 11 574
1 12 1688
3 12 93
4 12 563
5 12 2058
6 12 2259
7 12 41
8 12 110
9 12 216
10 12 93
11 12 43
12 12 150
13 12 77
14 12 26
15 12 124
17 12 253
18 12 57
19 12 65
20 12 2319
21 12 64
22 12 27
23 12 3006
24 12 80
25 12 626
26 12 116
28 12 295
29 12 129
30 12 67
31 12 2450
32 12 376
33 12 114
34 12 35
35 12 3072
36 12 1146
37 12 2853
38 12 1350
39 12 3435
40 12 2377
41 12 875
42 12 656
43 12 60
44 12 43
45 12 1553
46 12 26
47 12 168
48 12 2598
49 12 243
50 12 305
51 12 743
52 12 2984
53 12 2215
54 12 54
55 12 1401
56 12 212
57 12 2419
58 12 25
59 12 171
60 12 21
61 12 92
62 12 1803
63 12 2017
64 12 710
65 12 1810
68 12 22
69 12 84
70 12 83
71 12 1287
72 12 26
73 12 2502
74 12 65
75 12 315
76 12 1501
77 12 62
78 12 84
79 12 651
80 12 6
81 12 84
83 12 47
84 12 938
85 12 988
86 12 2657
88 12 807
89 12 1596
90 12 1178
91 12 941
92 12 253
93 12 2969
94 12 1901
95 12 2373
96 12 287
97 12 57
98 12 279
99 12 38
100 12 121
101 12 20
102 12 85
103 12 26
104 12 495
105 12 877
106 12 894
107 12 133
108 12 3154
109 12 1284
111 12 45
112 12 4
113 12 4147
114 12 1789
115 12 1065
116 12 874
118 12 571
119 12 1527
120 12 188
121 12 3525
122 12 3486
123 12 3263
124 12 1841
125 12 98
126 12 109
127 12 999
128 12 98
129 12 2856
130 12 19
131 12 38
132 12 1568
133 12 84
134 12 383
135 12 163
136 12 129
137 12 3128
138 12 50
139 12 2164
140 12 1115
141 12 68
142 12 1341
143 12 1387
144 12 3507
145 12 48
146 12 170
147 12 2044
148 12 45
149 12 104
150 12 237
151 12 123
152 12 13
153 12 49
154 12 1883
155 12 56
156 12 717
157 12 13
158 12 93
159 12 51
160 12 38
161 12 630
162 12 35
163 12 375
164 12 271
165 12 149
166 12 2358
167 12 289
168 12 157
169 12 403
170 12 87
171 12 2858
172 12 2558
173 12 202
174 12 81
175 12 20
176 12 113
177 12 13
178 12 258
179 12 915
180 12 2103
181 12 170
182 12 3084
183 12 167
184 12 1972
185 12 739
186 12 1224
187 12 39
188 12 63
189 12 178
190 12 2242
191 12 558
193 12 34
194 12 75
195 12 310
196 12 103
197 12 2990
198 12 16
199 12 671
200 12 17
201 12 57
202 12 127
203 12 271
204 12 3478
205 12 1715
206 12 3
207 12 891
208 12 2470
209 12 55
210 12 37
211 12 90
212 12 1355
213 12 589
214 12 1404
215 12 72
216 12 582
217 12 940
218 12 520
219 12 348
220 12 73
222 12 732
223 12 1533
224 12 8
225 12 1273
226 12 1086
227 12 72
228 12 2389
229 12 437
230 12 1864
231 12 78
232 12 2443
233 12 14
234 12 89
235 12 4490
237 12 6
238 12 448
239 12 2636
240 12 248
241 12 3330
242 12 382
243 12 2209
244 12 2279
245 12 28
246 12 2164
247 12 658
248 12 31
249 12 91
250 12 349
251 12 76
252 12 5
253 12 54
254 12 329
255 12 704
256 12 85
257 12 1853
258 12 111
259 12 216
260 12 110
261 12 1211
262 12 4
263 12 1271
264 12 1488
265 12 81
266 12 1209
267 12 767
268 12 8
269 12 1035
270 12 905
271 12 35
272 12 940
273 12 74
274 12 71
275 12 38
276 12 43
277 12 509
278 12 637
279 12 2955
280 12 54
281 12 210
282 12 1787
283 12 522
284 12 257
285 12 868
286 12 2001
287 12 1927
288 12 114
289 12 51
290 12 255
291 12 121
292 12 117
293 12 1053
294 12 25
295 12 489
296 12 2202
297 12 67
298 12 473
299 12 2113
300 12 98
301 12 395
302 12 1510
303 12 1435
305 12 17
306 12 1118
307 12 2342
308 12 110
309 12 2240
311 12 176
312 12 201
313 12 253
314 12 89
315 12 35
316 12 1010
317 12 39
318 12 7
319 12 2176
320 12 335
321 12 78
322 12 2756
323 12 14
324 12 1727
325 12 2291
326 12 2190
327 12 2084
328 12 288
329 12 342
330 12 1018
331 12 14
332 12 3022
333 12 1266
334 12 964
335 12 9
336 12 4
337 12 105
338 12 5
339 12 183
340 12 1930
341 12 226
342 12 642
343 12 1556
344 12 30
345 12 4
346 12 1193
347 12 1340
348 12 2041
350 12 72
351 12 3265
352 12 726
353 12 56
354 12 23
355 12 53
356 12 4
358 12 238
359 12 728
360 12 1012
361 12 523
362 12 2800
363 12 269
364 12 1215
365 12 609
366 12 2695
367 12 897
368 12 26
369 12 71
370 12 575
371 12 134
372 12 24
373 12 115
374 12 113
375 12 24
376 12 943
377 12 40
378 12 216
379 12 489
380 12 3188
381 12 655
382 12 122
383 12 77
384 12 146
385 12 3355
386 12 462
387 12 16
388 12 1423
389 12 1888
390 12 1072
391 12 105
392 12 74
393 12 91
394 12 216
395 12 154
396 12 210
397 12 330
399 12 50
400 12 448
401 12 2200
402 12 4
403 12 31
404 12 756
405 12 856
406 12 514
407 12 589
408 12 2797
410 12 174
411 12 28
412 12 306
414 12 1547
415 12 1928
418 12 409
419 12 887
420 12 259
421 12 71
422 12 604
423 12 137
424 12 2062
425 12 436
426 12 31
427 12 18
428 12 70
429 12 1042
430 12 15
431 12 1607
432 12 1866
433 12 2926
434 12 25
435 12 303
436 12 146
437 12 1767
438 12 35
439 12 13
440 12 1812
442 12 1812
443 12 10
444 12 1372
445 12 951
446 12 1596
447 12 1924
448 12 381
449 12 131
450 12 2795
451 12 1663
452 12 253
453 12 813
454 12 27
455 12 2
456 12 79
458 12 1834
459 12 2080
460 12 2274
461 12 719
462 12 99
463 12 2228
464 12 560
465 12 12
466 12 1471
467 12 38
468 12 7
469 12 50
470 12 458
471 12 2445
472 12 100
473 12 1600
474 12 1680
475 12 413
476 12 797
477 12 126
478 12 5
479 12 2389
480 12 3365
481 12 328
482 12 281
483 12 2696
484 12 1377
485 12 123
486 12 2328
489 12 1957
490 12 2397
491 12 115
492 12 1033
493 12 1098
494 12 271
495 12 1767
496 12 647
497 12 136
498 12 140
499 12 560
500 12 36
1 13 1311
3 13 29
4 13 299
5 13 2246
6 13 2230
9 13 7
10 13 8
12 13 152
13 13 55
14 13 34
15 13 22
17 13 100
18 13 9
19 13 11
20 13 842
21 13 9
23 13 1306
24 13 125
25 13 50
26 13 6
28 13 377
30 13 11
31 13 1444
32 13 27
33 13 57
34 13 44
35 13 2220
36 13 1118
37 13 1159
38 13 186
39 13 1136
40 13 1902
41 13 274
42 13 170
43 13 10
44 13 19
45 13 2681
46 13 3
47 13 43
48 13 1113
49 13 590
50 13 208
51 13 196
52 13 2503
53 13 1567
54 13 7
55 13 1100
56 13 63
57 13 1356
58 13 15
59 13 45
61 13 55
62 13 342
63 13 1858
64 13 293
65 13 2406
68 13 54
69 13 91
70 13 17
71 13 871
73 13 1359
75 13 371
76 13 910
77 13 6
78 13 7
79 13 183
83 13 65
84 13 1216
85 13 643
86 13 2636
88 13 215
89 13 954
90 13 467
91 13 229
92 13 59
93 13 3863
94 13 398
95 13 1932
96 13 67
97 13 284
98 13 70
99 13 5
100 13 209
101 13 40
102 13 24
104 13 371
105 13 2910
106 13 1227
107 13 4
108 13 539
109 13 897
111 13 14
113 13 1797
114 13 1910
115 13 604
116 13 99
118 13 117
119 13 837
120 13 12
121 13 3654
122 13 2103
123 13 2004
124 13 1453
125 13 11
126 13 54
127 13 628
128 13 27
129 13 339
132 13 657
133 13 58
134 13 637
135 13 114
136 13 5
137 13 1877
139 13 1311
140 13 1118
142 13 961
143 13 554
144 13 3813
145 13 38
146 13 6
147 13 2094
148 13 4
149 13 9
150 13 18
151 13 10
153 13 32
154 13 2251
156 13 1920
158 13 71
159 13 8
161 13 575
163 13 150
164 13 218
165 13 141
166 13 1702
167 13 105
168 13 264
169 13 400
170 13 15
171 13 1618
172 13 700
173 13 42
174 13 2
177 13 5
178 13 86
179 13 291
180 13 1513
181 13 21
182 13 1945
183 13 138
184 13 1067
185 13 151
186 13 445
189 13 33
190 13 2225
191 13 838
194 13 109
195 13 164
196 13 53
197 13 1139
199 13 296
200 13 55
201 13 22
203 13 617
204 13 746
205 13 1856
206 13 1
207 13 276
208 13 2242
209 13 72
211 13 7
212 13 892
213 13 286
214 13 137
216 13 126
217 13 286
218 13 53
219 13 2
220 13 129
222 13 917
223 13 983
225 13 489
226 13 1598
227 13 6
228 13 1869
229 13 524
230 13 1294
231 13 30
232 13 2652
235 13 2482
238 13 536
239 13 2668
240 13 618
241 13 2759
242 13 69
243 13 1022
244 13 2144
245 13 3
246 13 1284
247 13 440
249 13 62
250 13 373
251 13 41
252 13 6
254 13 134
255 13 168
257 13 2756
259 13 56
261 13 468
262 13 47
263 13 501
264 13 1150
265 13 102
266 13 1545
267 13 497
269 13 615
270 13 1585
272 13 2807
273 13 58
275 13 13
277 13 130
278 13 655
279 13 1024
280 13 4
281 13 66
282 13 2419
283 13 354
284 13 146
285 13 113
286 13 1186
287 13 1438
288 13 16
290 13 33
291 13 72
292 13 8
293 13 1903
295 13 47
296 13 996
297 13 30
298 13 293
299 13 1431
300 13 16
301 13 113
302 13 2154
303 13 570
306 13 1530
307 13 823
308 13 38
309 13 1959
311 13 19
312 13 180
313 13 621
314 13 28
315 13 48
316 13 684
318 13 4
319 13 1998
320 13 159
321 13 1
322 13 2661
323 13 11
324 13 1360
325 13 1688
326 13 1060
327 13 871
328 13 216
329 13 186
330 13 2879
331 13 44
332 13 1324
333 13 1242
334 13 1152
336 13 11
338 13 10
339 13 12
340 13 2040
341 13 36
342 13 2636
343 13 1235
345 13 15
346 13 605
347 13 199
348 13 2167
350 13 3
351 13 1300
352 13 123
353 13 4
355 13 14
358 13 80
359 13 430
360 13 335
361 13 208
362 13 1928
363 13 23
364 13 1790
365 13 337
366 13 688
367 13 573
368 13 56
369 13 117
370 13 298
371 13 56
372 13 8
373 13 48
374 13 163
376 13 223
378 13 108
379 13 371
380 13 2655
381 13 575
382 13 47
384 13 5
385 13 1610
386 13 368
388 13 547
389 13 1989
390 13 1565
391 13 42
392 13 59
393 13 5
394 13 246
395 13 142
396 13 196
397 13 89
399 13 24
400 13 26
401 13 1121
403 13 2
404 13 182
405 13 934
406 13 1941
407 13 104
408 13 843
410 13 132
412 13 319
414 13 2102
415 13 2057
418 13 218
419 13 57
420 13 69
421 13 8
422 13 900
423 13 73
424 13 631
425 13 234
426 13 5
428 13 65
429 13 1379
431 13 1416
432 13 1494
433 13 2519
435 13 212
436 13 4
437 13 1688
438 13 3
440 13 789
442 13 1343
444 13 917
445 13 647
446 13 1148
447 13 787
448 13 160
449 13 72
450 13 1684
451 13 816
452 13 279
453 13 295
456 13 101
458 13 1497
459 13 2868
460 13 1702
461 13 162
462 13 59
463 13 1926
464 13 183
466 13 228
467 13 4
470 13 150
471 13 1076
472 13 3
473 13 1098
474 13 1985
475 13 154
476 13 363
478 13 2
479 13 2043
480 13 1352
481 13 60
482 13 226
483 13 2686
484 13 1699
485 13 155
486 13 1917
489 13 2746
490 13 2260
491 13 58
492 13 184
493 13 770
494 13 32
495 13 891
496 13 66
497 13 125
498 13 78
499 13 173
500 13 2
1 14 2734
3 14 15
4 14 197
5 14 3548
6 14 2843
10 14 4
12 14 80
13 14 38
14 14 49
15 14 5
17 14 7
19 14 52
20 14 532
21 14 40
23 14 1066
24 14 71
26 14 40
28 14 119
31 14 2829
32 14 4
33 14 21
34 14 22
35 14 3711
36 14 3178
37 14 3159
38 14 457
39 14 2019
40 14 2566
41 14 182
42 14 12
43 14 50
44 14 14
45 14 2932
47 14 4
48 14 2644
49 14 606
50 14 98
51 14 554
52 14 1862
53 14 1681
54 14 45
55 14 2342
56 14 14
57 14 3393
59 14 6
62 14 1936
63 14 2678
64 14 266
65 14 3158
68 14 21
69 14 62
71 14 1341
73 14 3332
75 14 93
76 14 2041
79 14 21
83 14 57
84 14 2930
85 14 141
86 14 2797
88 14 101
89 14 1381
90 14 12
91 14 8
92 14 5
93 14 2931
94 14 215
95 14 1314
96 14 4
97 14 5
98 14 6
100 14 166
102 14 3
104 14 139
105 14 3671
106 14 586
108 14 638
109 14 1213
113 14 4539
114 14 2660
115 14 128
118 14 9
119 14 583
121 14 2916
122 14 3053
123 14 3421
124 14 2157
125 14 49
126 14 94
127 14 136
128 14 29
129 14 1707
132 14 698
133 14 63
134 14 422
135 14 141
136 14 4
137 14 2390
139 14 1319
140 14 3232
142 14 3483
143 14 48
144 14 2800
145 14 10
146 14 5
147 14 2115
150 14 33
151 14 7
154 14 3141
156 14 3146
158 14 27
161 14 246
163 14 7
164 14 106
165 14 79
166 14 2412
167 14 87
168 14 226
169 14 1183
170 14 3
171 14 1646
172 14 2232
173 14 60
174 14 9
176 14 4
179 14 166
180 14 3552
181 14 15
182 14 2309
183 14 71
184 14 3729
185 14 4
186 14 418
189 14 13
190 14 2874
191 14 572
194 14 66
196 14 24
197 14 2451
199 14 106
200 14 12
201 14 11
203 14 1006
204 14 929
205 14 1604
207 14 176
208 14 2588
209 14 52
212 14 1315
213 14 94
214 14 16
216 14 60
217 14 969
218 14 18
220 14 47
222 14 1225
223 14 1925
225 14 205
226 14 2365
227 14 39
228 14 3704
229 14 660
230 14 3138
231 14 64
232 14 1897
235 14 4423
238 14 646
239 14 2843
240 14 615
241 14 4078
242 14 36
243 14 2328
244 14 2592
246 14 2315
247 14 215
249 14 10
250 14 138
255 14 75
256 14 4
257 14 3723
258 14 5
261 14 12
262 14 12
263 14 172
264 14 730
265 14 66
266 14 742
267 14 238
269 14 634
270 14 2850
272 14 3903
273 14 70
277 14 10
278 14 2906
279 14 1502
281 14 24
282 14 3014
283 14 162
284 14 154
286 14 2334
287 14 3860
290 14 24
291 14 27
293 14 2823
296 14 1686
298 14 60
299 14 1198
301 14 34
302 14 1181
303 14 760
306 14 1801
307 14 514
308 14 13
309 14 1534
312 14 148
313 14 629
314 14 30
315 14 8
316 14 114
319 14 2735
320 14 14
322 14 2642
324 14 675
325 14 1721
326 14 388
327 14 845
328 14 128
329 14 14
330 14 3924
331 14 13
332 14 2637
333 14 2183
334 14 3309
336 14 4
338 14 4
339 14 8
340 14 1542
341 14 54
342 14 1809
343 14 909
345 14 5
346 14 181
347 14 488
348 14 4246
351 14 1141
352 14 3
358 14 2
359 14 247
360 14 946
361 14 100
362 14 3225
363 14 31
364 14 3352
365 14 119
366 14 2613
367 14 773
368 14 9
369 14 56
370 14 194
371 14 6
373 14 9
374 14 30
376 14 13
379 14 137
380 14 2758
381 14 207
385 14 1170
386 14 154
388 14 739
389 14 1600
390 14 1787
392 14 238
394 14 18
395 14 136
396 14 292
397 14 93
400 14 7
401 14 2741
404 14 91
405 14 289
406 14 4336
407 14 3
408 14 2303
410 14 385
412 14 160
414 14 1163
415 14 1692
418 14 25
419 14 4
420 14 4
422 14 556
423 14 103
424 14 504
425 14 163
428 14 60
429 14 2986
431 14 3723
432 14 1838
433 14 4446
435 14 380
437 14 2144
440 14 2837
442 14 2763
444 14 2195
445 14 515
446 14 2689
447 14 2925
448 14 114
449 14 79
450 14 2936
451 14 104
452 14 306
453 14 679
456 14 43
458 14 2124
459 14 2753
460 14 1749
461 14 86
462 14 210
463 14 1554
464 14 14
466 14 286
470 14 133
471 14 2656
472 14 1
473 14 1964
474 14 2117
475 14 6
476 14 440
479 14 2286
480 14 4265
481 14 4
482 14 372
483 14 2818
484 14 1775
485 14 44
486 14 3725
489 14 4693
490 14 3522
491 14 26
492 14 133
493 14 1008
494 14 40
495 14 2293
497 14 70
499 14 73
1 15 72
3 15 12
4 15 43
5 15 2042
6 15 2255
10 15 3
13 15 5
20 15 50
23 15 2225
24 15 8
26 15 30
28 15 7
31 15 1143
33 15 12
34 15 5
35 15 1600
36 15 886
37 15 2120
38 15 73
39 15 399
40 15 2252
45 15 2053
48 15 378
49 15 389
50 15 7
51 15 256
52 15 615
53 15 1749
54 15 6
55 15 1034
57 15 1866
62 15 3038
63 15 396
64 15 15
65 15 2030
69 15 5
71 15 537
73 15 2004
75 15 4
76 15 271
83 15 3
84 15 2538
85 15 4
86 15 2092
89 15 313
93 15 1210
95 15 1705
100 15 2
104 15 15
105 15 1457
106 15 91
108 15 141
109 15 559
113 15 1639
114 15 1004
115 15 6
119 15 31
121 15 475
122 15 2633
123 15 3002
124 15 114
127 15 3
128 15 1
129 15 239
132 15 168
135 15 19
137 15 1482
139 15 2157
140 15 909
142 15 2077
143 15 6
144 15 441
147 15 1519
150 15 6
154 15 2534
156 15 1573
158 15 8
161 15 2
164 15 9
166 15 2424
168 15 88
169 15 552
171 15 524
172 15 1079
173 15 4
180 15 1163
182 15 1440
184 15 1848
186 15 205
190 15 2276
191 15 169
194 15 5
196 15 8
197 15 519
199 15 12
203 15 164
204 15 1276
205 15 370
208 15 1678
209 15 12
212 15 544
213 15 17
217 15 366
220 15 6
222 15 385
223 15 1016
226 15 880
228 15 1823
229 15 50
230 15 1064
232 15 1970
235 15 1419
238 15 51
239 15 2073
240 15 367
241 15 606
243 15 1814
244 15 2581
246 15 1073
247 15 19
250 15 13
257 15 2209
264 15 90
265 15 6
266 15 15
269 15 114
270 15 2695
272 15 1890
278 15 1872
279 15 441
281 15 1
282 15 1528
283 15 15
286 15 1108
287 15 1125
291 15 18
293 15 1272
296 15 408
299 15 263
302 15 256
303 15 480
306 15 344
307 15 58
308 15 10
309 15 201
312 15 28
313 15 334
314 15 5
316 15 8
319 15 3950
320 15 3
322 15 2655
324 15 37
325 15 364
326 15 112
327 15 365
328 15 6
329 15 7
330 15 2002
332 15 1624
333 15 851
334 15 950
340 15 2236
341 15 3
342 15 2512
343 15 749
347 15 74
348 15 2283
351 15 494
360 15 366
361 15 3
362 15 934
364 15 405
366 15 1200
367 15 385
369 15 6
370 15 51
371 15 15
379 15 17
380 15 1123
381 15 6
385 15 298
386 15 11
388 15 426
389 15 2190
390 15 322
392 15 39
395 15 19
396 15 49
401 15 401
405 15 228
406 15 1978
408 15 2469
410 15 132
412 15 11
414 15 280
415 15 2310
422 15 163
423 15 6
424 15 112
425 15 144
429 15 672
431 15 1117
432 15 2382
433 15 1046
437 15 662
440 15 1768
442 15 1758
444 15 1525
445 15 79
446 15 826
447 15 1855
448 15 2
449 15 5
450 15 1646
452 15 134
453 15 3
456 15 60
458 15 1399
459 15 1720
460 15 354
462 15 35
463 15 202
466 15 500
470 15 5
471 15 1710
473 15 257
474 15 536
476 15 18
479 15 767
480 15 1632
483 15 2113
484 15 2202
485 15 3
486 15 1888
489 15 1236
490 15 1980
491 15 12
493 15 1676
495 15 984
499 15 1
1 16 259
4 16 5
5 16 993
6 16 1956
20 16 5
23 16 429
31 16 3567
33 16 3
35 16 2897
36 16 809
37 16 1195
39 16 631
40 16 798
45 16 375
48 16 1483
49 16 159
51 16 85
52 16 541
53 16 1910
54 16 5
55 16 1121
57 16 3090
62 16 1998
63 16 114
65 16 1342
68 16 5
73 16 3095
76 16 470
84 16 1893
86 16 2209
89 16 369
93 16 1758
95 16 2200
105 16 1845
108 16 29
113 16 1208
114 16 1837
121 16 3205
122 16 4252
123 16 2819
128 16 5
129 16 3
132 16 9
137 16 2652
139 16 1948
140 16 786
142 16 1189
144 16 3267
145 16 7
147 16 202
150 16 34
154 16 2151
156 16 1079
158 16 5
166 16 1341
168 16 3
169 16 5
171 16 221
172 16 68
180 16 2059
182 16 2686
184 16 2811
186 16 3
190 16 2025
191 16 7
196 16 4
197 16 346
200 16 3
201 16 2
203 16 36
204 16 512
205 16 123
208 16 926
217 16 398
223 16 1762
226 16 1503
228 16 1783
230 16 1251
232 16 2581
235 16 2821
239 16 2290
240 16 133
241 16 1025
243 16 908
244 16 1662
246 16 907
249 16 6
257 16 2006
262 16 7
269 16 2
270 16 2488
272 16 2196
278 16 1587
279 16 211
282 16 1312
286 16 489
287 16 541
291 16 14
293 16 1477
296 16 988
302 16 283
306 16 5
307 16 6
309 16 7
313 16 156
314 16 5
315 16 7
319 16 2730
322 16 2139
325 16 126
326 16 6
327 16 410
330 16 2114
331 16 6
332 16 1921
333 16 2696
334 16 1671
336 16 3
338 16 2
340 16 3659
342 16 2409
343 16 558
345 16 7
348 16 1934
351 16 12
360 16 358
362 16 2057
364 16 1025
366 16 1306
367 16 68
370 16 3
373 16 6
380 16 1711
385 16 39
389 16 3833
390 16 7
392 16 6
401 16 1140
405 16 61
406 16 2290
408 16 3729
410 16 12
414 16 259
415 16 3690
422 16 3
425 16 75
428 16 4
429 16 552
431 16 1982
432 16 2165
433 16 2626
437 16 743
440 16 2272
442 16 2743
444 16 212
446 16 2345
447 16 2445
450 16 1014
452 16 97
458 16 2787
459 16 2138
460 16 138
462 16 5
463 16 4
466 16 241
471 16 167
473 16 40
474 16 113
479 16 1210
480 16 3702
483 16 2272
484 16 1749
486 16 1828
489 16 607
490 16 1641
491 16 9
493 16 1416
495 16 160
1 17 3448
2 17 592
3 17 259
4 17 2029
5 17 3450
6 17 2902
7 17 174
8 17 199
9 17 1704
10 17 1956
11 17 138
12 17 2141
13 17 3504
14 17 1917
15 17 3375
16 17 1349
17 17 2945
18 17 1857
19 17 2730
20 17 3441
21 17 1466
22 17 2379
23 17 4368
24 17 148
25 17 2002
26 17 2954
27 17 1448
28 17 6513
29 17 200
30 17 2123
31 17 3175
32 17 2047
33 17 2042
34 17 2582
35 17 4226
36 17 4952
37 17 5473
38 17 4393
39 17 2376
40 17 3852
41 17 3933
42 17 2897
43 17 2715
44 17 1595
45 17 4536
46 17 1143
47 17 2674
48 17 2947
49 17 2419
50 17 2523
51 17 4794
52 17 3944
53 17 3561
54 17 203
55 17 3830
56 17 3514
57 17 5244
58 17 3553
59 17 2603
60 17 144
61 17 261
62 17 4451
63 17 3837
64 17 4055
65 17 3449
66 17 169
67 17 2751
68 17 261
69 17 145
70 17 3386
71 17 3844
72 17 1615
73 17 5369
74 17 476
75 17 6503
76 17 2847
77 17 2326
78 17 121
79 17 2883
80 17 499
81 17 226
82 17 129
83 17 2829
84 17 4770
85 17 1908
86 17 4534
87 17 177
88 17 2676
89 17 3542
90 17 3914
91 17 4160
92 17 1685
93 17 3844
94 17 2780
95 17 2711
96 17 2854
97 17 2134
98 17 4018
99 17 2004
100 17 3285
101 17 936
102 17 2462
103 17 73
104 17 6094
105 17 5166
106 17 3141
107 17 1987
108 17 4284
109 17 3872
110 17 2799
111 17 1391
112 17 2079
113 17 3560
114 17 7172
115 17 1855
116 17 4818
117 17 1805
118 17 2271
119 17 2856
120 17 1322
121 17 3648
122 17 4062
123 17 3601
124 17 2772
125 17 2636
126 17 89
127 17 1978
128 17 215
129 17 3822
130 17 2327
131 17 202
132 17 4006
133 17 228
134 17 2699
135 17 3025
136 17 1607
137 17 5151
138 17 1397
139 17 3186
140 17 4884
141 17 41
142 17 5259
143 17 4062
144 17 3709
145 17 2513
146 17 2115
147 17 4873
148 17 327
149 17 1779
150 17 297
151 17 1953
152 17 1454
153 17 1633
154 17 6127
155 17 154
156 17 3394
157 17 1494
158 17 2206
159 17 2350
160 17 154
161 17 5709
162 17 151
163 17 4439
164 17 2490
165 17 1984
166 17 3659
167 17 2885
168 17 3453
169 17 4514
170 17 3125
171 17 2873
172 17 4296
173 17 1254
174 17 1501
175 17 61
176 17 3264
177 17 2733
178 17 3577
179 17 4146
180 17 5366
181 17 2252
182 17 5120
183 17 2153
184 17 7615
185 17 1520
186 17 3153
187 17 370
188 17 154
189 17 2197
190 17 2972
191 17 4719
192 17 2520
193 17 129
194 17 142
195 17 2588
196 17 2112
197 17 5646
198 17 137
199 17 4360
200 17 279
201 17 2521
202 17 235
203 17 2621
204 17 4034
205 17 3070
206 17 105
207 17 3987
208 17 3588
209 17 1761
210 17 1520
211 17 1835
212 17 3785
213 17 4296
214 17 3694
215 17 161
216 17 3334
217 17 3484
218 17 3120
219 17 1769
220 17 143
221 17 1758
222 17 7532
223 17 4846
224 17 504
225 17 5051
226 17 3252
227 17 1382
228 17 6418
229 17 5400
230 17 2770
231 17 1203
232 17 3868
233 17 1531
234 17 53
235 17 3230
236 17 198
237 17 2441
238 17 5206
239 17 4661
240 17 2399
241 17 4142
242 17 2390
243 17 4139
244 17 4570
245 17 2267
246 17 3825
247 17 3550
248 17 1576
249 17 1383
250 17 3203
251 17 1869
252 17 125
253 17 4191
254 17 2556
255 17 5011
256 17 3318
257 17 3210
258 17 511
259 17 2096
260 17 473
261 17 3698
262 17 240
263 17 5169
264 17 5512
265 17 126
266 17 3931
267 17 2907
268 17 2421
269 17 4086
270 17 3719
271 17 288
272 17 4396
273 17 219
274 17 32
275 17 1496
276 17 133
277 17 2971
278 17 3603
279 17 3156
280 17 2038
281 17 2469
282 17 5600
283 17 6170
284 17 2215
285 17 4662
286 17 4099
287 17 3999
288 17 1236
289 17 163
290 17 1255
291 17 1196
292 17 2356
293 17 4564
294 17 2207
295 17 2369
296 17 5116
297 17 1852
298 17 2675
299 17 5607
300 17 1262
301 17 2353
302 17 2986
303 17 4582
304 17 172
305 17 115
306 17 2707
307 17 3495
308 17 287
309 17 3541
310 17 108
311 17 1236
312 17 3201
313 17 2431
314 17 239
315 17 2466
316 17 1966
317 17 1261
318 17 119
319 17 3264
320 17 2050
321 17 2563
322 17 6534
323 17 2739
324 17 3794
325 17 5632
326 17 4121
327 17 2943
328 17 2485
329 17 2072
330 17 4473
331 17 232
332 17 7486
333 17 4432
334 17 4202
335 17 2584
336 17 2861
337 17 209
338 17 2769
339 17 2113
340 17 1989
341 17 1312
342 17 4758
343 17 4544
344 17 195
345 17 2851
346 17 3201
347 17 4560
348 17 4330
349 17 169
350 17 433
351 17 3681
352 17 1586
353 17 2192
354 17 2349
355 17 3507
356 17 2615
357 17 2600
358 17 3960
359 17 2803
360 17 3461
361 17 3740
362 17 3722
363 17 1181
364 17 3144
365 17 2647
366 17 3693
367 17 6314
368 17 3062
369 17 117
370 17 2149
371 17 2351
372 17 3692
373 17 1345
374 17 3019
375 17 129
376 17 4160
377 17 394
378 17 1407
379 17 6161
380 17 3527
381 17 5671
382 17 2175
383 17 2904
384 17 2383
385 17 4497
386 17 6068
387 17 266
388 17 4551
389 17 1976
390 17 2739
391 17 2186
392 17 2209
393 17 1772
394 17 1936
395 17 3048
396 17 3130
397 17 3186
398 17 3093
399 17 1893
400 17 2073
401 17 4458
402 17 1307
403 17 817
404 17 4902
405 17 4294
406 17 5554
407 17 2313
408 17 5012
409 17 163
410 17 3231
411 17 1592
412 17 3180
413 17 2813
414 17 3024
415 17 2038
416 17 3046
417 17 210
418 17 4148
419 17 2170
420 17 4030
421 17 109
422 17 4757
423 17 2802
424 17 4998
425 17 4717
426 17 2276
427 17 2473
428 17 1400
429 17 4268
430 17 283
431 17 4780
432 17 2203
433 17 2842
434 17 1603
435 17 2904
436 17 1904
437 17 4219
438 17 2249
439 17 115
440 17 3285
441 17 90
442 17 3451
443 17 2677
444 17 5614
445 17 3517
446 17 4228
447 17 3471
448 17 4592
449 17 2753
450 17 4274
451 17 4815
452 17 2929
453 17 3029
454 17 76
455 17 2001
456 17 545
457 17 169
458 17 4369
459 17 3520
460 17 5448
461 17 5098
462 17 2157
463 17 3673
464 17 3068
465 17 1623
466 17 3183
467 17 157
468 17 1290
469 17 167
470 17 4483
471 17 2986
472 17 2939
473 17 3441
474 17 4054
475 17 4490
476 17 3708
477 17 246
478 17 130
479 17 2552
480 17 5236
481 17 4022
482 17 2944
483 17 4616
484 17 4323
485 17 1054
486 17 6350
487 17 59
488 17 181
489 17 5061
490 17 4900
491 17 2117
492 17 5867
493 17 4008
494 17 1233
495 17 4137
496 17 1921
497 17 2291
498 17 725
499 17 3704
500 17 2258
1 18 5397
2 18 2209
3 18 4822
4 18 5384
5 18 6018
6 18 5832
7 18 5394
8 18 6299
9 18 5958
10 18 4740
11 18 4455
12 18 3930
13 18 4761
14 18 2715
15 18 5033
16 18 3066
17 18 5187
18 18 5766
19 18 4351
20 18 8104
21 18 3311
22 18 2884
23 18 5269
24 18 4721
25 18 5152
26 18 5962
27 18 5475
28 18 5942
29 18 6346
30 18 3464
31 18 6423
32 18 4854
33 18 6813
34 18 2666
35 18 7086
36 18 5239
37 18 7870
38 18 6458
39 18 6310
40 18 6465
41 18 3131
42 18 4290
43 18 4479
44 18 1951
45 18 6324
46 18 1991
47 18 5958
48 18 4425
49 18 4043
50 18 5261
51 18 6227
52 18 5059
53 18 6360
54 18 5412
55 18 7990
56 18 6612
57 18 6592
58 18 2529
59 18 5810
60 18 4795
61 18 3889
62 18 6672
63 18 5025
64 18 4575
65 18 4463
66 18 8543
67 18 3448
68 18 5990
69 18 4828
70 18 3355
71 18 6770
72 18 4725
73 18 6636
74 18 2421
75 18 5770
76 18 6122
77 18 7250
78 18 2790
79 18 4312
80 18 5260
81 18 6821
82 18 2664
83 18 4918
84 18 6390
85 18 5050
86 18 5728
87 18 6362
88 18 3680
89 18 4012
90 18 5613
91 18 6517
92 18 6232
93 18 5386
94 18 5415
95 18 5062
96 18 3030
97 18 2942
98 18 6121
99 18 5551
100 18 3964
101 18 5827
102 18 2767
103 18 4141
104 18 5947
105 18 4209
106 18 4493
107 18 4469
108 18 6546
109 18 6740
110 18 2651
111 18 3847
112 18 1672
113 18 9738
114 18 4749
115 18 4810
116 18 4697
117 18 3067
118 18 4174
119 18 3576
120 18 4647
121 18 6772
122 18 5940
123 18 5663
124 18 5813
125 18 3294
126 18 4860
127 18 5022
128 18 5756
129 18 5441
130 18 2914
131 18 5623
132 18 5201
133 18 2705
134 18 2899
135 18 5538
136 18 5274
137 18 8350
138 18 2639
139 18 5441
140 18 5334
141 18 3819
142 18 10181
143 18 5545
144 18 6852
145 18 3124
146 18 3385
147 18 5103
148 18 3690
149 18 6449
150 18 3875
151 18 5966
152 18 2877
153 18 3978
154 18 5745
155 18 3535
156 18 6930
157 18 2919
158 18 6654
159 18 6046
160 18 3404
161 18 4808
162 18 4393
163 18 3918
164 18 5265
165 18 3930
166 18 6435
167 18 2926
168 18 4547
169 18 8523
170 18 4215
171 18 3776
172 18 4371
173 18 1991
174 18 2314
175 18 4149
176 18 4894
177 18 3785
178 18 4318
179 18 3080
180 18 4537
181 18 6682
182 18 8326
183 18 3962
184 18 5451
185 18 4041
186 18 6086
187 18 5308
188 18 5096
189 18 6691
190 18 5789
191 18 4430
192 18 4011
193 18 4385
194 18 4731
195 18 2630
196 18 6677
197 18 3982
198 18 4747
199 18 9025
200 18 6174
201 18 3165
202 18 6342
203 18 5869
204 18 5214
205 18 7448
206 18 6218
207 18 3204
208 18 3159
209 18 6111
210 18 3536
211 18 6553
212 18 6857
213 18 9160
214 18 5559
215 18 5246
216 18 4441
217 18 5023
218 18 6847
219 18 5232
220 18 4830
221 18 2940
222 18 4159
223 18 6187
224 18 5322
225 18 10770
226 18 4044
227 18 3310
228 18 5765
229 18 4950
230 18 6494
231 18 2961
232 18 8343
233 18 2905
234 18 3699
235 18 5165
236 18 6279
237 18 2499
238 18 4885
239 18 5659
240 18 4069
241 18 5360
242 18 3423
243 18 7613
244 18 5995
245 18 2942
246 18 3960
247 18 4838
248 18 3444
249 18 5531
250 18 4337
251 18 5736
252 18 6259
253 18 3267
254 18 2553
255 18 3868
256 18 4888
257 18 11207
258 18 4051
259 18 5366
260 18 8065
261 18 5703
262 18 6106
263 18 10723
264 18 3513
265 18 4852
266 18 5518
267 18 5747
268 18 10803
269 18 6065
270 18 6802
271 18 5357
272 18 8053
273 18 3957
274 18 3781
275 18 1977
276 18 4551
277 18 3474
278 18 4391
279 18 5097
280 18 5554
281 18 5485
282 18 6584
283 18 6057
284 18 5080
285 18 4739
286 18 4743
287 18 4660
288 18 6219
289 18 5332
290 18 3958
291 18 3492
292 18 3565
293 18 5020
294 18 4116
295 18 3419
296 18 5976
297 18 3266
298 18 6966
299 18 5962
300 18 6183
301 18 3402
302 18 7295
303 18 4500
304 18 6144
305 18 4797
306 18 6969
307 18 8100
308 18 4674
309 18 3912
310 18 3776
311 18 4580
312 18 7989
313 18 4073
314 18 5717
315 18 3117
316 18 4965
317 18 5083
318 18 6260
319 18 4173
320 18 5600
321 18 3677
322 18 6746
323 18 3914
324 18 4454
325 18 5525
326 18 4298
327 18 4434
328 18 5183
329 18 5531
330 18 8323
331 18 6057
332 18 5092
333 18 7372
334 18 7559
335 18 5082
336 18 4507
337 18 6793
338 18 4312
339 18 3276
340 18 4423
341 18 1977
342 18 3868
343 18 4696
344 18 5750
345 18 4386
346 18 5413
347 18 6428
348 18 6228
349 18 6236
350 18 7907
351 18 5110
352 18 4095
353 18 1842
354 18 4211
355 18 3577
356 18 10833
357 18 3947
358 18 6147
359 18 5438
360 18 4979
361 18 4728
362 18 5594
363 18 3969
364 18 8112
365 18 7760
366 18 4269
367 18 5581
368 18 1969
369 18 4858
370 18 5280
371 18 5835
372 18 2440
373 18 5594
374 18 3291
375 18 4907
376 18 6502
377 18 5236
378 18 5301
379 18 5883
380 18 5280
381 18 4795
382 18 4059
383 18 4725
384 18 3587
385 18 4294
386 18 5950
387 18 6272
388 18 4308
389 18 4464
390 18 6992
391 18 4034
392 18 2956
393 18 6567
394 18 7067
395 18 5636
396 18 6437
397 18 4530
398 18 4215
399 18 3806
400 18 4862
401 18 8037
402 18 1159
403 18 7053
404 18 3730
405 18 6394
406 18 3528
407 18 4155
408 18 7604
409 18 4719
410 18 7940
411 18 4791
412 18 4500
413 18 3328
414 18 7607
415 18 4421
416 18 4326
417 18 4766
418 18 5500
419 18 3848
420 18 6222
421 18 3237
422 18 4373
423 18 3578
424 18 4961
425 18 7609
426 18 2946
427 18 3089
428 18 2681
429 18 6621
430 18 5394
431 18 6345
432 18 5675
433 18 5770
434 18 4685
435 18 6897
436 18 4413
437 18 4673
438 18 2514
439 18 4897
440 18 7689
441 18 3923
442 18 5700
443 18 5200
444 18 7528
445 18 4807
446 18 4043
447 18 7951
448 18 6490
449 18 3642
450 18 6811
451 18 4897
452 18 5305
453 18 5193
454 18 4144
455 18 1793
456 18 3804
457 18 8472
458 18 6295
459 18 7324
460 18 5390
461 18 3670
462 18 2915
463 18 3935
464 18 5239
465 18 3584
466 18 6497
467 18 2798
468 18 1113
469 18 5218
470 18 6484
471 18 4595
472 18 2694
473 18 3408
474 18 6194
475 18 3987
476 18 4424
477 18 6316
478 18 6120
479 18 4770
480 18 10307
481 18 6153
482 18 6752
483 18 5774
484 18 4580
485 18 1766
486 18 5878
487 18 5511
488 18 6297
489 18 5745
490 18 6565
491 18 6803
492 18 4424
493 18 7017
494 18 4017
495 18 5512
496 18 5178
497 18 3851
498 18 4948
499 18 4941
500 18 2971
1 19 4504
4 19 1470
5 19 3947
6 19 3884
10 19 14
20 19 362
23 19 2609
26 19 97
31 19 4202
33 19 21
34 19 34
35 19 4033
36 19 5610
37 19 4322
39 19 3631
40 19 3563
45 19 3198
48 19 3605
49 19 3035
51 19 2758
52 19 4878
53 19 4383
55 19 2728
57 19 4886
62 19 5355
63 19 1845
65 19 3768
68 19 5
71 19 174
73 19 5128
76 19 3754
83 19 45
84 19 5302
86 19 3891
89 19 3294
93 19 5826
95 19 3108
100 19 3
104 19 3
105 19 3897
108 19 566
109 19 186
113 19 6191
114 19 2988
121 19 3748
122 19 5724
123 19 5112
124 19 118
125 19 15
128 19 54
129 19 2579
132 19 299
133 19 36
137 19 4293
139 19 4650
140 19 5695
142 19 7696
144 19 3897
145 19 3
147 19 3733
150 19 343
154 19 4984
156 19 3919
158 19 17
166 19 4456
168 19 5
169 19 1547
171 19 2697
172 19 3137
180 19 3385
182 19 4414
184 19 5311
186 19 154
190 19 3799
191 19 208
196 19 19
197 19 4240
200 19 1
201 19 4
203 19 727
204 19 2971
205 19 3119
208 19 4445
209 19 6
212 19 165
217 19 5220
222 19 534
223 19 3937
226 19 3373
228 19 3827
230 19 4043
232 19 3272
235 19 5904
239 19 4007
240 19 3171
241 19 3241
243 19 3592
244 19 4170
246 19 3507
247 19 3
249 19 3
250 19 6
257 19 6289
262 19 9
269 19 48
270 19 3271
272 19 5309
278 19 9026
279 19 3112
282 19 3151
283 19 4
286 19 3902
287 19 4066
291 19 341
293 19 2076
296 19 3822
299 19 362
302 19 4184
303 19 139
306 19 899
307 19 393
309 19 123
313 19 3093
314 19 66
315 19 2
319 19 6217
322 19 5081
325 19 3449
326 19 31
327 19 3647
330 19 5483
331 19 4
332 19 4728
333 19 5627
334 19 5351
340 19 4507
342 19 1398
343 19 4348
348 19 4636
351 19 306
360 19 5164
362 19 3400
364 19 6462
366 19 4086
367 19 2787
370 19 1478
373 19 6
379 19 7
380 19 3727
385 19 1128
386 19 3
388 19 127
389 19 4570
390 19 937
392 19 69
396 19 63
401 19 4182
405 19 2428
406 19 6105
408 19 3969
410 19 927
412 19 4
414 19 4159
415 19 4578
422 19 209
424 19 157
425 19 2808
428 19 15
429 19 7207
431 19 2931
432 19 3037
433 19 6125
435 19 86
437 19 3557
440 19 3760
442 19 4460
444 19 4073
445 19 34
446 19 4112
447 19 3934
450 19 4895
452 19 3000
456 19 405
458 19 4084
459 19 4410
460 19 3440
462 19 51
463 19 135
466 19 2938
471 19 3165
473 19 952
474 19 3462
479 19 4090
480 19 4937
482 19 71
483 19 3844
484 19 4972
486 19 3913
489 19 3752
490 19 4258
491 19 17
493 19 5780
495 19 5493
1 20 106
2 20 4453
3 20 8222
4 20 1671
7 20 6431
8 20 11227
9 20 5739
10 20 3557
11 20 4908
12 20 6967
13 20 16092
14 20 6240
15 20 5402
16 20 10237
17 20 6567
18 20 12139
19 20 11857
20 20 3634
21 20 6317
22 20 12214
23 20 176
24 20 10839
25 20 5535
26 20 3287
27 20 4788
28 20 9314
29 20 11363
30 20 7627
32 20 4005
33 20 1679
34 20 2538
35 20 5
38 20 9714
39 20 12
40 20 19
41 20 8316
42 20 5643
43 20 11958
44 20 13367
46 20 7797
47 20 9797
49 20 148
50 20 6537
51 20 276
52 20 41
54 20 3829
56 20 4949
58 20 11241
59 20 9908
60 20 7706
61 20 6042
63 20 240
64 20 7005
65 20 7
66 20 8365
67 20 4444
68 20 4397
69 20 10874
70 20 6276
71 20 3120
72 20 9171
74 20 7834
75 20 9257
76 20 15
77 20 4100
78 20 4634
79 20 5748
80 20 6563
81 20 9468
82 20 4748
83 20 3757
85 20 9055
87 20 5584
88 20 7503
89 20 33
90 20 7965
91 20 9755
92 20 14646
94 20 7997
96 20 6661
97 20 13791
98 20 4749
99 20 8535
100 20 5326
101 20 8112
102 20 15226
103 20 12857
104 20 6920
105 20 7
106 20 11172
107 20 9144
108 20 469
109 20 3184
110 20 19045
111 20 2010
112 20 3394
113 20 15
114 20 34
115 20 9045
116 20 7069
117 20 4391
118 20 14679
119 20 8039
120 20 13954
122 20 4
124 20 5513
125 20 3772
126 20 2940
127 20 9122
128 20 4828
129 20 768
130 20 12201
131 20 6521
132 20 3419
133 20 1825
134 20 7484
135 20 6614
136 20 2795
138 20 9281
141 20 16206
143 20 7127
145 20 4914
146 20 3766
147 20 106
148 20 7043
149 20 6198
150 20 899
151 20 5426
152 20 3952
153 20 3595
155 20 10105
156 20 6
157 20 4125
158 20 1699
159 20 14784
160 20 9927
161 20 10326
162 20 4661
163 20 7473
164 20 6550
165 20 6750
167 20 4785
168 20 4205
169 20 1638
170 20 12410
171 20 194
172 20 321
173 20 4282
174 20 6948
175 20 12937
176 20 7880
177 20 9819
178 20 2486
179 20 8357
181 20 28097
183 20 6953
184 20 5
185 20 11073
186 20 4601
187 20 6973
188 20 12294
189 20 28310
191 20 3601
192 20 8001
193 20 4808
194 20 10902
195 20 4850
196 20 1729
197 20 73
198 20 7731
199 20 5389
200 20 4332
201 20 4860
202 20 11216
203 20 2681
204 20 67
205 20 182
206 20 5314
207 20 8408
208 20 24
209 20 2664
210 20 3419
211 20 6302
212 20 3147
213 20 5551
214 20 8498
215 20 12556
216 20 7151
217 20 135
218 20 5293
219 20 10474
220 20 10970
221 20 4501
222 20 2635
223 20 8
224 20 6664
225 20 4909
227 20 6324
228 20 11
229 20 10770
231 20 3925
233 20 4150
234 20 16041
235 20 6
236 20 5497
237 20 7675
238 20 10917
240 20 127
241 20 9
242 20 8563
244 20 17
245 20 14414
246 20 106
247 20 11726
248 20 3537
249 20 4578
250 20 12584
251 20 13247
252 20 5340
253 20 9866
254 20 4687
255 20 5849
256 20 7946
258 20 14375
259 20 10416
260 20 13608
261 20 7949
262 20 4409
263 20 4854
264 20 11050
265 20 11056
266 20 6352
267 20 12153
268 20 9533
269 20 5670
270 20 6
271 20 8518
273 20 7464
274 20 15943
275 20 6356
276 20 4701
277 20 15459
278 20 5
279 20 109
280 20 8859
281 20 7051
282 20 3
283 20 6934
284 20 6342
285 20 7348
286 20 40
287 20 4
288 20 5752
289 20 12160
290 20 6481
291 20 1588
292 20 6235
293 20 16
294 20 9221
295 20 9745
297 20 5798
298 20 7475
299 20 5200
300 20 5849
301 20 8768
302 20 83
303 20 6064
304 20 5580
305 20 7735
306 20 1953
307 20 3725
308 20 8179
309 20 4199
310 20 9275
311 20 14264
312 20 8697
313 20 139
314 20 4795
315 20 4768
316 20 9097
317 20 4421
318 20 5315
320 20 7412
321 20 13307
322 20 16
323 20 9857
324 20 9500
325 20 360
326 20 5771
327 20 40
328 20 6688
329 20 7459
331 20 4452
335 20 5448
336 20 4628
337 20 9185
338 20 4508
339 20 3770
340 20 5
341 20 4186
343 20 137
344 20 6695
345 20 4537
346 20 4785
347 20 9789
348 20 10
349 20 5556
350 20 10467
351 20 929
352 20 11172
353 20 4366
354 20 9518
355 20 6150
356 20 9571
357 20 7952
358 20 4788
359 20 12240
360 20 127
361 20 7046
362 20 9
363 20 6383
365 20 5057
367 20 532
368 20 3753
369 20 10964
370 20 1734
371 20 4112
372 20 11079
373 20 4697
374 20 6927
375 20 7696
376 20 9613
377 20 6970
378 20 10889
379 20 7057
381 20 10557
382 20 5989
383 20 13954
384 20 6221
385 20 1039
386 20 7048
387 20 5995
388 20 5995
389 20 7
390 20 1876
391 20 5951
392 20 3574
393 20 6159
394 20 8309
395 20 6473
396 20 5462
397 20 7664
398 20 4265
399 20 10736
400 20 3946
402 20 11529
403 20 7520
404 20 5816
405 20 259
406 20 3
407 20 14996
409 20 5815
410 20 2325
411 20 9304
412 20 12613
413 20 4545
414 20 82
415 20 6
416 20 4318
417 20 5963
418 20 8275
419 20 22701
420 20 4822
421 20 13966
422 20 3360
423 20 9946
424 20 4971
425 20 215
426 20 14700
427 20 12073
428 20 3442
429 20 11
430 20 8462
434 20 9530
435 20 6171
436 20 9489
438 20 4440
439 20 7686
440 20 6
441 20 9404
443 20 5520
444 20 556
445 20 3689
447 20 9
448 20 8779
449 20 9995
450 20 4
451 20 8031
452 20 633
453 20 8007
454 20 12827
455 20 3408
456 20 424
457 20 8500
460 20 363
461 20 5840
462 20 3514
463 20 4225
464 20 6181
465 20 9515
466 20 97
467 20 5623
468 20 11611
469 20 12531
470 20 8748
471 20 320
472 20 22623
473 20 2320
474 20 142
475 20 7647
476 20 5291
477 20 11236
478 20 5256
481 20 4857
482 20 6336
485 20 5125
486 20 3
487 20 14210
488 20 5483
491 20 1709
492 20 6752
493 20 2
494 20 6393
495 20 14
496 20 5565
497 20 8906
498 20 6207
499 20 7036
500 20 14754
1 21 272
2 21 2408
3 21 4619
4 21 2882
5 21 97
6 21 22
7 21 4358
8 21 2594
9 21 3670
10 21 3358
11 21 3302
12 21 3611
13 21 3568
14 21 2613
15 21 5237
16 21 1361
17 21 2554
18 21 3243
19 21 2528
20 21 5559
21 21 2821
22 21 2597
23 21 332
24 21 2354
25 21 3135
26 21 3088
27 21 873
28 21 6563
29 21 2577
30 21 1693
32 21 3072
33 21 3112
34 21 2826
35 21 6
36 21 14
37 21 24
38 21 4853
39 21 46
40 21 1
41 21 3286
42 21 5044
43 21 2485
44 21 2362
45 21 61
46 21 3202
47 21 4313
48 21 38
49 21 630
50 21 3993
51 21 517
52 21 155
53 21 8
54 21 3687
55 21 38
56 21 2990
58 21 3113
59 21 4317
60 21 7486
61 21 1854
63 21 1404
64 21 5118
65 21 45
66 21 3109
67 21 1879
68 21 4256
69 21 2402
70 21 4818
71 21 3093
72 21 2243
74 21 6263
75 21 6643
76 21 129
77 21 2917
78 21 3703
79 21 5044
80 21 3692
81 21 5305
82 21 1774
83 21 2801
84 21 18
85 21 3407
87 21 3163
88 21 4596
89 21 34
90 21 6181
91 21 5787
92 21 3503
93 21 16
94 21 4621
96 21 4275
97 21 3064
98 21 4474
99 21 2112
100 21 3254
101 21 3476
102 21 2847
103 21 2865
104 21 2608
105 21 93
106 21 4040
107 21 2190
108 21 2540
109 21 3229
110 21 4415
111 21 946
112 21 2220
113 21 4
114 21 22
115 21 3363
116 21 5046
117 21 1623
118 21 3879
119 21 4514
120 21 7983
122 21 3
123 21 76
124 21 3695
125 21 3540
126 21 4484
127 21 3525
128 21 3047
129 21 1806
130 21 2688
131 21 4691
132 21 2522
133 21 4210
134 21 2519
135 21 4084
136 21 2875
137 21 7
138 21 2678
139 21 14
140 21 17
141 21 3810
142 21 103
143 21 3842
145 21 2357
146 21 1564
147 21 256
148 21 4694
149 21 4686
150 21 2954
151 21 4359
152 21 2658
153 21 3484
154 21 3
155 21 4875
156 21 39
157 21 2826
158 21 3123
159 21 2274
160 21 5129
161 21 4681
162 21 3249
163 21 4457
164 21 3979
165 21 3874
166 21 7
167 21 2969
168 21 5182
169 21 2153
170 21 3738
171 21 313
172 21 1939
173 21 2386
174 21 1621
175 21 2935
176 21 4992
177 21 2799
178 21 4537
179 21 3245
180 21 153
181 21 4185
182 21 8
183 21 3641
185 21 4581
186 21 4918
187 21 2977
188 21 4790
189 21 4023
190 21 22
191 21 5264
192 21 2540
193 21 3330
194 21 2501
195 21 4170
196 21 3129
197 21 196
198 21 7485
199 21 3689
200 21 4278
201 21 2252
202 21 2576
203 21 4209
204 21 68
205 21 714
206 21 3745
207 21 3172
208 21 39
209 21 2017
210 21 2827
211 21 4698
212 21 3192
213 21 3632
214 21 3946
215 21 4849
216 21 4011
217 21 120
218 21 4137
219 21 5542
220 21 2419
221 21 3032
222 21 4907
223 21 47
224 21 3763
225 21 5151
226 21 116
227 21 2799
229 21 5604
230 21 5
231 21 3638
232 21 12
233 21 2660
234 21 3733
235 21 13
236 21 3175
237 21 2431
238 21 5537
240 21 620
241 21 6
242 21 6425
243 21 11
244 21 81
245 21 1867
246 21 198
247 21 5526
248 21 2809
249 21 6223
250 21 4061
251 21 2843
252 21 3734
253 21 2466
254 21 4115
255 21 6190
256 21 5018
258 21 4380
259 21 4100
260 21 2333
261 21 6043
262 21 4260
263 21 5065
264 21 3488
265 21 2344
266 21 3295
267 21 5121
268 21 4204
269 21 5168
270 21 62
271 21 3311
272 21 6
273 21 2927
274 21 3793
275 21 2675
276 21 3187
277 21 3722
279 21 105
280 21 2304
281 21 3947
283 21 2679
284 21 5534
285 21 5040
286 21 32
287 21 6
288 21 4030
289 21 4799
290 21 4097
291 21 3408
292 21 2494
293 21 16
294 21 2940
295 21 4741
296 21 7
297 21 1615
298 21 2545
299 21 3559
300 21 4120
301 21 6515
302 21 316
303 21 3593
304 21 3259
305 21 7520
306 21 4112
307 21 5409
308 21 4565
309 21 2698
310 21 3689
311 21 7968
312 21 3169
313 21 592
314 21 3079
315 21 2380
316 21 3404
317 21 2874
318 21 3687
319 21 10
320 21 5960
321 21 6683
322 21 4
323 21 2639
324 21 3196
325 21 1530
326 21 4518
327 21 89
328 21 3797
329 21 6176
330 21 4
331 21 4275
333 21 16
334 21 68
335 21 2099
336 21 2151
337 21 5296
338 21 2174
339 21 1563
340 21 7
341 21 2367
342 21 18
343 21 355
344 21 4394
345 21 2157
346 21 5360
347 21 5000
348 21 4
349 21 3276
350 21 3696
351 21 2101
352 21 4694
353 21 3308
354 21 3001
355 21 4747
356 21 4172
357 21 2447
358 21 4494
359 21 4905
360 21 94
361 21 3429
363 21 4121
364 21 62
365 21 6807
366 21 5
367 21 1826
368 21 2087
369 21 2435
370 21 2990
371 21 3478
372 21 3257
373 21 6025
374 21 2819
375 21 7688
376 21 5911
377 21 3087
378 21 3912
379 21 2632
380 21 11
381 21 4703
382 21 6738
383 21 3477
384 21 2429
385 21 1887
386 21 2636
387 21 3388
388 21 3662
389 21 9
390 21 4095
391 21 6752
392 21 4199
393 21 4672
394 21 5854
395 21 4044
396 21 5476
397 21 3692
398 21 2156
399 21 3049
400 21 3139
401 21 21
402 21 2086
403 21 2218
404 21 6189
405 21 2089
406 21 4
407 21 3885
409 21 1670
410 21 2672
411 21 2364
412 21 4035
413 21 1746
414 21 254
415 21 3
416 21 2183
417 21 1686
418 21 4875
419 21 4163
420 21 4381
421 21 2152
422 21 5264
423 21 2479
424 21 3534
425 21 1412
426 21 1900
427 21 2632
428 21 1984
429 21 148
430 21 3361
431 21 3
433 21 2
434 21 2233
435 21 2533
436 21 2119
437 21 66
438 21 3427
439 21 7621
440 21 19
441 21 3749
442 21 9
443 21 2214
444 21 557
445 21 4782
446 21 143
447 21 12
448 21 5357
449 21 2576
450 21 18
451 21 4962
452 21 1525
453 21 3122
454 21 2901
455 21 2209
456 21 2077
457 21 3084
460 21 1657
461 21 6325
462 21 4161
463 21 2857
464 21 3781
465 21 4048
466 21 187
467 21 2394
468 21 2140
469 21 4827
470 21 5359
471 21 931
472 21 3424
473 21 3027
474 21 537
475 21 4666
476 21 4323
477 21 2600
478 21 3760
481 21 4569
482 21 2527
484 21 7
485 21 8111
487 21 3440
488 21 3120
489 21 32
490 21 16
491 21 3116
492 21 3124
493 21 8
494 21 4159
495 21 76
496 21 3223
497 21 5798
498 21 2693
499 21 3398
500 21 1909
1 22 4021
3 22 3196
4 22 3707
5 22 3843
6 22 4164
7 22 1113
8 22 4041
9 22 3093
11 22 661
12 22 1956
15 22 1310
17 22 1873
18 22 65
20 22 3545
23 22 3331
24 22 1289
25 22 382
28 22 2457
29 22 3953
31 22 4210
32 22 1026
33 22 44
35 22 5009
36 22 6131
37 22 4161
38 22 3390
39 22 2535
40 22 2902
41 22 3526
42 22 2804
45 22 6101
47 22 1106
48 22 3390
49 22 2195
50 22 3985
51 22 2411
52 22 4287
53 22 2951
54 22 223
55 22 3046
56 22 2796
57 22 4847
59 22 1102
60 22 1666
62 22 4495
63 22 4442
64 22 4260
65 22 3415
68 22 2210
69 22 1318
70 22 841
71 22 3572
73 22 4845
74 22 2944
75 22 2524
76 22 5657
77 22 22
78 22 2695
79 22 2888
80 22 41
81 22 2729
84 22 5378
85 22 4128
86 22 4891
87 22 2140
88 22 3200
89 22 3018
90 22 3927
91 22 2289
92 22 2292
93 22 5454
94 22 3142
95 22 3648
96 22 2192
97 22 217
98 22 2032
100 22 2900
101 22 3106
102 22 4
103 22 117
104 22 3381
105 22 2773
106 22 5036
107 22 1109
108 22 4018
109 22 3573
113 22 3585
114 22 4289
115 22 4025
116 22 2492
118 22 3420
119 22 2578
120 22 3870
121 22 5570
122 22 3789
123 22 4040
124 22 3275
127 22 4088
129 22 3209
131 22 1142
132 22 4219
134 22 4029
135 22 1138
137 22 4191
139 22 3849
140 22 6048
141 22 153
142 22 4066
143 22 3611
144 22 5761
147 22 4533
148 22 3151
149 22 3510
151 22 4037
154 22 3781
155 22 824
156 22 5571
158 22 48
160 22 787
161 22 4220
162 22 728
163 22 3247
164 22 4039
165 22 2037
166 22 2514
167 22 1749
168 22 1988
169 22 3537
170 22 1194
171 22 4414
172 22 2102
175 22 80
178 22 2901
179 22 3492
180 22 2524
181 22 3446
182 22 4152
183 22 2005
184 22 8663
185 22 2731
186 22 2695
187 22 2906
188 22 2269
189 22 3471
190 22 4142
191 22 3790
193 22 741
194 22 1253
195 22 1656
196 22 57
197 22 5899
198 22 1597
199 22 3852
200 22 2322
202 22 4011
203 22 3580
204 22 3726
205 22 4033
206 22 2054
207 22 3536
208 22 3801
209 22 20
211 22 3485
212 22 3703
213 22 3873
214 22 2808
215 22 2364
216 22 2791
217 22 4653
218 22 2720
219 22 3013
220 22 1322
222 22 3268
223 22 3567
224 22 35
225 22 2748
226 22 4638
228 22 4727
229 22 4289
230 22 5831
232 22 3201
234 22 163
235 22 4692
236 22 2254
238 22 4348
239 22 4839
240 22 2227
241 22 3959
242 22 2543
243 22 4384
244 22 5552
246 22 4249
247 22 4122
249 22 2675
250 22 2658
252 22 2042
254 22 1689
255 22 5370
257 22 4624
258 22 2720
259 22 23
260 22 2752
261 22 3905
262 22 2258
263 22 2819
264 22 4491
265 22 1282
266 22 3278
267 22 4349
269 22 2578
270 22 2812
271 22 1084
272 22 5016
274 22 200
276 22 719
277 22 2299
278 22 4086
279 22 3869
281 22 58
282 22 3943
283 22 3404
284 22 2192
285 22 2543
286 22 6198
287 22 3350
288 22 3259
289 22 2339
290 22 3263
292 22 12
293 22 2957
295 22 919
296 22 3520
298 22 2493
299 22 3872
300 22 3251
301 22 2560
302 22 3822
303 22 2915
304 22 2204
305 22 1632
306 22 3663
307 22 3426
308 22 3312
309 22 2502
311 22 3758
312 22 2563
313 22 2222
316 22 3973
318 22 2135
319 22 4929
320 22 2937
321 22 2909
322 22 4729
324 22 1614
325 22 3864
326 22 3885
327 22 4141
328 22 3855
329 22 3041
330 22 5069
331 22 2327
332 22 6368
333 22 3464
334 22 5906
337 22 2869
340 22 3215
342 22 4292
343 22 4816
344 22 1159
346 22 3615
347 22 3323
348 22 4635
349 22 2238
350 22 3173
351 22 3088
352 22 2766
355 22 847
358 22 1984
359 22 4420
360 22 4659
361 22 2288
362 22 3207
363 22 3313
364 22 2801
365 22 2632
366 22 3759
367 22 2677
369 22 1349
370 22 3918
371 22 1978
373 22 2783
374 22 3890
375 22 1638
376 22 2345
377 22 2782
378 22 2070
379 22 3453
380 22 5820
381 22 4203
382 22 2560
383 22 4
384 22 9
385 22 4585
386 22 3485
387 22 83
388 22 2843
389 22 3129
390 22 3748
391 22 2600
392 22 59
393 22 3543
394 22 3794
395 22 1158
396 22 2891
397 22 2793
400 22 1029
401 22 5233
404 22 5418
405 22 4425
406 22 5291
407 22 3400
408 22 4528
410 22 1957
412 22 2667
414 22 3943
415 22 3093
418 22 3293
419 22 3643
420 22 1988
422 22 3733
423 22 5
424 22 2455
425 22 3075
428 22 16
429 22 3921
430 22 1043
431 22 4548
432 22 4025
433 22 5932
435 22 2384
436 22 1135
437 22 3102
439 22 1607
440 22 4336
442 22 2401
444 22 2428
445 22 3220
446 22 4236
447 22 4476
448 22 3590
449 22 5
450 22 4648
451 22 3819
452 22 2467
453 22 3393
454 22 101
456 22 21
458 22 6101
459 22 3473
460 22 3865
461 22 5468
462 22 65
463 22 2378
464 22 1341
466 22 4290
467 22 3
469 22 2363
470 22 3616
471 22 6246
473 22 3377
474 22 3599
475 22 4097
476 22 3714
477 22 4146
478 22 2153
479 22 4923
480 22 5160
481 22 1976
482 22 2290
483 22 4780
484 22 3529
485 22 138
486 22 4811
488 22 2262
489 22 3977
490 22 3066
491 22 36
492 22 4166
493 22 1862
494 22 3290
495 22 4381
496 22 350
497 22 660
498 22 2800
499 22 2228
1 23 119
5 23 1923
6 23 3624
23 23 242
31 23 4554
35 23 5174
36 23 943
37 23 928
39 23 862
40 23 2425
45 23 2284
48 23 983
49 23 31
51 23 128
52 23 794
53 23 3593
55 23 2165
57 23 1491
62 23 2137
63 23 57
65 23 3413
73 23 1484
76 23 226
84 23 3150
86 23 2670
89 23 246
93 23 2560
95 23 2485
105 23 2849
108 23 3
113 23 2072
114 23 1417
121 23 3339
122 23 1583
123 23 3667
124 23 6
129 23 19
132 23 5
137 23 2892
139 23 1720
140 23 979
142 23 3709
144 23 3273
147 23 251
154 23 1603
156 23 1951
166 23 3024
171 23 260
172 23 5
180 23 2571
182 23 2938
184 23 4221
190 23 3605
197 23 1384
204 23 302
205 23 117
208 23 2676
217 23 362
223 23 2865
226 23 2398
228 23 2566
230 23 2654
232 23 2458
235 23 2209
239 23 2571
240 23 30
241 23 1573
243 23 2614
244 23 2768
246 23 1028
257 23 2853
270 23 2264
272 23 4936
278 23 2424
279 23 117
282 23 1291
286 23 2136
287 23 1190
293 23 567
296 23 919
302 23 198
313 23 38
319 23 3150
322 23 2162
325 23 78
327 23 1520
330 23 4881
332 23 2812
333 23 1643
334 23 2561
340 23 3411
342 23 3384
343 23 441
348 23 1437
351 23 4
360 23 388
362 23 3505
364 23 508
366 23 2728
367 23 38
380 23 3902
385 23 8
389 23 3584
401 23 1478
405 23 4
406 23 3001
408 23 2590
410 23 7
414 23 190
415 23 3418
425 23 41
429 23 502
431 23 2183
432 23 2293
433 23 2243
437 23 2205
440 23 3133
442 23 3038
444 23 70
446 23 3024
447 23 3230
450 23 1872
452 23 117
456 23 9
458 23 1510
459 23 3249
460 23 89
466 23 209
471 23 119
474 23 43
479 23 1994
480 23 2589
483 23 2758
484 23 1716
486 23 2600
489 23 2003
490 23 2020
493 23 2314
495 23 334
1 24 171
4 24 52
5 24 1478
6 24 1619
20 24 17
23 24 452
26 24 4
31 24 1858
34 24 2
35 24 3319
36 24 1507
37 24 2072
39 24 2400
40 24 1540
45 24 3149
48 24 2195
49 24 137
51 24 331
52 24 642
53 24 3817
55 24 1455
57 24 2235
62 24 1251
63 24 144
65 24 1765
73 24 2325
76 24 330
83 24 1
84 24 2350
86 24 2093
89 24 1008
93 24 1467
95 24 2097
105 24 2262
108 24 74
113 24 2402
114 24 1000
121 24 2359
122 24 2291
123 24 3136
124 24 4
125 24 6
129 24 5
137 24 2219
139 24 751
140 24 1425
142 24 2250
144 24 2465
147 24 285
150 24 10
154 24 2133
156 24 1325
166 24 2300
169 24 39
171 24 785
172 24 53
180 24 1568
182 24 2180
184 24 2926
186 24 33
190 24 1550
191 24 4
197 24 1416
203 24 38
204 24 764
205 24 343
208 24 1292
217 24 551
222 24 78
223 24 1637
226 24 701
228 24 2327
230 24 2580
232 24 2175
235 24 2181
239 24 2178
240 24 141
241 24 1221
243 24 1580
244 24 2851
246 24 727
249 24 18
257 24 3760
270 24 1686
272 24 1605
278 24 2083
279 24 235
282 24 757
286 24 1093
287 24 1547
293 24 693
296 24 1121
299 24 17
302 24 585
306 24 69
307 24 15
309 24 16
313 24 142
319 24 1985
322 24 2814
325 24 132
326 24 3
327 24 567
330 24 1647
332 24 2046
333 24 2321
334 24 1377
340 24 3372
342 24 1730
343 24 330
348 24 1234
351 24 76
360 24 540
362 24 832
364 24 1833
365 24 3
366 24 1961
367 24 281
370 24 63
373 24 18
380 24 1897
385 24 83
389 24 3247
390 24 71
392 24 7
396 24 6
401 24 1528
405 24 118
406 24 1745
408 24 2726
410 24 25
414 24 596
415 24 3363
422 24 9
425 24 91
428 24 8
429 24 1603
431 24 858
432 24 2460
433 24 2488
437 24 890
440 24 1319
442 24 3200
444 24 154
445 24 7
446 24 1118
447 24 1466
450 24 850
452 24 96
456 24 11
458 24 3276
459 24 1055
460 24 123
462 24 7
463 24 17
466 24 239
471 24 226
473 24 36
474 24 159
479 24 484
480 24 4142
483 24 2237
484 24 1644
486 24 2265
489 24 596
490 24 915
493 24 1556
495 24 297
1 25 1091
4 25 120
5 25 4876
6 25 6753
10 25 6
20 25 4
23 25 1606
26 25 2
31 25 10735
34 25 15
35 25 8900
36 25 7702
37 25 4184
39 25 3722
40 25 5282
45 25 3783
48 25 4681
49 25 293
51 25 347
52 25 1601
53 25 6788
55 25 5803
57 25 10582
62 25 6358
63 25 493
65 25 5271
71 25 3
73 25 10854
76 25 2415
84 25 8473
86 25 5097
89 25 2712
93 25 10914
95 25 7471
105 25 6047
108 25 33
109 25 3
113 25 7388
114 25 5442
121 25 3901
122 25 5994
123 25 7637
124 25 7
129 25 138
132 25 16
133 25 3
137 25 8567
139 25 5467
140 25 7672
142 25 5648
144 25 3756
147 25 2042
150 25 48
154 25 5714
156 25 2255
166 25 6804
169 25 182
171 25 523
172 25 208
180 25 2757
182 25 8755
184 25 7543
190 25 6882
191 25 3
197 25 2596
203 25 4
204 25 1767
205 25 333
208 25 5336
209 25 4
212 25 4
217 25 964
222 25 9
223 25 5676
226 25 4309
228 25 6803
230 25 6171
232 25 5304
235 25 6879
239 25 5093
240 25 279
241 25 4659
243 25 6051
244 25 4477
246 25 1963
249 25 6
257 25 5870
270 25 4771
272 25 9012
277 25 6
278 25 5953
279 25 1483
282 25 4653
283 25 6
286 25 3271
287 25 3463
290 25 3
291 25 19
293 25 3058
296 25 4455
299 25 70
302 25 1510
306 25 43
307 25 3
309 25 3
313 25 293
319 25 5506
322 25 6356
325 25 364
326 25 2
327 25 2556
330 25 8978
332 25 9528
333 25 7373
334 25 6145
340 25 6534
342 25 4766
343 25 721
348 25 3593
351 25 32
360 25 1021
362 25 3909
363 25 5
364 25 4202
366 25 5275
367 25 220
370 25 98
373 25 2
379 25 4
380 25 6237
385 25 95
386 25 2
389 25 6496
390 25 40
396 25 5
401 25 3254
405 25 224
406 25 6202
408 25 6135
410 25 68
414 25 1507
415 25 6693
422 25 6
424 25 8
425 25 178
428 25 5
429 25 847
431 25 6604
432 25 4334
433 25 3969
437 25 6304
440 25 8140
442 25 8492
444 25 551
446 25 5445
447 25 8282
450 25 3167
452 25 703
456 25 21
458 25 6325
459 25 7445
460 25 369
463 25 4
466 25 1787
471 25 279
473 25 59
474 25 784
479 25 6728
480 25 6654
483 25 5096
484 25 5711
486 25 7013
489 25 2667
490 25 5028
493 25 4891
494 25 9
495 25 1551
1 26 9259
2 26 5073
3 26 9942
4 26 5075
5 26 9058
6 26 5505
7 26 6270
8 26 8770
9 26 7439
10 26 5068
11 26 4695
12 26 6498
13 26 7726
14 26 2957
15 26 5252
16 26 3979
17 26 4207
18 26 4233
19 26 3579
20 26 7751
21 26 4116
22 26 3776
23 26 5902
24 26 5868
25 26 9786
26 26 6512
27 26 1704
28 26 7884
29 26 8642
30 26 7093
31 26 7981
32 26 6391
33 26 22702
34 26 3714
35 26 6940
36 26 8393
37 26 5211
38 26 4478
39 26 7069
40 26 8297
41 26 9029
42 26 7876
43 26 3593
44 26 3791
45 26 6092
46 26 3218
47 26 6922
48 26 7375
49 26 6809
50 26 5625
51 26 5845
52 26 8800
53 26 5267
54 26 4214
55 26 8946
56 26 6902
57 26 12497
58 26 3429
59 26 6896
60 26 6248
61 26 5343
62 26 9792
63 26 13383
64 26 3852
65 26 4629
66 26 4990
67 26 5001
68 26 6583
69 26 5818
70 26 7132
71 26 5264
72 26 2888
73 26 13045
74 26 3622
75 26 8074
76 26 10539
77 26 2881
78 26 3885
79 26 7860
80 26 4789
81 26 5063
82 26 3024
83 26 3068
84 26 6666
85 26 6819
86 26 5835
87 26 9949
88 26 7783
89 26 10922
90 26 4780
91 26 6150
92 26 3420
93 26 7078
94 26 5960
95 26 6337
96 26 4084
97 26 4967
98 26 5556
99 26 5390
100 26 5383
101 26 6649
102 26 4000
103 26 3193
104 26 5162
105 26 7514
106 26 6816
107 26 4844
108 26 10368
109 26 5283
110 26 3471
111 26 2596
112 26 6959
113 26 7022
114 26 9308
115 26 6729
116 26 4607
117 26 5849
118 26 7253
119 26 5408
120 26 9198
121 26 6937
122 26 8956
123 26 8095
124 26 6181
125 26 3748
126 26 5333
127 26 6983
128 26 6949
129 26 5434
130 26 3747
131 26 6498
132 26 7665
133 26 3560
134 26 8094
135 26 6314
136 26 4344
137 26 5092
138 26 4675
139 26 6407
140 26 8382
141 26 4648
142 26 19725
143 26 8670
144 26 6903
145 26 3594
146 26 2761
147 26 11670
148 26 4732
149 26 11133
150 26 3462
151 26 5054
152 26 2417
153 26 4286
154 26 4795
155 26 4986
156 26 7221
157 26 2352
158 26 22625
159 26 4999
160 26 4982
161 26 8474
162 26 4763
163 26 9647
164 26 5547
165 26 6772
166 26 9235
167 26 5814
168 26 8361
169 26 7090
170 26 5249
171 26 8243
172 26 6589
173 26 3833
174 26 2175
175 26 3017
176 26 7367
177 26 7415
178 26 8441
179 26 8928
180 26 8034
181 26 5595
182 26 5025
183 26 6761
184 26 7519
185 26 8600
186 26 5688
187 26 6182
188 26 6023
189 26 5612
190 26 5361
191 26 5695
192 26 5082
193 26 4704
194 26 5857
195 26 4916
196 26 22691
197 26 6202
198 26 6576
199 26 8633
200 26 6623
201 26 3671
202 26 8766
203 26 5239
204 26 8246
205 26 4938
206 26 4163
207 26 8888
208 26 7446
209 26 3997
210 26 4547
211 26 10971
212 26 5345
213 26 8536
214 26 7406
215 26 6223
216 26 6081
217 26 6138
218 26 6036
219 26 7515
220 26 5913
221 26 2146
222 26 8732
223 26 8915
224 26 4906
225 26 8450
226 26 5054
227 26 4418
228 26 9992
229 26 4621
230 26 5480
231 26 3552
232 26 9565
233 26 2363
234 26 4625
235 26 7808
236 26 10039
237 26 4779
238 26 4719
239 26 5985
240 26 6718
241 26 6325
242 26 4536
243 26 5086
244 26 5242
245 26 3964
246 26 5817
247 26 7098
248 26 4528
249 26 8057
250 26 5651
251 26 7542
252 26 4183
253 26 4562
254 26 4946
255 26 6210
256 26 7207
257 26 6827
258 26 7701
259 26 7223
260 26 5758
261 26 4844
262 26 6529
263 26 8505
264 26 5379
265 26 5926
266 26 6452
267 26 5822
268 26 6733
269 26 5151
270 26 6251
271 26 7992
272 26 9314
273 26 4965
274 26 4512
275 26 5561
276 26 4741
277 26 7331
278 26 7313
279 26 7047
280 26 5720
281 26 10622
282 26 10132
283 26 5024
284 26 4247
285 26 4609
286 26 7720
287 26 10181
288 26 5026
289 26 6120
290 26 6865
291 26 5083
292 26 4024
293 26 6675
294 26 3370
295 26 7783
296 26 8651
297 26 2735
298 26 4466
299 26 5724
300 26 5012
301 26 4660
302 26 8900
303 26 4604
304 26 10151
305 26 6452
306 26 6678
307 26 7692
308 26 9705
309 26 5184
310 26 5428
311 26 9201
312 26 5581
313 26 6749
314 26 6956
315 26 3695
316 26 6942
317 26 4005
318 26 4193
319 26 10126
320 26 5876
321 26 5208
322 26 10337
323 26 7293
324 26 7722
325 26 6370
326 26 6397
327 26 9190
328 26 5573
329 26 5807
330 26 9253
331 26 6514
332 26 5579
333 26 7407
334 26 9488
335 26 3668
336 26 3745
337 26 5211
338 26 3639
339 26 2792
340 26 12490
341 26 3833
342 26 8053
343 26 10186
344 26 6403
345 26 3820
346 26 8680
347 26 4421
348 26 6778
349 26 10111
350 26 6823
351 26 4408
352 26 8540
353 26 8507
354 26 3218
355 26 7157
356 26 6580
357 26 5253
358 26 5499
359 26 5897
360 26 6250
361 26 8336
362 26 8793
363 26 6974
364 26 9698
365 26 5874
366 26 6368
367 26 5098
368 26 4880
369 26 6034
370 26 5163
371 26 6266
372 26 3521
373 26 8222
374 26 7215
375 26 6327
376 26 6178
377 26 6413
378 26 7038
379 26 5153
380 26 7949
381 26 8365
382 26 6534
383 26 4257
384 26 3989
385 26 4930
386 26 5158
387 26 4402
388 26 4517
389 26 12660
390 26 6646
391 26 6538
392 26 6326
393 26 10905
394 26 8543
395 26 6390
396 26 5688
397 26 6780
398 26 6985
399 26 10605
400 26 6545
401 26 7716
402 26 6864
403 26 4111
404 26 6268
405 26 4648
406 26 5706
407 26 7476
408 26 5872
409 26 7941
410 26 5866
411 26 2951
412 26 5634
413 26 4833
414 26 8913
415 26 12463
416 26 7052
417 26 7913
418 26 6435
419 26 2857
420 26 5499
421 26 8316
422 26 5525
423 26 5266
424 26 5796
425 26 4259
426 26 4083
427 26 3803
428 26 10888
429 26 7079
430 26 7825
431 26 6529
432 26 5998
433 26 9105
434 26 2971
435 26 5424
436 26 4851
437 26 4829
438 26 2846
439 26 6469
440 26 10174
441 26 5497
442 26 5687
443 26 3772
444 26 4650
445 26 4113
446 26 7164
447 26 10479
448 26 14308
449 26 5183
450 26 9545
451 26 3951
452 26 5506
453 26 7517
454 26 3034
455 26 6821
456 26 3140
457 26 4923
458 26 7499
459 26 6972
460 26 6478
461 26 6243
462 26 6468
463 26 5295
464 26 5636
465 26 4266
466 26 3066
467 26 5249
468 26 6693
469 26 6378
470 26 14462
471 26 5813
472 26 4023
473 26 5012
474 26 8776
475 26 6076
476 26 5226
477 26 8601
478 26 4225
479 26 7813
480 26 6778
481 26 5558
482 26 5397
483 26 5917
484 26 5401
485 26 4518
486 26 9881
487 26 5424
488 26 10108
489 26 9430
490 26 6464
491 26 23245
492 26 4097
493 26 10350
494 26 7075
495 26 11449
496 26 9853
497 26 6428
498 26 3698
499 26 7975
500 26 4066
1 27 298
4 27 46
5 27 1767
6 27 1090
10 27 2
20 27 3
23 27 495
26 27 6
31 27 4034
35 27 2802
36 27 2664
37 27 2492
39 27 1030
40 27 950
45 27 577
48 27 2165
49 27 138
51 27 298
52 27 1303
53 27 1631
55 27 1473
57 27 3392
62 27 2025
63 27 184
65 27 1571
71 27 43
73 27 3487
76 27 1289
83 27 5
84 27 2324
86 27 2143
89 27 1045
93 27 2807
95 27 2295
105 27 565
108 27 49
109 27 39
113 27 2195
114 27 1908
121 27 1596
122 27 2166
123 27 2534
129 27 82
132 27 16
137 27 2642
139 27 909
140 27 2744
142 27 2720
144 27 1612
145 27 7
147 27 1033
150 27 4
154 27 2341
156 27 1173
166 27 1967
169 27 58
171 27 390
172 27 187
173 27 6
180 27 2845
182 27 2500
184 27 3524
186 27 4
190 27 1070
197 27 1059
201 27 4
203 27 12
204 27 749
205 27 249
208 27 1870
212 27 42
217 27 477
222 27 91
223 27 1440
226 27 1113
228 27 2721
230 27 3299
232 27 2091
235 27 2382
239 27 2089
240 27 137
241 27 1535
243 27 2088
244 27 1045
246 27 1158
257 27 3490
270 27 2031
272 27 1149
278 27 1960
279 27 396
282 27 873
286 27 1900
287 27 1071
291 27 6
293 27 693
296 27 1871
299 27 16
302 27 299
306 27 4
307 27 4
313 27 137
315 27 3
319 27 1874
322 27 2779
325 27 235
326 27 3
327 27 963
330 27 1091
332 27 2998
333 27 3018
334 27 1509
340 27 1807
341 27 4
342 27 1816
343 27 448
348 27 2154
351 27 26
360 27 423
362 27 1278
364 27 1391
366 27 905
367 27 178
370 27 57
380 27 1817
385 27 83
387 27 3
389 27 1931
390 27 5
392 27 4
401 27 1635
405 27 45
406 27 1718
408 27 2009
410 27 7
414 27 249
415 27 1884
425 27 38
429 27 501
431 27 1770
432 27 596
433 27 1870
437 27 2528
440 27 2372
442 27 2196
444 27 227
446 27 1347
447 27 2526
450 27 761
452 27 514
456 27 11
458 27 1580
459 27 2095
460 27 221
462 27 10
466 27 341
471 27 354
473 27 66
474 27 152
479 27 1620
480 27 3246
483 27 2143
484 27 1829
486 27 2726
489 27 1856
490 27 626
493 27 2454
495 27 594
1 28 16
5 28 680
6 28 395
15 28 6
23 28 179
31 28 652
35 28 1640
36 28 939
37 28 1395
39 28 1916
40 28 1168
45 28 1461
48 28 1226
49 28 111
52 28 258
53 28 619
55 28 1138
57 28 1645
62 28 384
65 28 1988
73 28 1639
76 28 47
84 28 684
86 28 1128
89 28 311
93 28 407
95 28 2082
105 28 1081
108 28 7
113 28 359
114 28 224
121 28 1444
122 28 1571
123 28 292
137 28 1369
139 28 1058
140 28 959
142 28 3445
144 28 1601
154 28 2597
156 28 361
166 28 1329
169 28 9
171 28 4
172 28 21
180 28 1344
182 28 1325
184 28 2607
190 28 445
197 28 447
204 28 127
205 28 8
208 28 474
217 28 167
223 28 2006
226 28 1578
228 28 483
230 28 805
232 28 287
235 28 1462
239 28 1096
240 28 98
241 28 685
243 28 1290
244 28 1107
246 28 31
257 28 2230
270 28 572
272 28 1998
278 28 1623
279 28 35
282 28 1269
286 28 266
287 28 1770
291 28 1
293 28 171
296 28 1361
302 28 80
313 28 105
319 28 640
322 28 484
327 28 243
330 28 2017
332 28 2612
333 28 963
334 28 2421
336 28 3
338 28 4
340 28 1921
342 28 689
343 28 47
345 28 1
348 28 937
360 28 172
362 28 186
364 28 344
366 28 812
380 28 1441
389 28 1855
397 28 4
401 28 1749
405 28 2
406 28 1041
408 28 2647
414 28 89
415 28 1910
425 28 40
429 28 211
431 28 1575
432 28 946
433 28 1331
437 28 439
440 28 3102
442 28 599
445 28 10
446 28 914
447 28 3128
450 28 145
458 28 2696
459 28 992
466 28 131
471 28 8
479 28 365
480 28 972
483 28 1060
484 28 2092
486 28 446
489 28 1455
490 28 1565
493 28 329
495 28 699
1 29 104
4 29 38
5 29 253
6 29 664
10 29 4
15 29 4
20 29 150
23 29 459
28 29 6
30 29 5
31 29 1182
32 29 6
35 29 1261
36 29 2169
37 29 591
39 29 1760
40 29 269
41 29 92
42 29 15
45 29 368
48 29 1266
49 29 1
51 29 8
52 29 1641
53 29 440
55 29 343
56 29 19
57 29 1296
62 29 1389
63 29 228
64 29 17
65 29 218
71 29 27
72 29 3
73 29 1318
75 29 9
76 29 1179
79 29 18
84 29 164
85 29 42
86 29 865
88 29 5
89 29 157
90 29 68
91 29 64
92 29 5
93 29 1029
94 29 131
95 29 314
99 29 7
100 29 2
105 29 274
106 29 48
108 29 241
109 29 33
110 29 5
113 29 2487
114 29 227
115 29 38
116 29 65
118 29 14
119 29 181
120 29 21
121 29 351
122 29 302
123 29 700
124 29 381
127 29 28
128 29 3
129 29 266
132 29 151
133 29 9
135 29 21
137 29 2045
139 29 403
140 29 2138
141 29 4
142 29 524
143 29 68
144 29 367
147 29 67
154 29 324
156 29 412
161 29 1
163 29 4
166 29 659
167 29 6
168 29 7
170 29 2
171 29 253
172 29 141
179 29 91
180 29 402
181 29 4
182 29 2179
184 29 1482
185 29 17
186 29 36
188 29 3
189 29 3
190 29 699
191 29 11
192 29 7
197 29 233
199 29 3
204 29 565
205 29 97
206 29 18
207 29 107
208 29 2921
209 29 1
212 29 32
213 29 2
215 29 6
217 29 21
218 29 3
223 29 327
225 29 89
226 29 384
228 29 991
230 29 311
232 29 1252
234 29 4
235 29 3052
239 29 855
240 29 4
241 29 268
242 29 28
243 29 1003
244 29 1144
246 29 220
247 29 2
250 29 7
252 29 11
255 29 60
257 29 277
259 29 6
261 29 73
263 29 98
264 29 152
266 29 15
267 29 5
269 29 124
270 29 684
272 29 1225
274 29 4
278 29 1511
279 29 172
280 29 11
282 29 337
284 29 60
285 29 74
286 29 257
287 29 330
288 29 4
289 29 3
292 29 7
293 29 556
294 29 5
296 29 413
299 29 281
300 29 2
301 29 31
302 29 160
303 29 34
306 29 234
307 29 132
309 29 93
311 29 17
312 29 24
313 29 7
314 29 3
316 29 38
318 29 18
319 29 325
321 29 4
322 29 2919
324 29 147
325 29 231
326 29 67
327 29 1292
330 29 1331
332 29 434
333 29 182
334 29 258
340 29 1208
342 29 253
343 29 122
346 29 7
348 29 1858
351 29 276
352 29 19
354 29 3
357 29 5
359 29 7
360 29 16
361 29 14
362 29 275
364 29 186
365 29 5
366 29 2226
367 29 7
370 29 31
371 29 6
376 29 67
380 29 1871
381 29 8
382 29 14
384 29 3
385 29 143
388 29 46
389 29 1246
390 29 199
391 29 16
395 29 30
396 29 17
397 29 89
399 29 2
400 29 5
401 29 972
402 29 4
404 29 46
405 29 55
406 29 409
407 29 11
408 29 671
411 29 4
412 29 3
414 29 159
415 29 1200
418 29 5
419 29 4
422 29 18
423 29 13
424 29 263
425 29 6
429 29 1908
431 29 1788
432 29 578
433 29 1008
434 29 4
435 29 3
437 29 1141
440 29 2613
442 29 278
444 29 3
445 29 6
446 29 681
447 29 2650
448 29 3
449 29 7
450 29 338
451 29 20
453 29 73
458 29 379
459 29 628
460 29 250
461 29 39
463 29 103
465 29 4
466 29 31
468 29 2
469 29 7
470 29 5
471 29 210
473 29 363
474 29 150
475 29 4
476 29 94
478 29 19
479 29 2278
480 29 1427
482 29 6
483 29 862
484 29 163
486 29 1042
487 29 16
489 29 1354
490 29 579
492 29 8
493 29 216
495 29 207
498 29 11
499 29 14
5 30 3208
6 30 2145
23 30 58
31 30 2466
35 30 5625
36 30 2818
37 30 3249
39 30 2388
40 30 1666
45 30 3711
48 30 3007
49 30 41
52 30 298
53 30 3210
55 30 2502
57 30 3155
62 30 2307
65 30 3054
73 30 3223
76 30 179
84 30 3807
86 30 2686
89 30 644
93 30 1381
95 30 3322
105 30 2046
113 30 412
114 30 841
121 30 3699
122 30 2738
123 30 1819
137 30 3821
139 30 3181
140 30 2957
142 30 4022
144 30 3743
147 30 2
154 30 3294
156 30 789
166 30 2298
172 30 5
180 30 2920
182 30 4009
184 30 3559
190 30 2055
197 30 104
204 30 13
208 30 825
217 30 87
223 30 1913
226 30 2970
228 30 1394
230 30 3330
232 30 2902
235 30 2855
239 30 2928
240 30 34
241 30 2802
243 30 2481
244 30 3485
257 30 2716
270 30 1866
272 30 4775
278 30 1835
279 30 27
282 30 3088
286 30 105
287 30 3538
293 30 367
296 30 1974
302 30 19
313 30 47
319 30 2764
322 30 2779
327 30 120
330 30 4855
332 30 2832
333 30 4054
334 30 2748
340 30 3305
342 30 2543
343 30 18
348 30 4424
360 30 95
362 30 2069
364 30 2563
366 30 835
380 30 3333
389 30 3243
392 30 5
401 30 3745
406 30 3276
408 30 3427
414 30 13
415 30 3271
429 30 64
431 30 2357
432 30 3914
433 30 2393
437 30 2209
440 30 2852
442 30 2976
446 30 4512
447 30 2944
450 30 86
458 30 3219
459 30 2333
466 30 35
479 30 3651
480 30 2486
483 30 2809
484 30 3683
486 30 1395
489 30 2160
490 30 1331
493 30 2483
495 30 139
1 31 8466
2 31 4251
3 31 4747
4 31 15318
5 31 85
6 31 59
7 31 7073
8 31 8711
9 31 8343
10 31 4294
11 31 11115
12 31 4739
13 31 6726
14 31 14775
15 31 5552
16 31 11217
17 31 4288
18 31 5355
19 31 7413
20 31 8281
21 31 3483
22 31 10763
23 31 4718
24 31 4044
25 31 5850
26 31 7245
27 31 3136
28 31 12272
29 31 8467
30 31 3455
31 31 57
32 31 7736
33 31 4515
34 31 5251
35 31 3
36 31 3
37 31 47
38 31 5918
39 31 116
40 31 36
41 31 5276
42 31 7740
43 31 7443
44 31 3758
45 31 5
46 31 4176
47 31 11377
48 31 14
49 31 3801
50 31 7361
51 31 11849
52 31 396
53 31 3
54 31 7655
55 31 16
56 31 7088
57 31 44
58 31 14209
59 31 11216
60 31 4621
61 31 4256
62 31 8
63 31 5767
64 31 7087
65 31 16
66 31 8802
67 31 7281
68 31 9461
69 31 4156
70 31 15288
71 31 7653
72 31 4586
73 31 58
74 31 5465
75 31 12268
76 31 4677
77 31 12602
78 31 4936
79 31 8075
80 31 5382
81 31 6031
82 31 6140
83 31 3996
84 31 17
85 31 4679
86 31 15
87 31 5323
88 31 5263
89 31 318
90 31 6546
91 31 4482
92 31 7288
93 31 48
94 31 6895
95 31 19
96 31 5574
97 31 4258
98 31 11923
99 31 4199
100 31 7662
101 31 9525
102 31 4990
103 31 3627
104 31 5339
105 31 84
106 31 5902
107 31 4008
108 31 4937
109 31 7815
110 31 5189
111 31 10271
112 31 3699
113 31 76
114 31 182
115 31 4689
116 31 4818
117 31 3012
118 31 11173
119 31 4704
120 31 4243
121 31 38
122 31 4
123 31 13
124 31 4516
125 31 11211
126 31 5942
127 31 4654
128 31 7838
129 31 8018
130 31 10895
131 31 7058
132 31 6391
133 31 5002
134 31 5843
135 31 6332
136 31 9224
137 31 75
138 31 5167
140 31 3
141 31 6030
142 31 103
143 31 6642
144 31 41
145 31 5107
146 31 6378
147 31 6587
148 31 9285
149 31 5580
150 31 4629
151 31 4873
152 31 2407
153 31 6363
155 31 5773
156 31 738
157 31 2371
158 31 4694
159 31 10256
160 31 5749
161 31 9163
162 31 11192
163 31 5377
164 31 7401
165 31 4712
166 31 16
167 31 11075
168 31 6908
169 31 9717
170 31 7587
171 31 6933
172 31 11592
173 31 9216
174 31 1542
175 31 3721
176 31 5855
177 31 5295
178 31 3234
179 31 5212
180 31 44
181 31 3421
182 31 75
183 31 4635
184 31 7
185 31 6132
186 31 6509
187 31 8011
188 31 9986
189 31 3469
190 31 52
191 31 7756
192 31 3713
193 31 11281
194 31 4012
195 31 4126
196 31 4528
197 31 1942
198 31 4577
199 31 9678
200 31 9684
201 31 5059
202 31 8807
203 31 7203
204 31 4761
205 31 10793
206 31 7293
207 31 5317
208 31 52
209 31 3662
210 31 5502
211 31 5426
212 31 7734
213 31 9538
214 31 15912
215 31 9927
216 31 5954
217 31 1169
218 31 5824
219 31 7952
220 31 4149
221 31 4135
222 31 6053
223 31 105
224 31 5195
225 31 10788
226 31 17
227 31 3509
228 31 129
229 31 8683
230 31 63
231 31 17389
232 31 19
233 31 2348
234 31 5897
235 31 25
236 31 5400
237 31 5963
238 31 8555
239 31 15
240 31 3803
241 31 35
242 31 4561
243 31 41
244 31 44
245 31 5371
246 31 5385
247 31 8120
248 31 5430
249 31 7282
250 31 6191
251 31 5929
252 31 7256
253 31 5292
254 31 4140
255 31 7792
256 31 5939
257 31 53
258 31 5930
259 31 25552
260 31 5716
261 31 6585
262 31 9460
263 31 10743
264 31 6424
265 31 4169
266 31 7707
267 31 8459
268 31 4182
269 31 13142
270 31 6
271 31 8181
272 31 4
273 31 11234
274 31 5951
275 31 13428
276 31 11274
277 31 8070
278 31 102
279 31 7387
280 31 4103
281 31 5055
282 31 83
283 31 5422
284 31 6640
285 31 4754
286 31 2211
287 31 33
288 31 4427
289 31 9895
290 31 10871
291 31 6192
292 31 2459
293 31 376
294 31 9600
295 31 5813
296 31 3
297 31 3242
298 31 5659
299 31 10282
300 31 4305
301 31 4374
302 31 5502
303 31 9741
304 31 5345
305 31 4672
306 31 5149
307 31 8089
308 31 4784
309 31 7742
310 31 7814
311 31 4158
312 31 8325
313 31 4020
314 31 7720
315 31 5026
316 31 4513
317 31 5486
318 31 7288
319 31 38
320 31 7686
321 31 6121
322 31 56
323 31 5208
324 31 4081
325 31 7276
326 31 6510
327 31 915
328 31 7364
329 31 7689
330 31 7
331 31 9423
332 31 13
333 31 64
334 31 7
335 31 6785
336 31 7018
337 31 6170
338 31 6806
339 31 6482
341 31 9123
342 31 22
343 31 8260
344 31 7164
345 31 6744
346 31 11437
347 31 5906
348 31 76
349 31 5377
350 31 9422
351 31 5834
352 31 6252
353 31 3990
354 31 10115
355 31 15225
356 31 4373
357 31 3703
358 31 11763
359 31 8540
360 31 1152
361 31 5066
362 31 150
363 31 10945
364 31 71
365 31 13898
366 31 40
367 31 5214
368 31 14317
369 31 4095
370 31 15262
371 31 2380
372 31 14229
373 31 7312
374 31 5043
375 31 4618
376 31 4333
377 31 8331
378 31 6095
379 31 5283
380 31 4
381 31 9110
382 31 5839
383 31 6974
384 31 2493
385 31 4295
386 31 5242
387 31 3566
388 31 9498
390 31 5224
391 31 5981
392 31 5575
393 31 5574
394 31 8231
395 31 6435
396 31 7057
397 31 6558
398 31 8369
399 31 3953
400 31 7580
401 31 7
402 31 3766
403 31 5934
404 31 7717
405 31 12069
406 31 62
407 31 11131
408 31 77
409 31 6413
410 31 15154
411 31 4387
412 31 6228
413 31 7310
414 31 5538
416 31 8260
417 31 6273
418 31 9315
419 31 6086
420 31 11721
421 31 4585
422 31 7593
423 31 4716
424 31 9344
425 31 3855
426 31 5437
427 31 10719
428 31 2505
429 31 2506
430 31 8232
431 31 15
432 31 34
433 31 67
434 31 4647
435 31 4629
436 31 3893
437 31 75
438 31 14435
439 31 4658
441 31 7899
442 31 30
443 31 7020
444 31 4872
445 31 5411
448 31 5136
449 31 4593
450 31 2770
451 31 5594
452 31 9458
453 31 11329
454 31 3665
455 31 3716
456 31 7220
457 31 9054
458 31 5
460 31 7201
461 31 7750
462 31 5458
463 31 7909
464 31 6011
465 31 4275
466 31 2878
467 31 4724
468 31 3670
469 31 10177
470 31 5193
471 31 9288
472 31 5109
473 31 9728
474 31 5836
475 31 7379
476 31 4107
477 31 8781
478 31 7293
479 31 54
480 31 52
481 31 11659
482 31 4496
483 31 23
484 31 79
485 31 5579
486 31 157
487 31 5928
488 31 5299
490 31 98
491 31 4623
492 31 8149
493 31 138
494 31 11191
495 31 611
496 31 5926
497 31 7231
498 31 5813
499 31 5228
500 31 5479
1 32 222
5 32 3069
6 32 4592
9 32 5
15 32 3
23 32 2114
31 32 4439
33 32 27
35 32 4894
36 32 8994
37 32 9856
39 32 5717
40 32 2860
45 32 4328
48 32 4989
49 32 4348
51 32 56
52 32 3510
53 32 4530
54 32 34
55 32 6326
57 32 5073
62 32 7303
63 32 77
65 32 4634
68 32 29
73 32 5338
76 32 3089
83 32 58
84 32 4817
86 32 3746
89 32 2733
93 32 6188
95 32 5691
105 32 4204
108 32 62
113 32 4242
114 32 4112
121 32 4145
122 32 6438
123 32 5309
126 32 2
129 32 24
133 32 168
137 32 6991
139 32 4741
140 32 9006
142 32 9539
144 32 4210
147 32 439
150 32 216
154 32 5051
156 32 4967
158 32 26
166 32 5794
169 32 44
171 32 453
172 32 211
180 32 6199
182 32 6849
184 32 6501
190 32 4665
196 32 20
197 32 3122
200 32 29
203 32 8
204 32 721
205 32 19
208 32 5331
209 32 15
217 32 3773
223 32 5650
226 32 3970
228 32 3304
230 32 4650
232 32 7249
235 32 6123
239 32 3982
240 32 4327
241 32 4501
243 32 3915
244 32 4055
246 32 895
257 32 5964
262 32 24
270 32 5944
272 32 5719
278 32 4480
279 32 2887
282 32 4573
286 32 3058
287 32 5766
291 32 8
293 32 5080
296 32 6610
302 32 2281
313 32 4267
319 32 6929
322 32 4017
325 32 75
327 32 2810
330 32 6016
331 32 28
332 32 4818
333 32 5451
334 32 4028
336 32 9
338 32 8
340 32 4659
342 32 4413
343 32 1468
345 32 8
348 32 4097
360 32 3456
362 32 7807
364 32 4719
366 32 6306
380 32 3373
385 32 7
389 32 4700
392 32 2
401 32 7274
405 32 16
406 32 7063
408 32 4482
414 32 2335
415 32 4737
425 32 745
429 32 3311
431 32 5727
432 32 5823
433 32 6212
437 32 5860
440 32 5265
442 32 2932
444 32 189
445 32 7
446 32 4783
447 32 5536
450 32 4711
452 32 95
453 32 3
456 32 23
458 32 4679
459 32 6441
460 32 61
462 32 3
466 32 538
471 32 242
473 32 5
474 32 116
479 32 5514
480 32 2965
483 32 3864
484 32 7663
486 32 3146
489 32 3893
490 32 4453
491 32 27
493 32 6056
495 32 3535
1 33 2597
2 33 1592
3 33 3800
4 33 3234
5 33 9
7 33 2267
8 33 2440
9 33 2846
10 33 3800
11 33 2647
12 33 2893
13 33 1423
14 33 1490
15 33 2284
16 33 1213
17 33 2963
18 33 2289
19 33 2477
20 33 6243
21 33 1873
22 33 1574
23 33 380
24 33 3159
25 33 4213
26 33 2007
27 33 1520
28 33 3339
29 33 2543
30 33 2288
32 33 1918
33 33 1907
34 33 2417
35 33 3
36 33 6
38 33 2102
39 33 7
41 33 3270
42 33 2851
43 33 2434
44 33 1178
45 33 7
46 33 1051
47 33 2515
48 33 5
49 33 132
50 33 3040
51 33 2365
52 33 87
54 33 1490
55 33 4
56 33 2139
57 33 5
58 33 2963
59 33 2549
60 33 4332
61 33 1344
63 33 6686
64 33 3479
66 33 2947
67 33 2137
68 33 3453
69 33 3169
70 33 3342
71 33 3817
72 33 1500
73 33 7
74 33 1810
75 33 3288
76 33 346
77 33 3323
78 33 1944
79 33 2857
80 33 1780
81 33 3039
82 33 2139
83 33 2057
85 33 3735
87 33 2218
88 33 2407
89 33 37
90 33 2664
91 33 3273
92 33 2672
94 33 3537
96 33 2801
97 33 2012
98 33 2410
99 33 3632
100 33 4117
101 33 3745
102 33 1842
103 33 4091
104 33 3178
105 33 4
106 33 4440
107 33 2336
108 33 3187
109 33 3855
110 33 1724
111 33 1386
112 33 973
113 33 54
115 33 3754
116 33 3321
117 33 5082
118 33 4124
119 33 3144
120 33 4356
124 33 3539
125 33 2972
126 33 3807
127 33 3720
128 33 3895
129 33 3472
130 33 1611
131 33 2316
132 33 3554
133 33 1435
134 33 2719
135 33 2834
136 33 1917
138 33 1475
140 33 8
141 33 2914
142 33 7
143 33 3351
145 33 1443
146 33 1955
147 33 1996
148 33 3059
149 33 2499
150 33 1876
151 33 2362
152 33 1066
153 33 2004
155 33 2208
156 33 104
157 33 1105
158 33 1964
159 33 3572
160 33 2249
161 33 3931
162 33 2567
163 33 3957
164 33 3158
165 33 2866
166 33 5
167 33 1861
168 33 2764
169 33 3799
170 33 2862
171 33 1570
172 33 3200
173 33 1852
174 33 752
175 33 4232
176 33 2677
177 33 2426
178 33 2412
179 33 3294
180 33 25
181 33 2867
183 33 2871
185 33 3584
186 33 2763
187 33 4107
188 33 1778
189 33 3004
191 33 4425
192 33 3215
193 33 2576
194 33 3151
195 33 2459
196 33 2046
197 33 59
198 33 4351
199 33 4439
200 33 3338
201 33 1422
202 33 2473
203 33 4143
204 33 345
205 33 4950
206 33 2824
207 33 3383
209 33 2613
210 33 1605
211 33 2528
212 33 4016
213 33 4476
214 33 3596
215 33 1689
216 33 3503
217 33 94
218 33 2555
219 33 2509
220 33 3171
221 33 1916
222 33 3573
223 33 7
224 33 1716
225 33 2668
227 33 1952
229 33 3878
230 33 6
231 33 2226
232 33 8
233 33 1044
234 33 3045
235 33 7
236 33 2198
237 33 1988
238 33 3812
240 33 140
241 33 17
242 33 2645
243 33 4
245 33 1420
246 33 634
247 33 4837
248 33 1665
249 33 3137
250 33 2681
251 33 2957
252 33 2779
253 33 2378
254 33 2410
255 33 2887
256 33 2671
258 33 2288
259 33 2346
260 33 3666
261 33 2631
262 33 3412
263 33 2678
264 33 3902
265 33 3191
266 33 4263
267 33 4175
268 33 2695
269 33 4563
270 33 8
271 33 2042
272 33 5
273 33 1117
274 33 3053
275 33 2419
276 33 2698
277 33 2213
278 33 9
279 33 614
280 33 3635
281 33 2572
282 33 1
283 33 3231
284 33 2993
285 33 3358
286 33 270
287 33 7
288 33 2574
289 33 1788
290 33 2961
291 33 2391
292 33 1938
293 33 49
294 33 4053
295 33 2462
297 33 1215
298 33 2995
299 33 2729
300 33 2588
301 33 2716
302 33 1128
303 33 2419
304 33 2250
305 33 4274
306 33 3265
307 33 6323
308 33 3720
309 33 3076
310 33 2179
311 33 4465
312 33 2909
313 33 145
314 33 3733
315 33 1500
316 33 3679
317 33 1432
318 33 2685
319 33 13
320 33 3216
321 33 2412
323 33 2397
324 33 2474
325 33 2755
326 33 3175
327 33 162
328 33 3185
329 33 3140
330 33 4
331 33 3399
333 33 4
335 33 1315
336 33 2894
337 33 3102
338 33 2856
339 33 1878
340 33 12
341 33 1782
342 33 4
343 33 285
344 33 2320
345 33 2847
346 33 2827
347 33 2069
348 33 11
349 33 2185
350 33 3685
351 33 3679
352 33 3489
353 33 2460
354 33 4092
355 33 3309
356 33 2661
357 33 3115
358 33 2300
359 33 4187
360 33 117
361 33 2262
362 33 16
363 33 2912
364 33 3
365 33 4557
367 33 2832
368 33 1620
369 33 3075
370 33 3238
371 33 3035
372 33 2923
373 33 3057
374 33 2337
375 33 4433
376 33 3378
377 33 4149
378 33 2325
379 33 3191
381 33 3949
382 33 1807
383 33 2749
384 33 1872
385 33 3044
386 33 3221
387 33 2944
388 33 2549
389 33 31
390 33 3262
391 33 1934
392 33 2918
393 33 2506
394 33 2865
395 33 2764
396 33 4395
397 33 3056
398 33 2331
399 33 1968
400 33 1933
402 33 2457
403 33 1729
404 33 2828
405 33 3430
407 33 4080
409 33 3105
410 33 2389
411 33 1568
412 33 2638
413 33 2200
414 33 1200
415 33 15
416 33 2344
417 33 3013
418 33 3501
419 33 3140
420 33 2239
421 33 1761
422 33 4266
423 33 1802
424 33 3945
425 33 271
426 33 1488
427 33 1626
428 33 4406
429 33 84
430 33 2049
431 33 15
432 33 4
434 33 1552
435 33 2490
436 33 2617
437 33 8
438 33 1440
439 33 4358
441 33 2211
443 33 1373
444 33 2869
445 33 4199
446 33 16
448 33 2532
449 33 1796
450 33 231
451 33 6219
452 33 2013
453 33 3083
454 33 4129
455 33 1006
456 33 1956
457 33 2916
460 33 2925
461 33 2970
462 33 2822
463 33 2920
464 33 2486
465 33 1142
466 33 1096
467 33 3481
468 33 2527
469 33 1774
470 33 2529
471 33 2297
472 33 1693
473 33 2900
474 33 2175
475 33 3003
476 33 4154
477 33 2406
478 33 2823
479 33 6
481 33 2380
482 33 2424
485 33 1614
487 33 2581
488 33 2244
490 33 7
491 33 1968
492 33 3418
493 33 9
494 33 2837
495 33 6
496 33 4163
497 33 2136
498 33 3357
499 33 2176
500 33 1483
5 34 2861
6 34 3123
21 34 4
23 34 47
31 34 1546
35 34 2503
36 34 2698
37 34 1604
39 34 1422
40 34 1111
45 34 980
48 34 1784
52 34 274
53 34 1837
55 34 2039
57 34 1459
62 34 2640
65 34 2799
73 34 1495
76 34 89
84 34 2315
86 34 2095
89 34 510
93 34 1117
95 34 3657
105 34 1668
113 34 1660
114 34 1127
121 34 1757
122 34 1678
123 34 1801
133 34 5
137 34 2524
139 34 2126
140 34 2598
142 34 2821
144 34 1875
154 34 2879
156 34 1756
166 34 1329
180 34 1635
182 34 2485
184 34 2687
190 34 3141
197 34 148
204 34 12
208 34 2600
217 34 150
223 34 3127
226 34 1800
227 34 6
228 34 1512
230 34 2888
232 34 2269
235 34 1527
239 34 2076
241 34 2484
243 34 1573
244 34 2220
246 34 18
257 34 2179
270 34 2167
272 34 1670
278 34 724
282 34 2962
286 34 258
287 34 3241
293 34 115
296 34 823
302 34 23
319 34 2599
322 34 1851
327 34 242
330 34 1681
332 34 1297
333 34 1535
334 34 1924
340 34 1676
342 34 1707
343 34 8
348 34 2195
360 34 135
362 34 629
364 34 1900
366 34 1519
380 34 1444
389 34 1790
401 34 2530
406 34 2223
408 34 2017
414 34 21
415 34 1780
429 34 151
431 34 987
432 34 3161
433 34 1317
437 34 1567
440 34 737
442 34 2076
446 34 2526
447 34 789
450 34 20
458 34 1925
459 34 2515
479 34 2329
480 34 2103
483 34 2216
484 34 1216
486 34 1447
489 34 2517
490 34 1889
493 34 1926
495 34 219
1 35 6083
2 35 4787
3 35 7819
4 35 7236
5 35 107
6 35 14
7 35 13138
8 35 5449
9 35 11779
10 35 7700
11 35 10559
12 35 8141
13 35 7104
14 35 6038
15 35 12856
16 35 6966
17 35 7376
18 35 8218
19 35 16020
20 35 8188
21 35 4602
22 35 9391
23 35 5551
24 35 13302
25 35 17002
26 35 24002
27 35 3199
28 35 12211
29 35 5309
30 35 7667
32 35 12052
33 35 7927
34 35 11252
36 35 37
37 35 94
38 35 8737
39 35 79
40 35 173
41 35 12680
42 35 8402
43 35 16064
44 35 21751
45 35 59
46 35 3957
47 35 4578
48 35 166
49 35 3686
50 35 16829
51 35 7264
52 35 1320
53 35 7
54 35 10741
55 35 8
56 35 6631
57 35 121
58 35 6495
59 35 4573
60 35 5953
61 35 7734
62 35 15
63 35 7743
64 35 6858
65 35 18
66 35 3877
67 35 5575
68 35 8775
69 35 13537
70 35 19013
71 35 11268
72 35 16461
73 35 109
74 35 12895
75 35 12294
76 35 3938
77 35 23690
78 35 33812
79 35 8489
80 35 9659
81 35 7504
82 35 14666
83 35 9552
85 35 15791
87 35 9136
88 35 6631
89 35 380
90 35 7486
91 35 9234
92 35 13199
93 35 132
94 35 10449
95 35 12
96 35 10188
97 35 19149
98 35 12580
99 35 5870
100 35 8395
101 35 13452
102 35 8810
103 35 9024
104 35 7138
105 35 257
106 35 11651
107 35 7643
108 35 10668
109 35 11359
110 35 14631
111 35 5498
112 35 9702
113 35 261
114 35 292
115 35 15735
116 35 13953
117 35 10999
118 35 10004
119 35 8902
120 35 7208
121 35 21
122 35 17
123 35 17
124 35 5426
125 35 5581
126 35 10388
127 35 15756
128 35 8467
129 35 7560
130 35 9480
131 35 13305
132 35 11194
133 35 9893
134 35 8617
135 35 10137
136 35 7523
137 35 68
138 35 22607
139 35 5
140 35 38
141 35 6211
143 35 6847
144 35 27
145 35 9938
146 35 2648
147 35 6692
148 35 9932
149 35 7049
150 35 4779
151 35 8231
152 35 6670
153 35 5972
154 35 18
155 35 4254
156 35 429
157 35 6554
158 35 8066
159 35 8209
160 35 4356
161 35 5582
162 35 10611
163 35 5847
164 35 17062
165 35 8294
166 35 91
167 35 9878
168 35 9131
169 35 5651
170 35 9915
171 35 5607
172 35 7649
173 35 4239
174 35 20806
175 35 8920
176 35 10641
177 35 20802
178 35 17785
179 35 12821
180 35 11
181 35 10676
182 35 72
183 35 8415
185 35 9284
186 35 4969
187 35 7717
188 35 6225
189 35 10564
190 35 16
191 35 5025
192 35 5628
193 35 10630
194 35 13436
195 35 11579
196 35 7879
197 35 2171
198 35 6014
199 35 8603
200 35 8784
201 35 10021
202 35 5229
203 35 6928
204 35 4565
205 35 13014
206 35 5796
207 35 12837
208 35 144
209 35 13070
210 35 3737
211 35 6997
212 35 11416
213 35 8685
214 35 5076
215 35 6237
216 35 16632
217 35 2865
218 35 6237
219 35 10014
220 35 13567
221 35 3358
222 35 11380
223 35 59
224 35 9660
225 35 7367
226 35 90
227 35 4633
228 35 8
229 35 11529
230 35 36
231 35 4161
232 35 10
233 35 6721
234 35 6230
235 35 21
236 35 8871
237 35 4868
238 35 11677
240 35 3799
241 35 69
242 35 10921
243 35 4
244 35 15
245 35 6758
246 35 6302
247 35 7942
248 35 3756
249 35 5926
250 35 6540
251 35 12104
252 35 5898
253 35 15839
254 35 11818
255 35 7015
256 35 10854
257 35 87
258 35 5849
259 35 13475
260 35 7871
261 35 7343
262 35 8775
263 35 7501
264 35 12133
265 35 13386
266 35 17459
267 35 6773
268 35 10424
269 35 7647
270 35 10
271 35 8532
273 35 26949
274 35 6214
275 35 8795
276 35 10639
277 35 5433
278 35 141
279 35 5945
280 35 6164
281 35 6928
283 35 7276
284 35 6759
285 35 13872
286 35 2810
287 35 5
288 35 7443
289 35 6223
290 35 10878
291 35 7525
292 35 9912
293 35 1075
294 35 12823
295 35 17918
296 35 16
297 35 14482
298 35 13074
299 35 11555
300 35 7525
301 35 10796
302 35 8816
303 35 9774
304 35 9229
305 35 6153
306 35 8310
307 35 8492
308 35 7839
309 35 9490
310 35 6946
311 35 7233
312 35 8406
313 35 3878
314 35 8652
315 35 9872
316 35 15656
317 35 7455
318 35 5907
320 35 7306
321 35 6657
322 35 63
323 35 20821
324 35 10853
325 35 11597
326 35 8509
327 35 1273
328 35 16936
329 35 7099
331 35 8801
332 35 6
333 35 27
334 35 11
335 35 4797
336 35 15159
337 35 7570
338 35 14759
339 35 2669
341 35 4225
342 35 38
343 35 10068
344 35 13089
345 35 14984
346 35 8334
347 35 8849
348 35 121
349 35 8860
350 35 7771
351 35 7022
352 35 9481
353 35 5536
354 35 13188
355 35 19102
356 35 10847
357 35 5624
358 35 12418
359 35 6896
360 35 2786
361 35 13963
362 35 113
363 35 10836
365 35 8047
366 35 311
367 35 10279
368 35 8401
369 35 13543
370 35 7330
371 35 7763
372 35 6511
373 35 5972
374 35 8878
375 35 6010
376 35 9083
377 35 7697
378 35 9806
379 35 7272
380 35 7
381 35 5698
382 35 12119
383 35 7352
384 35 10033
385 35 9746
386 35 7274
387 35 7823
388 35 9813
390 35 8226
391 35 12033
392 35 13618
393 35 7050
394 35 7963
395 35 9938
396 35 8663
397 35 9201
398 35 6368
399 35 7320
400 35 12219
402 35 10325
403 35 3156
404 35 6816
405 35 10646
406 35 14
407 35 10136
408 35 6
409 35 9864
410 35 10788
411 35 16837
412 35 6571
413 35 5593
414 35 8972
416 35 6677
417 35 9796
418 35 7868
419 35 8688
420 35 12460
421 35 10934
422 35 5238
423 35 16170
424 35 6365
425 35 8350
426 35 6964
427 35 9481
428 35 33869
429 35 2610
430 35 8441
431 35 13
432 35 14
433 35 39
434 35 17162
435 35 13233
436 35 7628
437 35 4
438 35 10330
439 35 6000
440 35 8
441 35 6923
443 35 4878
444 35 7751
445 35 8229
446 35 7
447 35 6
448 35 6923
449 35 16056
450 35 3446
451 35 9977
452 35 8717
453 35 9265
454 35 9009
455 35 9705
456 35 9712
457 35 3897
458 35 8
459 35 10
460 35 11419
461 35 6781
462 35 13704
463 35 9551
464 35 7582
465 35 15476
466 35 4901
467 35 5312
468 35 10700
469 35 6350
470 35 6807
471 35 7674
472 35 3691
473 35 8791
474 35 11383
475 35 19532
476 35 6065
477 35 5355
478 35 6032
479 35 17
480 35 34
481 35 12502
482 35 13210
484 35 60
485 35 10590
486 35 1
487 35 8113
488 35 9141
489 35 18
490 35 156
491 35 7887
492 35 10782
493 35 488
494 35 10843
495 35 654
496 35 17246
497 35 7051
498 35 5629
499 35 13716
500 35 6910
5 36 1375
6 36 770
31 36 1330
35 36 393
36 36 324
37 36 1257
39 36 1127
40 36 375
45 36 343
48 36 193
49 36 9
52 36 134
53 36 916
55 36 856
57 36 752
62 36 1892
65 36 1057
73 36 741
76 36 16
84 36 1061
86 36 689
89 36 145
93 36 821
95 36 1024
105 36 712
113 36 149
114 36 111
121 36 1049
122 36 1300
123 36 2066
137 36 788
139 36 1375
140 36 347
142 36 764
144 36 1044
147 36 6
154 36 1399
156 36 140
166 36 717
171 36 7
180 36 832
182 36 792
184 36 1187
190 36 787
197 36 31
204 36 3
208 36 630
217 36 38
223 36 596
226 36 383
228 36 296
230 36 1020
232 36 2216
235 36 1451
239 36 673
240 36 6
241 36 777
243 36 584
244 36 1137
246 36 21
257 36 1095
270 36 902
272 36 1500
278 36 162
279 36 8
282 36 1068
286 36 63
287 36 879
293 36 62
296 36 1250
302 36 5
313 36 6
319 36 519
322 36 349
327 36 238
330 36 1487
332 36 1464
333 36 1103
334 36 958
340 36 863
342 36 416
348 36 1015
360 36 35
362 36 293
364 36 1092
366 36 243
380 36 564
389 36 902
401 36 1451
406 36 881
408 36 358
414 36 5
415 36 904
429 36 51
431 36 636
432 36 579
433 36 780
437 36 969
440 36 1088
442 36 613
446 36 657
447 36 1118
450 36 20
458 36 654
459 36 927
479 36 853
480 36 435
483 36 677
484 36 978
486 36 272
489 36 1066
490 36 327
493 36 453
495 36 47
1 37 5477
3 37 15
4 37 2956
5 37 19240
6 37 14885
20 37 3643
21 37 3
23 37 10984
24 37 87
26 37 181
31 37 14481
34 37 2
35 37 13200
36 37 25300
37 37 13745
38 37 212
39 37 11113
40 37 26454
45 37 14259
48 37 17505
49 37 2735
51 37 9580
52 37 11095
53 37 13381
55 37 28987
57 37 17084
62 37 14954
63 37 8272
64 37 20
65 37 18600
68 37 6
69 37 88
71 37 2330
73 37 17768
76 37 14492
84 37 15017
86 37 22669
89 37 11216
93 37 18000
94 37 21
95 37 15724
100 37 51
104 37 51
105 37 16391
106 37 103
108 37 4206
109 37 2326
113 37 16396
114 37 27223
119 37 71
121 37 13382
122 37 21839
123 37 17233
124 37 4222
126 37 8
128 37 3
129 37 4302
132 37 3632
133 37 6
135 37 11
137 37 19869
139 37 13911
140 37 25190
142 37 15178
143 37 4
144 37 13549
147 37 7628
150 37 23
154 37 21836
156 37 14754
166 37 12068
168 37 161
169 37 7251
171 37 12123
172 37 12856
180 37 16390
182 37 19679
184 37 24198
186 37 2428
190 37 15382
191 37 3542
194 37 94
197 37 21938
199 37 4
200 37 4
203 37 3613
204 37 12127
205 37 6116
208 37 19683
209 37 10
212 37 2340
213 37 7
217 37 8607
220 37 90
222 37 4864
223 37 17472
226 37 44534
227 37 3
228 37 12965
229 37 183
230 37 11865
232 37 32038
235 37 19045
238 37 186
239 37 22327
240 37 2757
241 37 20402
243 37 20035
244 37 19654
246 37 13984
247 37 12
250 37 32
257 37 14941
262 37 7
264 37 279
265 37 98
266 37 82
269 37 1445
270 37 21391
272 37 33131
278 37 9097
279 37 13041
282 37 23285
283 37 49
286 37 20530
287 37 24231
291 37 46
293 37 19870
296 37 15935
299 37 5694
302 37 6828
303 37 3488
306 37 4962
307 37 3600
308 37 17
309 37 2161
313 37 2783
314 37 3
319 37 23303
322 37 56362
324 37 132
325 37 9494
326 37 891
327 37 17085
330 37 33341
331 37 6
332 37 14170
333 37 10382
334 37 11930
340 37 15082
342 37 25364
343 37 21721
347 37 222
348 37 16445
351 37 14887
360 37 8473
362 37 17174
364 37 20320
366 37 8728
367 37 11988
369 37 75
370 37 2940
379 37 62
380 37 14940
385 37 8133
386 37 53
388 37 3481
389 37 14935
390 37 4959
392 37 182
395 37 15
396 37 3595
401 37 15105
405 37 7203
406 37 11753
408 37 18271
410 37 1377
412 37 33
414 37 6778
415 37 15093
422 37 3425
423 37 43
424 37 1505
425 37 2122
428 37 25
429 37 14168
431 37 20190
432 37 26715
433 37 10196
435 37 568
437 37 12570
440 37 27235
442 37 10549
444 37 18930
445 37 1139
446 37 24161
447 37 28098
449 37 41
450 37 12722
452 37 2488
453 37 235
456 37 55
458 37 20842
459 37 26432
460 37 9529
462 37 144
463 37 2214
466 37 14172
471 37 9074
473 37 4629
474 37 15146
476 37 79
479 37 11455
480 37 23199
482 37 571
483 37 22762
484 37 15654
486 37 13057
489 37 15924
490 37 13651
493 37 14282
495 37 7101
1 38 7818
2 38 5230
3 38 5790
4 38 5718
5 38 6493
6 38 10172
7 38 13052
8 38 7013
9 38 4910
10 38 4233
11 38 8508
12 38 5337
13 38 3510
14 38 3705
15 38 3007
16 38 4753
17 38 5797
18 38 4566
19 38 4853
20 38 7468
21 38 3073
22 38 3085
23 38 8949
24 38 4266
25 38 3847
26 38 10520
27 38 2708
28 38 4111
29 38 7024
30 38 3050
31 38 9830
32 38 2548
33 38 4912
34 38 7355
35 38 8700
36 38 10468
37 38 7763
38 38 4968
39 38 11068
40 38 6915
41 38 6906
42 38 9611
43 38 4875
44 38 3021
45 38 10125
46 38 1825
47 38 4966
48 38 7141
49 38 7152
50 38 3938
51 38 6860
52 38 8680
53 38 6003
54 38 9048
55 38 9871
56 38 4882
57 38 7917
58 38 4592
59 38 5106
60 38 8015
61 38 3590
62 38 6623
63 38 7764
64 38 4821
65 38 7850
66 38 4382
67 38 3141
68 38 4304
69 38 4178
70 38 2651
71 38 8417
72 38 3406
73 38 8032
74 38 3902
75 38 4063
76 38 11036
77 38 2822
78 38 4608
79 38 9719
80 38 4657
81 38 5105
82 38 3662
83 38 3743
84 38 10547
85 38 6412
86 38 9019
87 38 2741
88 38 6131
89 38 6558
90 38 5540
91 38 9391
92 38 5504
93 38 7703
94 38 6904
95 38 4696
96 38 6840
97 38 4555
98 38 5913
99 38 4044
100 38 5539
101 38 4730
102 38 6076
103 38 7665
104 38 5348
105 38 9349
106 38 6015
107 38 4751
108 38 7340
109 38 8412
110 38 7798
111 38 5444
112 38 2874
113 38 8170
114 38 12492
115 38 6393
116 38 10182
117 38 4866
118 38 6081
119 38 6861
120 38 4703
121 38 7375
122 38 6924
123 38 6035
124 38 7533
125 38 4286
126 38 4534
127 38 6423
128 38 7838
129 38 7440
130 38 3169
131 38 13266
132 38 4652
133 38 4670
134 38 4575
135 38 8423
136 38 1819
137 38 9126
138 38 4506
139 38 8002
140 38 10374
141 38 4425
142 38 13142
143 38 9378
144 38 7668
145 38 7873
146 38 3620
147 38 4830
148 38 5808
149 38 4257
150 38 6517
151 38 5746
152 38 2443
153 38 4255
154 38 8831
155 38 5647
156 38 8432
157 38 2534
158 38 4806
159 38 3377
160 38 5642
161 38 5465
162 38 8602
163 38 7328
164 38 3916
165 38 5320
166 38 7940
167 38 5722
168 38 7266
169 38 8252
170 38 3741
171 38 9796
172 38 6254
173 38 3317
174 38 2054
175 38 7707
176 38 4211
177 38 4787
178 38 4843
179 38 6880
180 38 6527
181 38 5538
182 38 9235
183 38 5372
184 38 9311
185 38 9258
186 38 7953
187 38 5912
188 38 5532
189 38 5556
190 38 10194
191 38 7624
192 38 5590
193 38 8333
194 38 4274
195 38 13552
196 38 5002
197 38 7793
198 38 7926
199 38 6009
200 38 4452
201 38 7929
202 38 6943
203 38 3963
204 38 6464
205 38 7846
206 38 4560
207 38 6835
208 38 7206
209 38 3592
210 38 5874
211 38 4421
212 38 8494
213 38 6026
214 38 4350
215 38 5541
216 38 13331
217 38 5612
218 38 3671
219 38 8675
220 38 4272
221 38 2916
222 38 5534
223 38 5169
224 38 4659
225 38 7687
226 38 7951
227 38 3105
228 38 6173
229 38 6656
230 38 6288
231 38 3091
232 38 8502
233 38 2426
234 38 4451
235 38 7845
236 38 2871
237 38 2800
238 38 6878
239 38 8737
240 38 7223
241 38 11255
242 38 5534
243 38 8629
244 38 6755
245 38 5641
246 38 6927
247 38 5315
248 38 5767
249 38 8471
250 38 6662
251 38 4314
252 38 4545
253 38 3477
254 38 13850
255 38 6367
256 38 4147
257 38 7202
258 38 6677
259 38 4073
260 38 5586
261 38 5693
262 38 4323
263 38 8021
264 38 8462
265 38 4251
266 38 13351
267 38 7927
268 38 5704
269 38 12178
270 38 7490
271 38 7585
272 38 5336
273 38 4942
274 38 4451
275 38 6484
276 38 8587
277 38 4959
278 38 6366
279 38 6609
280 38 4068
281 38 4755
282 38 5641
283 38 5388
284 38 6677
285 38 10013
286 38 6416
287 38 7743
288 38 4803
289 38 5604
290 38 6132
291 38 12650
292 38 5539
293 38 10380
294 38 4778
295 38 3245
296 38 5417
297 38 3458
298 38 3433
299 38 6134
300 38 4875
301 38 5626
302 38 7633
303 38 6703
304 38 2830
305 38 8127
306 38 8772
307 38 7498
308 38 5674
309 38 8410
310 38 6810
311 38 4898
312 38 12766
313 38 7224
314 38 7756
315 38 7931
316 38 6394
317 38 4653
318 38 4667
319 38 10044
320 38 5030
321 38 6569
322 38 6930
323 38 4816
324 38 12817
325 38 5514
326 38 7239
327 38 10178
328 38 3916
329 38 5125
330 38 5439
331 38 4302
332 38 7041
333 38 9419
334 38 8635
335 38 3979
336 38 2882
337 38 5188
338 38 2764
339 38 3713
340 38 9114
341 38 3286
342 38 8261
343 38 4558
344 38 13119
345 38 2819
346 38 7582
347 38 4891
348 38 6361
349 38 2858
350 38 4826
351 38 7833
352 38 9292
353 38 17201
354 38 4910
355 38 2642
356 38 5842
357 38 5600
358 38 5884
359 38 8031
360 38 5649
361 38 5581
362 38 7537
363 38 6193
364 38 6318
365 38 4530
366 38 9227
367 38 7309
368 38 4599
369 38 4250
370 38 5652
371 38 10017
372 38 4577
373 38 8481
374 38 5525
375 38 7984
376 38 9573
377 38 5977
378 38 5149
379 38 5099
380 38 7654
381 38 5784
382 38 7524
383 38 3917
384 38 5520
385 38 5619
386 38 5350
387 38 8174
388 38 6868
389 38 9027
390 38 8778
391 38 7554
392 38 6939
393 38 4269
394 38 11875
395 38 8514
396 38 5646
397 38 7046
398 38 6302
399 38 7095
400 38 2604
401 38 12252
402 38 8616
403 38 2533
404 38 6316
405 38 5290
406 38 9566
407 38 6010
408 38 9195
409 38 3288
410 38 6557
411 38 3476
412 38 6651
413 38 2956
414 38 7759
415 38 9089
416 38 6125
417 38 3187
418 38 4329
419 38 3676
420 38 5953
421 38 4377
422 38 7628
423 38 3500
424 38 11071
425 38 6949
426 38 5849
427 38 3027
428 38 3970
429 38 9121
430 38 7655
431 38 5456
432 38 4401
433 38 5526
434 38 3526
435 38 5254
436 38 4709
437 38 6370
438 38 3497
439 38 8136
440 38 9808
441 38 6843
442 38 7018
443 38 4238
444 38 3969
445 38 4648
446 38 8094
447 38 9732
448 38 7845
449 38 3486
450 38 6167
451 38 5841
452 38 7828
453 38 7156
454 38 7639
455 38 2980
456 38 3738
457 38 4409
458 38 11140
459 38 8874
460 38 5580
461 38 6310
462 38 7145
463 38 8385
464 38 4968
465 38 3438
466 38 7317
467 38 8195
468 38 8521
469 38 5637
470 38 7950
471 38 6877
472 38 5699
473 38 9798
474 38 7724
475 38 3493
476 38 7012
477 38 6989
478 38 4461
479 38 6510
480 38 5997
481 38 6054
482 38 5317
483 38 9134
484 38 7747
485 38 2650
486 38 6371
487 38 6150
488 38 2875
489 38 8002
490 38 5900
491 38 4922
492 38 8519
493 38 12440
494 38 6139
495 38 6739
496 38 3884
497 38 3821
498 38 5306
499 38 5636
500 38 5735
1 39 673
2 39 822
3 39 1251
4 39 1544
5 39 75
6 39 16
7 39 1715
8 39 1901
9 39 1106
10 39 1277
11 39 1643
12 39 1187
13 39 1252
14 39 722
15 39 2186
16 39 1221
17 39 1973
18 39 1408
19 39 1407
20 39 492
21 39 1117
22 39 927
23 39 141
24 39 1177
25 39 715
26 39 1017
27 39 851
28 39 1801
29 39 1980
30 39 1810
31 39 130
32 39 896
33 39 606
34 39 428
35 39 6
36 39 152
37 39 151
38 39 2408
39 39 303
40 39 89
41 39 2035
42 39 2843
43 39 1398
44 39 676
45 39 79
46 39 867
47 39 2484
48 39 97
49 39 1126
50 39 2901
51 39 493
52 39 52
53 39 50
54 39 2166
55 39 13
56 39 1642
57 39 145
58 39 1443
59 39 2602
60 39 1538
61 39 1311
62 39 134
63 39 266
64 39 2604
65 39 70
66 39 1425
67 39 1327
68 39 3037
69 39 1204
70 39 1445
71 39 1420
72 39 1013
73 39 147
74 39 1246
75 39 1746
76 39 728
77 39 2137
78 39 1591
79 39 2877
80 39 1388
81 39 1878
82 39 681
83 39 1227
84 39 78
85 39 1813
86 39 86
87 39 1399
88 39 2049
89 39 474
90 39 2551
91 39 1168
92 39 1489
93 39 63
94 39 2010
95 39 107
96 39 812
97 39 1307
98 39 1987
99 39 1643
100 39 1921
101 39 910
102 39 1168
103 39 1438
104 39 2332
105 39 4
106 39 2466
107 39 1099
108 39 1490
109 39 1487
110 39 1381
111 39 815
112 39 1249
113 39 102
114 39 95
115 39 1812
116 39 1802
117 39 1674
118 39 1807
119 39 1526
120 39 2848
121 39 22
122 39 11
123 39 62
124 39 309
125 39 929
126 39 1915
127 39 1804
128 39 1300
129 39 477
130 39 1051
131 39 1727
132 39 1663
133 39 1047
134 39 1995
135 39 1249
136 39 1184
137 39 41
138 39 853
139 39 15
140 39 143
141 39 2065
142 39 155
143 39 2748
144 39 19
145 39 1888
146 39 882
147 39 82
148 39 1854
149 39 1175
150 39 1278
151 39 1929
152 39 757
153 39 2422
154 39 7
155 39 1340
156 39 78
157 39 814
158 39 626
159 39 1002
160 39 1292
161 39 2640
162 39 1710
163 39 1645
164 39 2965
165 39 1242
166 39 63
167 39 1600
168 39 1217
169 39 726
170 39 1319
171 39 188
172 39 127
173 39 1452
174 39 700
175 39 1441
176 39 1610
177 39 1384
178 39 1269
179 39 2051
180 39 52
181 39 2069
182 39 41
183 39 1222
184 39 55
185 39 1644
186 39 1622
187 39 2311
188 39 808
189 39 2190
190 39 21
191 39 787
192 39 1322
193 39 1718
194 39 1157
195 39 1799
196 39 656
197 39 373
198 39 1530
199 39 2163
200 39 3035
201 39 1973
202 39 1965
203 39 938
204 39 264
205 39 344
206 39 1725
207 39 2063
208 39 82
209 39 956
210 39 1362
211 39 1222
212 39 1322
213 39 2159
214 39 2614
215 39 763
216 39 2084
217 39 288
218 39 874
219 39 1526
220 39 1272
221 39 856
222 39 334
223 39 42
224 39 1436
225 39 2803
226 39 135
227 39 1065
228 39 10
229 39 2129
230 39 10
231 39 783
232 39 152
233 39 814
234 39 2197
235 39 92
236 39 1487
237 39 1533
238 39 2068
239 39 65
240 39 1131
241 39 41
242 39 1267
243 39 3
244 39 47
245 39 1374
246 39 132
247 39 1744
248 39 1393
249 39 1739
250 39 1276
251 39 1145
252 39 1656
253 39 1562
254 39 1777
255 39 2655
256 39 1596
257 39 136
258 39 2659
259 39 842
260 39 1978
261 39 2509
262 39 2953
263 39 2776
264 39 1791
265 39 1238
266 39 1632
267 39 1442
268 39 1470
269 39 1010
270 39 126
271 39 1709
272 39 14
273 39 1645
274 39 2189
275 39 1528
276 39 1713
277 39 1098
278 39 129
279 39 216
280 39 1619
281 39 2129
282 39 67
283 39 2221
284 39 1543
285 39 1810
286 39 96
288 39 2323
289 39 813
290 39 1235
291 39 1445
292 39 1479
293 39 6
294 39 1395
295 39 1350
296 39 138
297 39 1023
298 39 1816
299 39 1530
300 39 2349
301 39 1288
302 39 389
303 39 1241
304 39 1488
305 39 1560
306 39 1550
307 39 520
308 39 1217
309 39 1232
310 39 1905
311 39 2844
312 39 1299
313 39 1023
314 39 1374
315 39 1962
316 39 1814
317 39 1034
318 39 1676
319 39 6
320 39 1672
321 39 2014
322 39 62
323 39 1376
324 39 1198
325 39 154
326 39 2702
327 39 224
328 39 2860
329 39 1661
330 39 3
331 39 2948
332 39 50
333 39 107
334 39 140
335 39 1016
336 39 1765
337 39 1928
338 39 1745
339 39 885
340 39 68
341 39 1453
342 39 97
343 39 834
344 39 1698
345 39 1668
346 39 2701
347 39 2404
348 39 19
349 39 1416
350 39 2872
351 39 204
352 39 1677
353 39 385
354 39 1394
355 39 1489
356 39 1501
357 39 1277
358 39 2010
359 39 1319
360 39 268
361 39 2306
362 39 105
363 39 1227
364 39 71
365 39 1175
366 39 203
367 39 238
368 39 1564
369 39 1224
370 39 1583
371 39 1092
372 39 1434
373 39 1688
374 39 2110
375 39 1552
376 39 1069
377 39 2301
378 39 1843
379 39 2186
380 39 108
381 39 2565
382 39 518
383 39 1094
384 39 1404
385 39 522
386 39 2244
387 39 1130
388 39 1345
389 39 67
390 39 1534
391 39 555
392 39 950
393 39 1113
394 39 2121
395 39 1301
396 39 1123
397 39 2424
398 39 757
399 39 1611
400 39 917
401 39 157
402 39 937
403 39 1181
404 39 2682
405 39 1376
406 39 90
407 39 1827
408 39 66
409 39 1792
410 39 1210
411 39 1058
412 39 1273
413 39 1381
414 39 380
415 39 70
416 39 838
417 39 1740
418 39 1378
419 39 1385
420 39 1954
421 39 789
422 39 864
423 39 1506
424 39 2477
425 39 1364
426 39 1421
427 39 1026
428 39 1095
429 39 115
430 39 1761
431 39 6
432 39 73
433 39 15
434 39 974
435 39 1599
436 39 1144
437 39 165
438 39 727
439 39 1539
440 39 245
441 39 1888
442 39 28
443 39 1102
444 39 251
445 39 1101
446 39 68
447 39 235
448 39 1963
449 39 1549
450 39 69
451 39 1937
452 39 1277
453 39 2723
454 39 1354
455 39 1304
456 39 863
457 39 1394
458 39 86
459 39 117
460 39 147
461 39 2761
462 39 992
463 39 1160
464 39 1210
465 39 1852
466 39 563
467 39 840
468 39 910
469 39 766
470 39 1961
471 39 347
472 39 1307
473 39 304
474 39 258
475 39 1908
476 39 1326
477 39 1991
478 39 1640
479 39 60
480 39 53
481 39 2052
482 39 1617
483 39 75
484 39 165
485 39 735
486 39 4
487 39 1498
488 39 1454
489 39 160
490 39 53
491 39 658
492 39 2120
493 39 28
494 39 1205
495 39 256
496 39 708
497 39 1128
498 39 2377
499 39 2304
500 39 1415
1 40 1016
2 40 963
3 40 1642
4 40 2182
5 40 18
6 40 6
7 40 1439
8 40 2134
9 40 1790
10 40 1014
11 40 944
12 40 1977
13 40 1419
14 40 735
15 40 1358
16 40 1138
17 40 1941
18 40 2242
19 40 791
20 40 1458
21 40 934
22 40 881
23 40 219
24 40 1333
25 40 1716
26 40 1657
27 40 679
28 40 1648
29 40 2174
30 40 967
31 40 40
32 40 1801
33 40 262
34 40 1284
35 40 158
36 40 129
37 40 75
38 40 1689
39 40 277
40 40 18
41 40 2380
42 40 2010
43 40 793
44 40 1089
45 40 152
46 40 756
47 40 1782
48 40 166
49 40 1840
50 40 1264
51 40 502
52 40 256
53 40 162
54 40 2516
55 40 47
56 40 1560
57 40 151
58 40 1839
59 40 1904
60 40 1316
61 40 772
62 40 42
63 40 148
64 40 1807
65 40 144
66 40 1539
67 40 1289
68 40 1358
69 40 1336
70 40 1782
71 40 1236
72 40 656
73 40 162
74 40 1731
75 40 1629
76 40 372
77 40 1111
78 40 1592
79 40 1945
80 40 1341
81 40 793
82 40 625
83 40 1114
84 40 52
85 40 1588
86 40 128
87 40 1950
88 40 1949
89 40 476
90 40 2152
91 40 2182
92 40 1805
93 40 156
94 40 2371
95 40 41
96 40 1244
97 40 1223
98 40 1618
99 40 866
100 40 2052
101 40 1046
102 40 1028
103 40 1011
104 40 2085
105 40 164
106 40 1773
107 40 1139
108 40 1666
109 40 1237
110 40 2177
111 40 756
112 40 1347
113 40 148
114 40 74
115 40 1575
116 40 1879
117 40 2142
118 40 1086
119 40 2128
120 40 1850
121 40 177
122 40 185
123 40 84
124 40 569
125 40 673
126 40 1084
127 40 1621
128 40 1126
129 40 1225
130 40 896
131 40 1477
132 40 2062
133 40 1638
134 40 2151
135 40 1528
136 40 1100
137 40 39
138 40 1501
139 40 135
140 40 151
141 40 862
142 40 238
143 40 1837
144 40 164
145 40 1302
146 40 1155
147 40 99
148 40 1344
149 40 1725
150 40 2148
151 40 1615
152 40 769
153 40 991
154 40 177
155 40 2062
156 40 18
157 40 823
158 40 303
159 40 801
160 40 2181
161 40 1459
162 40 957
163 40 1252
164 40 1262
165 40 1908
166 40 142
167 40 1271
168 40 2777
169 40 558
170 40 1382
171 40 41
172 40 196
173 40 410
174 40 518
175 40 982
176 40 1558
177 40 1273
178 40 1036
179 40 2480
180 40 217
181 40 2224
182 40 50
183 40 1843
184 40 61
185 40 1649
186 40 412
187 40 1592
188 40 1315
189 40 2213
190 40 7
191 40 503
192 40 1345
193 40 953
194 40 1351
195 40 779
196 40 271
197 40 346
198 40 1331
199 40 2587
200 40 1309
201 40 1262
202 40 2190
203 40 1454
204 40 142
205 40 612
206 40 1421
207 40 2429
208 40 108
209 40 768
210 40 1279
211 40 1751
212 40 1235
213 40 2505
214 40 2468
215 40 1331
216 40 1557
217 40 600
218 40 1433
219 40 1579
220 40 1303
221 40 819
222 40 608
223 40 63
224 40 1351
225 40 2265
226 40 175
227 40 905
228 40 92
229 40 2486
230 40 133
231 40 916
232 40 82
233 40 806
234 40 890
235 40 82
236 40 1810
237 40 891
238 40 2483
239 40 99
240 40 1901
241 40 97
242 40 1896
243 40 9
244 40 64
245 40 1823
246 40 162
247 40 2126
248 40 1240
249 40 1554
250 40 2526
251 40 1727
252 40 1499
253 40 1386
254 40 759
255 40 1569
256 40 1598
257 40 88
258 40 1745
259 40 1663
260 40 1726
261 40 2198
262 40 1315
263 40 2295
264 40 993
265 40 1351
266 40 2419
267 40 1195
268 40 2615
269 40 1693
270 40 99
271 40 1819
272 40 75
273 40 1676
274 40 870
275 40 1796
276 40 973
277 40 1257
278 40 120
279 40 308
280 40 845
281 40 1804
282 40 17
283 40 2053
284 40 1476
285 40 1827
286 40 108
287 40 71
288 40 1534
289 40 1324
290 40 1129
291 40 858
292 40 783
293 40 80
294 40 898
295 40 1189
296 40 270
297 40 1077
298 40 1483
299 40 631
300 40 1660
301 40 1932
302 40 2167
303 40 1403
304 40 1844
305 40 1379
306 40 663
307 40 1485
308 40 1641
309 40 785
310 40 1217
311 40 1873
312 40 1727
313 40 1816
314 40 1077
315 40 1245
316 40 1643
317 40 1070
318 40 1482
319 40 120
320 40 2633
321 40 2006
322 40 228
323 40 1247
324 40 1430
325 40 514
326 40 1435
327 40 394
328 40 1260
329 40 2664
330 40 82
331 40 1382
332 40 152
333 40 38
334 40 161
335 40 937
336 40 1474
337 40 760
338 40 1480
339 40 1075
340 40 146
341 40 445
342 40 132
343 40 552
344 40 1407
345 40 1407
346 40 2745
347 40 1723
348 40 42
349 40 1963
350 40 737
351 40 367
352 40 1632
353 40 2085
354 40 861
355 40 1779
356 40 2595
357 40 1406
358 40 1611
359 40 1168
360 40 590
361 40 975
362 40 111
363 40 1140
364 40 109
365 40 1158
366 40 249
367 40 509
368 40 1497
369 40 1403
370 40 2256
371 40 1281
372 40 1718
373 40 1530
374 40 1535
375 40 1389
376 40 2258
377 40 1613
378 40 1430
379 40 2139
380 40 39
381 40 1519
382 40 1336
383 40 1390
384 40 779
385 40 647
386 40 2076
387 40 2305
388 40 1356
389 40 161
390 40 673
391 40 1301
392 40 1552
393 40 1690
394 40 1536
395 40 1503
396 40 1688
397 40 1560
398 40 585
399 40 1731
400 40 1753
401 40 172
402 40 850
403 40 1131
404 40 1674
405 40 1613
406 40 120
407 40 1160
408 40 39
409 40 1285
410 40 2234
411 40 665
412 40 2376
413 40 1269
414 40 2234
415 40 159
416 40 578
417 40 1216
418 40 1555
419 40 1673
420 40 1666
421 40 1562
422 40 536
423 40 1239
424 40 689
425 40 2015
426 40 1816
427 40 884
428 40 847
429 40 220
430 40 1879
431 40 156
432 40 19
433 40 114
434 40 650
435 40 864
436 40 1109
437 40 189
438 40 893
439 40 1373
440 40 115
441 40 1234
442 40 151
443 40 883
444 40 329
445 40 1382
446 40 112
447 40 92
448 40 1874
449 40 1205
450 40 73
451 40 1717
452 40 1958
453 40 2260
454 40 954
455 40 1375
456 40 716
457 40 1558
458 40 97
459 40 65
460 40 502
461 40 1614
462 40 1533
463 40 751
464 40 1150
465 40 435
466 40 662
467 40 973
468 40 852
469 40 1292
470 40 1904
471 40 168
472 40 1307
473 40 1274
474 40 268
475 40 1895
476 40 767
477 40 2140
478 40 1539
479 40 201
480 40 61
481 40 1681
482 40 901
483 40 113
484 40 130
485 40 607
486 40 94
487 40 2018
488 40 1895
489 40 79
490 40 50
491 40 268
492 40 722
493 40 105
494 40 1165
495 40 461
496 40 1752
497 40 2300
498 40 1995
499 40 937
500 40 1769
1 41 146
3 41 6
4 41 45
5 41 574
6 41 1593
10 41 4
20 41 21
23 41 217
24 41 3
31 41 416
35 41 621
36 41 346
37 41 292
38 41 13
39 41 255
40 41 408
45 41 1333
48 41 1135
49 41 57
51 41 76
52 41 440
53 41 925
55 41 194
57 41 369
62 41 539
63 41 589
64 41 5
65 41 1046
69 41 6
71 41 146
73 41 379
76 41 835
84 41 1734
86 41 339
89 41 178
93 41 449
95 41 434
98 41 7
100 41 26
104 41 52
105 41 849
106 41 10
108 41 160
109 41 138
113 41 935
114 41 1485
119 41 17
121 41 1269
122 41 1552
123 41 1586
124 41 224
126 41 6
129 41 134
132 41 56
137 41 457
139 41 461
140 41 409
142 41 929
144 41 1306
147 41 316
154 41 1292
156 41 327
161 41 17
166 41 1031
168 41 3
169 41 202
171 41 529
172 41 205
180 41 428
182 41 418
184 41 2377
186 41 28
190 41 1521
191 41 148
194 41 6
197 41 189
199 41 19
203 41 133
204 41 148
205 41 197
208 41 319
209 41 8
212 41 144
213 41 13
216 41 4
217 41 340
220 41 6
222 41 160
223 41 252
225 41 9
226 41 196
228 41 378
229 41 62
230 41 169
232 41 1021
235 41 991
238 41 63
239 41 329
240 41 57
241 41 626
243 41 663
244 41 575
246 41 561
249 41 12
257 41 1138
263 41 13
264 41 112
265 41 7
266 41 30
269 41 164
270 41 648
272 41 1432
278 41 384
279 41 329
282 41 1283
283 41 49
286 41 809
287 41 837
293 41 470
296 41 223
299 41 176
302 41 137
303 41 144
306 41 157
307 41 17
308 41 2
309 41 48
313 41 68
319 41 1062
322 41 399
324 41 18
325 41 100
326 41 91
327 41 121
330 41 1482
332 41 685
333 41 969
334 41 536
336 41 6
338 41 4
340 41 328
342 41 634
343 41 376
345 41 3
347 41 19
348 41 1717
351 41 602
358 41 6
360 41 335
361 41 6
362 41 496
364 41 450
366 41 445
367 41 198
369 41 7
370 41 63
373 41 12
379 41 55
380 41 272
381 41 14
385 41 167
386 41 51
388 41 134
389 41 327
390 41 140
396 41 27
401 41 448
405 41 130
406 41 750
408 41 547
410 41 36
414 41 152
415 41 335
420 41 6
422 41 145
423 41 13
424 41 43
425 41 128
428 41 10
429 41 601
431 41 417
432 41 588
433 41 1183
435 41 81
437 41 311
440 41 1218
442 41 424
444 41 271
445 41 17
446 41 391
447 41 1231
449 41 21
450 41 329
452 41 99
453 41 19
458 41 358
459 41 473
460 41 107
463 41 69
466 41 108
471 41 434
473 41 75
474 41 558
476 41 4
479 41 635
480 41 1324
481 41 4
482 41 71
483 41 365
484 41 962
486 41 382
489 41 692
490 41 1312
492 41 2
493 41 528
495 41 141
499 41 7
1 42 431
3 42 6
4 42 132
5 42 6224
6 42 4396
20 42 136
23 42 2027
24 42 5
26 42 6
28 42 3
31 42 5460
35 42 5711
36 42 6000
37 42 5677
39 42 3338
40 42 4438
45 42 5196
48 42 4926
49 42 224
51 42 802
52 42 2902
53 42 4610
55 42 3858
57 42 4794
62 42 4122
63 42 1312
65 42 5088
67 42 8
69 42 3
71 42 60
73 42 4888
75 42 2
76 42 1465
84 42 9447
86 42 3804
89 42 1231
93 42 4038
95 42 4838
104 42 10
105 42 4084
106 42 5
108 42 379
109 42 66
113 42 4136
114 42 3844
119 42 5
121 42 5077
122 42 6320
123 42 6755
124 42 564
125 42 4
126 42 5
129 42 372
132 42 131
135 42 4
137 42 4223
139 42 4514
140 42 6055
142 42 8221
144 42 5052
147 42 4376
154 42 4712
156 42 4350
166 42 4273
168 42 19
169 42 481
171 42 3421
172 42 3814
180 42 5945
182 42 4193
184 42 7281
186 42 135
190 42 4590
191 42 502
194 42 4
197 42 1466
203 42 190
204 42 2552
205 42 940
208 42 5830
212 42 63
217 42 670
220 42 3
222 42 673
223 42 3659
226 42 3784
228 42 5447
230 42 4687
232 42 4531
235 42 7671
239 42 3799
240 42 215
241 42 4591
243 42 3799
244 42 5709
246 42 5743
257 42 5238
264 42 19
265 42 8
266 42 91
269 42 84
270 42 5349
272 42 4914
278 42 4077
279 42 2873
282 42 10223
283 42 2
286 42 3674
287 42 5332
291 42 3
293 42 4059
296 42 3264
299 42 523
302 42 1498
303 42 351
306 42 207
307 42 141
308 42 2
309 42 621
313 42 224
319 42 6101
322 42 5987
324 42 9
325 42 1884
326 42 17
327 42 3324
330 42 5104
332 42 4920
333 42 7157
334 42 5694
340 42 5136
342 42 4121
343 42 1528
348 42 8921
351 42 2161
360 42 691
362 42 6929
364 42 1854
366 42 2999
367 42 2170
369 42 7
370 42 132
379 42 7
380 42 4711
385 42 214
386 42 6
388 42 321
389 42 4948
390 42 210
392 42 28
395 42 7
396 42 129
401 42 4857
405 42 160
406 42 4478
408 42 6233
410 42 64
413 42 4
414 42 1498
415 42 5143
422 42 495
423 42 4
424 42 117
425 42 160
429 42 3623
431 42 6250
432 42 6190
433 42 4229
435 42 91
437 42 4101
440 42 5412
442 42 7251
444 42 2171
445 42 37
446 42 3992
447 42 5519
449 42 7
450 42 3143
452 42 98
453 42 39
458 42 4433
459 42 4735
460 42 1994
462 42 32
463 42 661
466 42 489
471 42 3874
473 42 340
474 42 731
476 42 30
479 42 5709
480 42 6183
482 42 84
483 42 3774
484 42 4221
486 42 5443
489 42 4543
490 42 4019
493 42 5500
495 42 917
1 43 2947
3 43 129
4 43 1936
5 43 4901
6 43 5063
10 43 30
13 43 11
14 43 3
19 43 6
20 43 1848
21 43 21
23 43 4093
24 43 211
26 43 99
28 43 97
31 43 7573
34 43 8
35 43 5480
36 43 5088
37 43 5024
38 43 344
39 43 3802
40 43 4368
41 43 4
43 43 2
44 43 6
45 43 4841
48 43 2639
49 43 1933
50 43 54
51 43 3567
52 43 5149
53 43 2788
54 43 2
55 43 3250
57 43 6306
62 43 4464
63 43 4395
64 43 217
65 43 4623
69 43 231
71 43 2274
73 43 6332
75 43 97
76 43 3323
83 43 21
84 43 5876
85 43 126
86 43 4587
89 43 5059
91 43 3
93 43 4884
94 43 102
95 43 4192
100 43 97
104 43 477
105 43 4071
106 43 308
108 43 2330
109 43 2267
113 43 7112
114 43 4516
115 43 119
119 43 872
121 43 4911
122 43 4763
123 43 3846
124 43 2937
125 43 26
127 43 95
129 43 3144
132 43 1998
135 43 81
137 43 5119
139 43 2790
140 43 5232
142 43 4698
143 43 170
144 43 4841
146 43 16
147 43 3164
150 43 47
154 43 7441
156 43 4376
161 43 18
163 43 3
164 43 73
166 43 4540
168 43 591
169 43 2917
171 43 3576
172 43 3075
174 43 6
179 43 6
180 43 3167
182 43 4975
184 43 4333
186 43 1690
190 43 5200
191 43 2713
194 43 232
197 43 3262
203 43 2371
204 43 3955
205 43 4128
207 43 1
208 43 4532
209 43 44
212 43 2163
217 43 4620
220 43 219
222 43 3873
223 43 5892
225 43 6
226 43 4618
227 43 15
228 43 5030
229 43 285
230 43 4768
231 43 22
232 43 5463
235 43 9548
238 43 249
239 43 4651
240 43 1991
241 43 4444
242 43 4
243 43 2214
244 43 4682
246 43 4234
247 43 83
249 43 94
250 43 27
257 43 3386
263 43 5
264 43 1569
265 43 245
266 43 262
269 43 1681
270 43 4592
272 43 4711
278 43 5611
279 43 4666
282 43 3998
283 43 430
284 43 20
286 43 3774
287 43 3216
291 43 262
293 43 3816
296 43 3962
299 43 3262
301 43 2
302 43 3898
303 43 1964
306 43 4087
307 43 1924
308 43 132
309 43 1714
313 43 2009
316 43 112
319 43 2472
322 43 6222
324 43 712
325 43 3587
326 43 357
327 43 2719
328 43 58
330 43 4832
332 43 4822
333 43 4688
334 43 4187
339 43 9
340 43 6548
342 43 4288
343 43 2380
347 43 353
348 43 4661
351 43 3236
360 43 4638
362 43 4166
364 43 3184
366 43 3723
367 43 5496
369 43 259
370 43 1861
371 43 3
373 43 94
374 43 4
376 43 3
379 43 437
380 43 7445
381 43 14
385 43 4290
386 43 390
388 43 1975
389 43 6528
390 43 4118
392 43 232
395 43 79
396 43 2383
401 43 4075
405 43 3733
406 43 3494
408 43 4106
410 43 1118
412 43 25
414 43 3954
415 43 6702
422 43 2792
423 43 36
424 43 1721
425 43 1182
428 43 245
429 43 3574
431 43 3048
432 43 5054
433 43 3657
435 43 1022
437 43 4358
440 43 5282
442 43 4196
444 43 5210
445 43 981
446 43 6199
447 43 5418
448 43 23
449 43 39
450 43 5053
452 43 2438
453 43 276
456 43 91
458 43 4970
459 43 5735
460 43 3721
462 43 189
463 43 1705
466 43 3760
470 43 17
471 43 3089
473 43 3339
474 43 3575
476 43 303
479 43 4441
480 43 5847
482 43 968
483 43 4637
484 43 3519
486 43 4979
489 43 3854
490 43 4827
493 43 3177
495 43 4178
1 44 2987
2 44 1428
3 44 3289
4 44 3553
5 44 3209
6 44 5780
7 44 6403
8 44 2802
9 44 4509
10 44 2972
11 44 2665
12 44 3199
13 44 3954
14 44 1963
15 44 5552
16 44 1420
17 44 6637
18 44 4226
19 44 3168
20 44 3406
21 44 2175
22 44 2556
23 44 4357
24 44 2034
25 44 2307
26 44 2731
27 44 1067
28 44 4915
29 44 2678
30 44 2336
31 44 5893
32 44 2773
33 44 3587
34 44 1609
35 44 5584
36 44 5290
37 44 3404
38 44 4622
39 44 5256
40 44 7764
41 44 2246
42 44 2755
43 44 3105
44 44 1886
45 44 7433
46 44 1556
47 44 2846
48 44 5883
49 44 3674
50 44 3861
51 44 3365
52 44 5363
53 44 3783
54 44 4203
55 44 3272
56 44 2627
57 44 6607
58 44 1931
59 44 2799
60 44 2219
61 44 3184
62 44 4237
63 44 4084
64 44 3087
65 44 4672
66 44 3339
67 44 2021
68 44 5350
69 44 2057
70 44 2288
71 44 3725
72 44 1621
73 44 6542
74 44 3789
75 44 4982
76 44 3407
77 44 2237
78 44 4093
79 44 2752
80 44 2954
81 44 5253
82 44 1883
83 44 3013
84 44 3785
85 44 3749
86 44 3480
87 44 2636
88 44 3423
89 44 2847
90 44 1876
91 44 2354
92 44 2790
93 44 6298
94 44 2845
95 44 6122
96 44 3417
97 44 2782
98 44 2692
99 44 1836
100 44 2283
101 44 4334
102 44 1898
103 44 3571
104 44 3408
105 44 3695
106 44 2573
107 44 2286
108 44 4175
109 44 3783
110 44 2658
111 44 2280
112 44 2607
113 44 2225
114 44 5056
115 44 3744
116 44 1906
117 44 3019
118 44 3311
119 44 2021
120 44 3270
121 44 3894
122 44 4720
123 44 4862
124 44 2861
125 44 2290
126 44 3302
127 44 3832
128 44 2062
129 44 3309
130 44 2537
131 44 6404
132 44 3566
133 44 1800
134 44 4152
135 44 2260
136 44 1808
137 44 3679
138 44 2892
139 44 3132
140 44 5272
141 44 2460
142 44 4591
143 44 3509
144 44 3812
145 44 1875
146 44 1567
147 44 3809
148 44 2213
149 44 3232
150 44 1402
151 44 3732
152 44 1178
153 44 2458
154 44 4712
155 44 2059
156 44 2931
157 44 1200
158 44 3829
159 44 1359
160 44 2015
161 44 2817
162 44 2684
163 44 3331
164 44 3907
165 44 3147
166 44 3993
167 44 1615
168 44 3767
169 44 4724
170 44 3562
171 44 3058
172 44 2916
173 44 1561
174 44 1673
175 44 3520
176 44 2460
177 44 2526
178 44 3630
179 44 2293
180 44 5484
181 44 2186
182 44 3638
183 44 3150
184 44 5426
185 44 3480
186 44 2172
187 44 2478
188 44 2992
189 44 2150
190 44 5523
191 44 2726
192 44 3893
193 44 2698
194 44 1978
195 44 2902
196 44 3711
197 44 3739
198 44 2157
199 44 3655
200 44 5279
201 44 1866
202 44 2704
203 44 6116
204 44 3775
205 44 5448
206 44 3347
207 44 2247
208 44 5419
209 44 2315
210 44 1823
211 44 3268
212 44 3899
213 44 3560
214 44 2308
215 44 3010
216 44 2557
217 44 1979
218 44 3327
219 44 3742
220 44 2049
221 44 6806
222 44 4429
223 44 3986
224 44 2971
225 44 2896
226 44 3732
227 44 2277
228 44 4338
229 44 3488
230 44 4092
231 44 1410
232 44 5050
233 44 1144
234 44 2368
235 44 4743
236 44 2543
237 44 1898
238 44 3284
239 44 3546
240 44 3602
241 44 4210
242 44 1945
243 44 3324
244 44 5896
245 44 1734
246 44 4674
247 44 3327
248 44 1901
249 44 3340
250 44 2750
251 44 3760
252 44 3371
253 44 2802
254 44 2953
255 44 2849
256 44 2443
257 44 7954
258 44 2047
259 44 3459
260 44 3909
261 44 1924
262 44 5315
263 44 2935
264 44 2457
265 44 2081
266 44 3673
267 44 2934
268 44 1683
269 44 3391
270 44 3593
271 44 5079
272 44 5760
273 44 2741
274 44 2477
275 44 2112
276 44 2706
277 44 2762
278 44 4433
279 44 1970
280 44 1825
281 44 2174
282 44 2513
283 44 3247
284 44 2475
285 44 1877
286 44 5264
287 44 3069
288 44 2200
289 44 2982
290 44 3022
291 44 1313
292 44 2236
293 44 2475
294 44 3276
295 44 3103
296 44 3508
297 44 1194
298 44 1752
299 44 5420
300 44 2245
301 44 1903
302 44 3255
303 44 3748
304 44 2610
305 44 2230
306 44 3996
307 44 3386
308 44 3309
309 44 2534
310 44 4412
311 44 3155
312 44 3949
313 44 3662
314 44 2194
315 44 1899
316 44 3838
317 44 2005
318 44 3303
319 44 3221
320 44 5052
321 44 3962
322 44 5333
323 44 2618
324 44 2825
325 44 3085
326 44 3595
327 44 4469
328 44 3881
329 44 5074
330 44 5968
331 44 5450
332 44 3471
333 44 3756
334 44 7383
335 44 2062
336 44 2897
337 44 5198
338 44 2666
339 44 1571
340 44 3334
341 44 1599
342 44 4291
343 44 6064
344 44 6467
345 44 2841
346 44 3327
347 44 4634
348 44 4008
349 44 2540
350 44 3850
351 44 3321
352 44 3452
353 44 1383
354 44 3343
355 44 2376
356 44 1776
357 44 3948
358 44 2687
359 44 2833
360 44 2009
361 44 3296
362 44 6484
363 44 2984
364 44 3665
365 44 2403
366 44 3308
367 44 5606
368 44 2312
369 44 1995
370 44 3616
371 44 2066
372 44 1996
373 44 3300
374 44 5121
375 44 2226
376 44 2392
377 44 2571
378 44 1388
379 44 3245
380 44 3354
381 44 2806
382 44 3616
383 44 1706
384 44 2215
385 44 5077
386 44 3380
387 44 3284
388 44 3736
389 44 3348
390 44 3913
391 44 3701
392 44 4837
393 44 3336
394 44 3140
395 44 2411
396 44 3454
397 44 6058
398 44 2661
399 44 1941
400 44 2720
401 44 5106
402 44 1749
403 44 2032
404 44 2797
405 44 2570
406 44 4773
407 44 3253
408 44 6218
409 44 3395
410 44 4338
411 44 1581
412 44 2750
413 44 2082
414 44 3388
415 44 3352
416 44 2697
417 44 3468
418 44 3047
419 44 2766
420 44 2761
421 44 2096
422 44 2849
423 44 2217
424 44 2975
425 44 3560
426 44 1811
427 44 2555
428 44 3039
429 44 3382
430 44 4999
431 44 4773
432 44 3320
433 44 4384
434 44 1665
435 44 3548
436 44 2234
437 44 3236
438 44 1327
439 44 2230
440 44 6520
441 44 4468
442 44 5948
443 44 2216
444 44 5151
445 44 4892
446 44 3053
447 44 6791
448 44 3436
449 44 2279
450 44 5818
451 44 3624
452 44 3934
453 44 2969
454 44 3523
455 44 2598
456 44 1925
457 44 3227
458 44 4736
459 44 2397
460 44 3185
461 44 2823
462 44 4894
463 44 2532
464 44 2783
465 44 1597
466 44 3997
467 44 2135
468 44 1768
469 44 3053
470 44 3476
471 44 4255
472 44 1685
473 44 3753
474 44 4359
475 44 4927
476 44 2832
477 44 2683
478 44 3323
479 44 3388
480 44 3815
481 44 2698
482 44 3548
483 44 3582
484 44 5103
485 44 2065
486 44 4185
487 44 1828
488 44 2621
489 44 4141
490 44 2994
491 44 3795
492 44 3786
493 44 3790
494 44 2966
495 44 3160
496 44 2412
497 44 1573
498 44 3589
499 44 3338
500 44 1778
1 45 5260
3 45 3236
4 45 4241
5 45 5318
6 45 4014
7 45 1920
8 45 2774
9 45 4497
10 45 28
11 45 636
12 45 1477
13 45 9
14 45 3
15 45 5545
17 45 3341
18 45 1956
20 45 8219
22 45 38
23 45 4957
24 45 446
25 45 2014
28 45 5156
29 45 2815
30 45 726
31 45 8690
32 45 428
33 45 22
35 45 8008
36 45 7359
37 45 5847
38 45 4892
39 45 5735
40 45 8327
41 45 6450
42 45 1979
44 45 56
45 45 2172
46 45 51
47 45 4262
48 45 4340
49 45 3894
50 45 5915
51 45 6959
52 45 8399
53 45 7686
54 45 88
55 45 4931
56 45 3208
57 45 8837
58 45 1508
59 45 4405
60 45 1662
62 45 8760
63 45 9091
64 45 5855
65 45 4161
68 45 585
69 45 506
70 45 635
71 45 6923
72 45 4
73 45 9149
74 45 3555
75 45 5093
76 45 6424
77 45 319
78 45 2390
79 45 2084
81 45 4179
84 45 6520
85 45 5095
86 45 5939
87 45 1441
88 45 3211
89 45 6974
90 45 5519
91 45 4114
92 45 5738
93 45 5395
94 45 7653
95 45 5601
96 45 5869
97 45 1484
98 45 2389
99 45 151
100 45 4017
101 45 4077
102 45 354
103 45 47
104 45 4641
105 45 4671
106 45 6270
107 45 3379
108 45 7555
109 45 6959
111 45 33
113 45 6597
114 45 5812
115 45 5091
116 45 4516
118 45 3858
119 45 6545
120 45 3954
121 45 6735
122 45 9156
123 45 6809
124 45 10169
127 45 5144
129 45 8445
130 45 43
131 45 1946
132 45 4584
134 45 3818
135 45 426
137 45 7606
138 45 525
139 45 6126
140 45 7506
141 45 67
142 45 4334
143 45 5240
144 45 6668
145 45 282
146 45 209
147 45 6190
148 45 3845
149 45 2290
151 45 3394
152 45 47
153 45 348
154 45 7548
155 45 160
156 45 6676
157 45 54
158 45 13
160 45 158
161 45 4867
162 45 629
163 45 5786
164 45 5968
165 45 1452
166 45 8751
167 45 712
168 45 1610
169 45 5363
170 45 1022
171 45 7950
172 45 5668
173 45 50
175 45 44
176 45 2394
178 45 7202
179 45 6399
180 45 5397
181 45 3019
182 45 7505
183 45 1409
184 45 6821
185 45 4160
186 45 3392
187 45 2216
188 45 2435
189 45 3045
190 45 4136
191 45 4068
193 45 677
194 45 494
195 45 4509
196 45 15
197 45 7519
198 45 1571
199 45 5975
200 45 616
201 45 317
202 45 2783
203 45 4980
204 45 4918
205 45 7915
206 45 2048
207 45 6461
208 45 3281
209 45 14
210 45 314
211 45 2256
212 45 6815
213 45 5973
214 45 3228
215 45 2288
216 45 5529
217 45 4956
218 45 4767
219 45 4016
220 45 493
222 45 5404
223 45 5835
225 45 4315
226 45 6207
228 45 4480
229 45 5867
230 45 4899
231 45 3
232 45 8654
233 45 64
234 45 48
235 45 7262
236 45 1438
238 45 5928
239 45 6063
240 45 3905
241 45 10636
242 45 3438
243 45 6211
244 45 5998
245 45 89
246 45 7030
247 45 4650
248 45 312
249 45 4100
250 45 3619
251 45 1319
252 45 2051
253 45 84
254 45 4531
255 45 3030
256 45 2303
257 45 6290
258 45 2489
259 45 1764
260 45 3420
261 45 5638
262 45 587
263 45 4456
264 45 21877
265 45 499
266 45 5829
267 45 5320
268 45 1378
269 45 4549
270 45 6911
271 45 779
272 45 5281
274 45 64
275 45 596
276 45 660
277 45 3155
278 45 5581
279 45 5496
280 45 182
281 45 310
282 45 5215
283 45 4724
284 45 4833
285 45 4547
286 45 3884
287 45 5974
288 45 3746
289 45 2371
290 45 2939
292 45 696
293 45 6350
295 45 1869
296 45 4522
298 45 3961
299 45 6970
300 45 3860
301 45 3443
302 45 8792
303 45 6553
304 45 1399
305 45 1630
306 45 8299
307 45 8172
308 45 3331
309 45 4666
311 45 3851
312 45 1516
313 45 3885
315 45 331
316 45 5173
317 45 1151
318 45 1987
319 45 5850
320 45 2097
321 45 3968
322 45 10295
324 45 5855
325 45 4242
326 45 6398
327 45 3190
328 45 5930
329 45 2113
330 45 5354
331 45 556
332 45 7391
333 45 9519
334 45 6322
336 45 1915
337 45 4157
338 45 1783
339 45 200
340 45 6137
341 45 54
342 45 7577
343 45 6158
344 45 1928
345 45 1866
346 45 5794
347 45 4848
348 45 5636
349 45 1450
350 45 4685
351 45 4046
352 45 4200
355 45 646
356 45 1343
358 45 2382
359 45 5208
360 45 5032
361 45 5339
362 45 6919
363 45 2945
364 45 6683
365 45 4731
366 45 6210
367 45 5975
368 45 4
369 45 515
370 45 4508
371 45 1919
372 45 1530
373 45 4046
374 45 2768
375 45 1597
376 45 4216
377 45 2188
378 45 3149
379 45 4606
380 45 6389
381 45 4844
382 45 3215
383 45 1178
384 45 737
385 45 3946
386 45 4552
387 45 17
388 45 6554
389 45 6235
390 45 8327
391 45 3224
392 45 6
393 45 2236
394 45 5515
395 45 429
396 45 7132
397 45 4616
400 45 376
401 45 5639
402 45 128
403 45 8
404 45 2956
405 45 8184
406 45 4390
407 45 3780
408 45 5862
410 45 1209
411 45 15
412 45 3486
414 45 8983
415 45 6210
418 45 2755
419 45 4044
420 45 2277
422 45 4089
423 45 4
424 45 9333
425 45 1417
426 45 85
427 45 42
429 45 4659
430 45 746
431 45 6837
432 45 4950
433 45 4419
434 45 15
435 45 2403
436 45 3364
437 45 8197
438 45 72
439 45 1610
440 45 7035
442 45 4751
444 45 7234
445 45 6340
446 45 6381
447 45 7085
448 45 2208
449 45 3
450 45 5372
451 45 4082
452 45 984
453 45 6009
454 45 25
456 45 2
458 45 6614
459 45 3351
460 45 4139
461 45 3087
462 45 7
463 45 4701
464 45 3074
466 45 4049
468 45 115
469 45 2327
470 45 2176
471 45 5829
473 45 5082
474 45 8040
475 45 6752
476 45 5730
477 45 2869
478 45 1988
479 45 6234
480 45 4822
481 45 2418
482 45 2506
483 45 5802
484 45 5791
485 45 117
486 45 4414
488 45 1468
489 45 5684
490 45 5970
491 45 16
492 45 4262
493 45 6094
494 45 2880
495 45 4217
496 45 1946
497 45 2487
498 45 4855
499 45 5233
500 45 84
1 46 64
2 46 2655
3 46 1601
4 46 3
5 46 37
6 46 15
7 46 2220
8 46 3475
9 46 2016
10 46 733
11 46 1854
12 46 1143
13 46 403
14 46 1573
15 46 260
16 46 1369
17 46 39
18 46 75
19 46 1860
20 46 5
21 46 1328
22 46 724
23 46 40
24 46 1623
25 46 34
26 46 2517
27 46 1315
28 46 79
29 46 3338
30 46 198
31 46 69
32 46 377
33 46 694
34 46 1232
35 46 182
36 46 53
37 46 59
38 46 27
39 46 88
40 46 43
41 46 101
42 46 1106
43 46 1960
44 46 295
45 46 42
46 46 628
47 46 72
48 46 34
49 46 57
50 46 354
51 46 55
52 46 23
53 46 49
54 46 2268
55 46 180
56 46 117
57 46 71
58 46 55
59 46 69
60 46 3320
61 46 2575
62 46 125
63 46 62
64 46 106
65 46 7
66 46 1986
67 46 1482
68 46 3152
69 46 1670
70 46 417
71 46 98
72 46 876
73 46 81
74 46 1405
75 46 79
76 46 68
77 46 380
78 46 4197
79 46 1099
80 46 2478
81 46 3148
82 46 3381
83 46 2299
84 46 46
85 46 106
86 46 13
87 46 2605
88 46 131
89 46 35
90 46 94
91 46 186
92 46 1079
93 46 123
94 46 81
95 46 6
96 46 34
97 46 98
98 46 1778
99 46 269
100 46 121
101 46 2124
102 46 202
103 46 2773
104 46 119
105 46 135
106 46 75
107 46 85
108 46 19
109 46 114
110 46 1614
111 46 177
112 46 1455
113 46 68
114 46 114
115 46 129
116 46 71
117 46 1925
118 46 62
119 46 9
120 46 1110
121 46 21
122 46 132
123 46 75
124 46 23
125 46 3394
126 46 1326
127 46 99
128 46 2301
129 46 63
130 46 682
131 46 2224
132 46 51
133 46 2335
134 46 163
135 46 211
136 46 139
137 46 61
138 46 933
139 46 23
140 46 70
141 46 2824
142 46 178
143 46 15
144 46 9
145 46 104
146 46 418
147 46 117
148 46 3849
149 46 602
150 46 2670
151 46 162
152 46 214
153 46 385
154 46 5
155 46 3191
156 46 65
157 46 214
158 46 737
159 46 1697
160 46 3191
161 46 146
162 46 1913
163 46 75
164 46 326
165 46 1059
166 46 150
167 46 425
168 46 812
169 46 183
170 46 291
171 46 5
172 46 15
173 46 231
174 46 1148
175 46 2806
176 46 73
177 46 2018
178 46 170
179 46 116
180 46 8
181 46 535
182 46 81
183 46 1105
184 46 92
185 46 160
186 46 45
187 46 3171
188 46 1806
189 46 558
190 46 17
191 46 100
192 46 3365
193 46 1900
194 46 1679
195 46 192
196 46 728
197 46 95
198 46 3396
199 46 88
200 46 3244
201 46 123
202 46 3417
203 46 128
204 46 63
205 46 127
206 46 4139
207 46 93
208 46 190
209 46 1850
210 46 413
211 46 583
212 46 89
213 46 81
214 46 196
215 46 1798
216 46 141
217 46 40
218 46 112
219 46 118
220 46 1628
221 46 2192
223 46 57
224 46 2369
225 46 110
226 46 79
227 46 1322
228 46 16
229 46 130
230 46 76
231 46 932
232 46 7
233 46 204
234 46 2890
235 46 43
236 46 2632
237 46 623
238 46 115
239 46 20
240 46 71
241 46 53
242 46 161
243 46 21
244 46 146
245 46 274
246 46 84
247 46 76
248 46 417
249 46 2928
250 46 300
251 46 124
252 46 4219
253 46 959
254 46 207
255 46 18
256 46 71
258 46 3801
259 46 128
260 46 2591
261 46 90
262 46 3177
263 46 116
264 46 127
265 46 1596
266 46 115
267 46 149
268 46 142
269 46 125
270 46 14
271 46 4138
272 46 114
273 46 2212
274 46 2741
275 46 76
276 46 1886
277 46 60
278 46 69
279 46 5
280 46 284
281 46 473
282 46 159
283 46 110
284 46 82
285 46 67
286 46 14
287 46 52
288 46 3664
289 46 1825
290 46 1829
291 46 3866
292 46 105
293 46 29
294 46 2837
295 46 154
296 46 43
297 46 1418
298 46 322
299 46 197
300 46 3708
301 46 173
302 46 53
303 46 16
304 46 2631
305 46 3367
306 46 36
307 46 2
308 46 1563
309 46 44
310 46 2129
311 46 1117
312 46 277
313 46 66
314 46 2288
315 46 112
316 46 127
317 46 160
318 46 4300
319 46 192
320 46 1254
321 46 1023
322 46 39
323 46 2178
325 46 45
326 46 2
327 46 82
328 46 335
329 46 1258
330 46 117
331 46 3093
332 46 25
333 46 23
334 46 70
335 46 1499
336 46 64
337 46 3056
338 46 56
339 46 453
340 46 157
341 46 210
342 46 62
343 46 64
344 46 2223
345 46 50
346 46 66
347 46 43
349 46 2584
350 46 3415
351 46 56
352 46 113
353 46 2110
354 46 2875
355 46 419
356 46 126
357 46 3302
358 46 1794
359 46 147
360 46 46
361 46 109
362 46 40
363 46 1919
364 46 36
365 46 153
366 46 175
367 46 76
368 46 1000
369 46 1586
370 46 3
371 46 57
372 46 50
373 46 2954
374 46 697
375 46 3309
376 46 208
377 46 3149
378 46 452
379 46 130
380 46 166
381 46 146
382 46 200
383 46 104
384 46 92
385 46 131
386 46 132
387 46 1420
388 46 13
389 46 138
390 46 36
391 46 177
392 46 3352
393 46 542
394 46 210
395 46 260
396 46 239
397 46 20
398 46 2316
399 46 1277
400 46 379
401 46 17
402 46 213
403 46 1011
404 46 19
405 46 27
406 46 93
407 46 80
408 46 32
409 46 2640
410 46 243
411 46 889
412 46 314
413 46 1436
414 46 71
415 46 137
416 46 2250
417 46 2599
418 46 126
419 46 49
420 46 1765
421 46 2065
422 46 100
423 46 837
424 46 88
425 46 472
426 46 250
427 46 752
428 46 1772
429 46 63
430 46 4131
431 46 35
432 46 91
433 46 58
434 46 895
435 46 202
436 46 84
437 46 124
438 46 200
439 46 3316
440 46 9
441 46 2130
442 46 91
443 46 1516
444 46 53
445 46 38
446 46 114
447 46 7
448 46 394
449 46 857
450 46 168
451 46 30
452 46 785
453 46 54
454 46 2805
455 46 1494
456 46 1494
457 46 2060
458 46 13
459 46 71
460 46 36
461 46 17
462 46 3280
463 46 50
464 46 14
465 46 1273
466 46 73
467 46 2180
468 46 235
469 46 1846
470 46 341
471 46 163
472 46 1567
473 46 33
474 46 37
475 46 98
476 46 133
477 46 3446
478 46 4139
479 46 9
480 46 48
481 46 1720
482 46 214
483 46 17
484 46 12
485 46 815
486 46 12
487 46 1832
488 46 2620
489 46 17
490 46 19
491 46 696
492 46 36
493 46 129
494 46 1813
495 46 19
496 46 33
497 46 273
498 46 853
499 46 103
500 46 274
1 47 4
2 47 144
3 47 2256
4 47 47
5 47 11
6 47 68
7 47 1946
8 47 834
9 47 660
10 47 24
11 47 2298
12 47 125
13 47 35
14 47 9
15 47 39
16 47 36
17 47 28
18 47 31
19 47 78
20 47 56
21 47 26
22 47 38
23 47 15
24 47 1403
25 47 38
26 47 44
27 47 16
28 47 32
29 47 875
30 47 9
31 47 91
33 47 32
34 47 32
35 47 89
36 47 152
37 47 40
38 47 37
39 47 62
40 47 21
41 47 12
42 47 34
43 47 88
44 47 17
45 47 153
46 47 34
47 47 6
48 47 124
49 47 59
50 47 48
51 47 54
52 47 74
53 47 20
54 47 1953
55 47 69
56 47 76
57 47 89
58 47 3
59 47 5
60 47 2673
61 47 1375
62 47 61
63 47 76
64 47 36
65 47 37
66 47 1467
67 47 20
68 47 1374
69 47 1429
71 47 36
72 47 31
73 47 83
74 47 3183
75 47 36
76 47 15
77 47 32
78 47 1091
79 47 49
80 47 1948
81 47 2790
82 47 2185
83 47 50
84 47 38
85 47 84
86 47 89
87 47 1254
88 47 8
89 47 83
90 47 5
91 47 102
92 47 518
93 47 181
94 47 36
96 47 66
97 47 50
98 47 268
99 47 10
100 47 16
101 47 2138
103 47 2148
104 47 39
105 47 23
106 47 61
107 47 41
108 47 56
109 47 36
110 47 79
111 47 26
112 47 19
113 47 117
114 47 14
115 47 111
116 47 52
117 47 24
118 47 44
119 47 22
120 47 1040
121 47 162
122 47 29
123 47 4
124 47 6
125 47 25
126 47 447
127 47 81
128 47 2321
129 47 267
130 47 34
131 47 1906
132 47 112
133 47 167
134 47 93
135 47 37
136 47 52
137 47 96
138 47 39
139 47 95
140 47 116
141 47 1691
142 47 12
143 47 84
144 47 130
145 47 63
146 47 25
147 47 44
148 47 2994
149 47 1334
150 47 140
151 47 189
152 47 23
153 47 11
154 47 100
155 47 2127
156 47 89
157 47 25
158 47 36
159 47 25
160 47 2153
161 47 95
162 47 2295
163 47 37
164 47 39
165 47 136
166 47 20
167 47 23
169 47 42
170 47 12
171 47 83
172 47 83
173 47 29
174 47 32
175 47 2178
177 47 20
178 47 233
179 47 20
180 47 33
181 47 276
182 47 110
183 47 113
184 47 132
185 47 98
186 47 4
187 47 2052
188 47 2447
189 47 261
190 47 66
191 47 35
192 47 26
193 47 2310
194 47 1483
195 47 343
196 47 33
197 47 65
198 47 2814
199 47 13
200 47 1390
201 47 88
202 47 868
203 47 12
204 47 70
206 47 1738
207 47 11
208 47 46
209 47 19
210 47 37
211 47 1351
212 47 45
213 47 15
214 47 313
215 47 2394
216 47 46
217 47 97
219 47 129
220 47 1401
221 47 15
222 47 101
223 47 129
224 47 1948
225 47 3
226 47 115
227 47 26
228 47 20
229 47 139
230 47 106
231 47 31
232 47 66
233 47 18
234 47 1648
235 47 7
236 47 1253
237 47 35
238 47 117
239 47 82
240 47 63
241 47 100
242 47 148
243 47 17
244 47 82
245 47 31
246 47 21
247 47 78
248 47 35
249 47 1122
250 47 10
251 47 42
252 47 1742
253 47 44
254 47 303
255 47 15
257 47 159
258 47 1046
259 47 87
260 47 1592
261 47 9
262 47 1356
263 47 4
264 47 18
265 47 1451
266 47 4
267 47 57
268 47 3
269 47 114
270 47 87
271 47 2483
272 47 72
273 47 855
274 47 1637
275 47 41
276 47 2320
277 47 79
278 47 41
279 47 96
280 47 17
281 47 35
282 47 17
283 47 28
284 47 117
285 47 61
286 47 30
287 47 15
288 47 1339
289 47 2520
290 47 447
291 47 22
292 47 11
293 47 70
294 47 33
295 47 91
296 47 33
297 47 14
298 47 107
299 47 31
300 47 1437
301 47 143
302 47 57
303 47 14
304 47 1286
305 47 2779
306 47 61
307 47 56
308 47 2383
309 47 12
310 47 3131
311 47 1018
312 47 82
313 47 47
314 47 2250
315 47 76
316 47 88
317 47 10
318 47 1743
319 47 44
320 47 230
321 47 363
322 47 95
323 47 14
324 47 27
325 47 4
326 47 42
327 47 81
328 47 50
329 47 205
330 47 77
331 47 1382
332 47 36
333 47 12
334 47 19
335 47 33
336 47 140
337 47 2838
338 47 143
339 47 27
340 47 92
341 47 26
342 47 11
343 47 20
344 47 1845
345 47 132
346 47 17
347 47 53
348 47 94
349 47 1252
350 47 2029
351 47 5
352 47 123
353 47 22
354 47 27
356 47 2
357 47 27
358 47 284
359 47 75
360 47 95
361 47 46
362 47 93
363 47 486
364 47 66
365 47 5
366 47 70
367 47 7
368 47 7
369 47 1417
370 47 43
371 47 24
372 47 4
373 47 1187
374 47 189
375 47 2707
376 47 85
377 47 2042
378 47 714
379 47 32
380 47 6
381 47 110
382 47 762
383 47 3
384 47 14
385 47 47
386 47 32
387 47 2171
388 47 16
389 47 85
390 47 41
391 47 831
392 47 46
393 47 1352
394 47 104
395 47 48
396 47 41
397 47 124
398 47 13
399 47 37
401 47 17
402 47 39
403 47 58
404 47 14
405 47 15
406 47 50
407 47 33
408 47 121
409 47 1638
410 47 41
411 47 25
412 47 18
413 47 23
414 47 63
415 47 121
416 47 16
417 47 1726
418 47 14
419 47 21
420 47 281
421 47 937
422 47 37
423 47 27
424 47 41
425 47 33
426 47 25
427 47 49
428 47 3
429 47 40
430 47 2526
431 47 15
432 47 135
433 47 46
434 47 34
435 47 13
436 47 44
437 47 6
438 47 25
439 47 2654
440 47 100
441 47 3078
442 47 127
443 47 29
444 47 92
445 47 17
446 47 124
447 47 89
448 47 138
449 47 14
450 47 42
451 47 65
452 47 25
453 47 80
454 47 2205
455 47 20
456 47 1592
457 47 1521
458 47 65
459 47 46
460 47 4
461 47 14
462 47 31
463 47 16
464 47 48
465 47 88
466 47 56
467 47 1977
468 47 42
469 47 2458
470 47 148
471 47 36
472 47 44
473 47 95
474 47 39
475 47 23
476 47 86
477 47 865
478 47 1734
479 47 89
480 47 164
481 47 291
482 47 16
483 47 106
484 47 5
485 47 52
486 47 17
487 47 1342
488 47 1234
489 47 106
490 47 34
491 47 45
492 47 117
493 47 64
494 47 451
495 47 81
496 47 37
497 47 72
498 47 830
499 47 46
500 47 22
1 48 10851
2 48 4520
3 48 7281
4 48 7495
5 48 7556
6 48 11369
7 48 11569
8 48 5244
9 48 7122
10 48 8019
11 48 5253
12 48 8739
13 48 7284
14 48 17598
15 48 6060
16 48 13180
17 48 7453
18 48 8223
19 48 5248
20 48 7417
21 48 5627
22 48 3820
23 48 9045
24 48 5879
25 48 13820
26 48 5137
27 48 4708
28 48 10342
29 48 4966
30 48 7723
31 48 8000
32 48 22314
33 48 8575
34 48 4863
35 48 9031
36 48 7078
37 48 10172
38 48 16239
39 48 6797
40 48 11198
41 48 7956
42 48 13276
43 48 5106
44 48 11499
45 48 7671
46 48 15066
47 48 9843
48 48 7208
49 48 11513
50 48 11529
51 48 5370
52 48 6686
53 48 7762
54 48 8189
55 48 12743
56 48 7509
57 48 13532
58 48 4770
59 48 10070
60 48 6275
61 48 4609
62 48 9740
63 48 11301
64 48 10936
65 48 9376
66 48 4940
67 48 10981
68 48 9951
69 48 5980
70 48 9097
71 48 10138
72 48 3169
73 48 13641
74 48 5428
75 48 10190
76 48 9327
77 48 11206
78 48 10418
79 48 13421
80 48 10847
81 48 7212
82 48 5507
83 48 8573
84 48 15516
85 48 8194
86 48 6908
87 48 7891
88 48 8071
89 48 14101
90 48 16365
91 48 12778
92 48 6258
93 48 6791
94 48 6601
95 48 10684
96 48 5211
97 48 7050
98 48 5746
99 48 3881
100 48 12258
101 48 9189
102 48 7884
103 48 7032
104 48 9926
105 48 7297
106 48 10592
107 48 11636
108 48 10401
109 48 10087
110 48 8701
111 48 4508
112 48 3265
113 48 19823
114 48 10281
115 48 8241
116 48 4289
117 48 9610
118 48 6340
119 48 6883
120 48 7892
121 48 6045
122 48 14500
123 48 13653
124 48 6936
125 48 6313
126 48 5392
127 48 8153
128 48 8189
129 48 9976
130 48 3821
131 48 11810
132 48 8124
133 48 10865
134 48 6136
135 48 7455
136 48 8326
137 48 12955
138 48 6084
139 48 6280
140 48 7019
141 48 5202
142 48 8174
143 48 8345
144 48 6110
145 48 5407
146 48 4938
147 48 10987
148 48 6625
149 48 20065
150 48 4709
151 48 12159
152 48 1761
153 48 7131
154 48 11189
155 48 4780
156 48 10568
157 48 1769
158 48 8437
159 48 6035
160 48 4855
161 48 11321
162 48 5141
163 48 7031
164 48 11701
165 48 8693
166 48 9500
167 48 6851
168 48 10988
169 48 9395
170 48 3545
171 48 5197
172 48 8478
173 48 5349
174 48 4053
175 48 6928
176 48 5689
177 48 10499
178 48 21454
179 48 8087
180 48 7972
181 48 10737
182 48 12946
183 48 8674
184 48 10479
185 48 16236
186 48 7353
187 48 12753
188 48 6265
189 48 10574
190 48 11612
191 48 19663
192 48 12740
193 48 5240
194 48 5870
195 48 10997
196 48 8396
197 48 10739
198 48 6251
199 48 10319
200 48 9880
201 48 5327
202 48 5191
203 48 11880
204 48 7967
205 48 10362
206 48 7815
207 48 7962
208 48 6072
209 48 4556
210 48 9025
211 48 20048
212 48 10008
213 48 10357
214 48 7736
215 48 6162
216 48 4372
217 48 8518
218 48 7810
219 48 8410
220 48 5971
221 48 26242
222 48 6003
223 48 6934
224 48 10789
225 48 9937
226 48 8346
227 48 5649
228 48 5638
229 48 9677
230 48 9178
231 48 25034
232 48 7009
233 48 1798
234 48 5053
235 48 12074
236 48 7830
237 48 5968
238 48 9907
239 48 6871
240 48 11565
241 48 9745
242 48 5754
243 48 8210
244 48 7268
245 48 9219
246 48 12267
247 48 6105
248 48 9213
249 48 7330
250 48 10381
251 48 17071
252 48 7734
253 48 7804
254 48 11066
255 48 6435
256 48 5617
257 48 14404
258 48 6505
259 48 9992
260 48 9648
261 48 16836
262 48 10046
263 48 9716
264 48 4129
265 48 5817
266 48 12669
267 48 8655
268 48 5778
269 48 9402
270 48 9204
271 48 9792
272 48 13349
273 48 6442
274 48 4964
275 48 9485
276 48 5093
277 48 6614
278 48 9995
279 48 8902
280 48 3930
281 48 20075
282 48 27777
283 48 9953
284 48 16078
285 48 4388
286 48 17896
287 48 9786
288 48 7508
289 48 6088
290 48 5854
291 48 3403
292 48 7044
293 48 7025
294 48 5347
295 48 5596
296 48 12599
297 48 4525
298 48 7092
299 48 9306
300 48 7357
301 48 5685
302 48 4721
303 48 6691
304 48 7803
305 48 6244
306 48 6397
307 48 7438
308 48 7311
309 48 8960
310 48 7372
311 48 7981
312 48 7323
313 48 11534
314 48 8187
315 48 5346
316 48 8181
317 48 7196
318 48 7757
319 48 11955
320 48 6981
321 48 8336
322 48 7906
323 48 10286
324 48 9896
325 48 9372
326 48 9796
327 48 10019
328 48 11636
329 48 6972
330 48 13553
331 48 9845
332 48 14004
333 48 7334
334 48 10271
335 48 7994
336 48 7902
337 48 7176
338 48 7958
339 48 5045
340 48 11102
341 48 5309
342 48 9624
343 48 7641
344 48 11817
345 48 8002
346 48 11079
347 48 16039
348 48 12202
349 48 7744
350 48 7177
351 48 8013
352 48 16225
353 48 3367
354 48 5410
355 48 9105
356 48 5721
357 48 12615
358 48 5804
359 48 8910
360 48 8593
361 48 15666
362 48 11625
363 48 5625
364 48 9995
365 48 9188
366 48 11932
367 48 6598
368 48 5442
369 48 5923
370 48 7671
371 48 14763
372 48 4786
373 48 7233
374 48 13423
375 48 6223
376 48 12799
377 48 12957
378 48 6321
379 48 9900
380 48 20326
381 48 11259
382 48 3108
383 48 14086
384 48 7111
385 48 13643
386 48 9977
387 48 8542
388 48 6572
389 48 11287
390 48 6574
391 48 3060
392 48 6454
393 48 20099
394 48 11320
395 48 7622
396 48 5088
397 48 6865
398 48 8316
399 48 7558
400 48 22308
401 48 11202
402 48 5369
403 48 3788
404 48 6502
405 48 9660
406 48 13362
407 48 6318
408 48 9341
409 48 8238
410 48 9657
411 48 3244
412 48 10177
413 48 10778
414 48 4847
415 48 11378
416 48 8153
417 48 8331
418 48 7220
419 48 5745
420 48 5744
421 48 5575
422 48 19286
423 48 6197
424 48 6190
425 48 13864
426 48 9361
427 48 3845
428 48 6272
429 48 12245
430 48 9650
431 48 7610
432 48 8389
433 48 4934
434 48 3257
435 48 9368
436 48 11606
437 48 11070
438 48 7622
439 48 6264
440 48 7031
441 48 7179
442 48 8295
443 48 8243
444 48 5706
445 48 9377
446 48 11446
447 48 7213
448 48 8105
449 48 6364
450 48 7917
451 48 7457
452 48 14661
453 48 5187
454 48 7090
455 48 3310
456 48 8709
457 48 4976
458 48 19756
459 48 6841
460 48 9314
461 48 6410
462 48 6521
463 48 8776
464 48 11236
465 48 4508
466 48 7961
467 48 4809
468 48 5477
469 48 6340
470 48 8412
471 48 9789
472 48 3852
473 48 10127
474 48 7455
475 48 10818
476 48 9246
477 48 5149
478 48 7790
479 48 19157
480 48 12322
481 48 5809
482 48 9273
483 48 6952
484 48 16677
485 48 5220
486 48 5647
487 48 4929
488 48 7685
489 48 7456
490 48 8144
491 48 8378
492 48 3796
493 48 7686
494 48 5796
495 48 9198
496 48 13699
497 48 9492
498 48 5859
499 48 15736
500 48 9461
5 49 13
7 49 30
9 49 48
11 49 30
22 49 4
27 49 2
34 49 3
42 49 4
54 49 8
55 49 3
58 49 6
60 49 16
61 49 3
66 49 48
68 49 20
74 49 11
78 49 32
79 49 5
80 49 4
81 49 2
82 49 21
101 49 19
103 49 2
107 49 2
116 49 4
117 49 8
120 49 14
126 49 27
131 49 33
141 49 103
145 49 7
148 49 14
149 49 4
155 49 18
160 49 16
162 49 25
163 49 5
171 49 5
175 49 6
185 49 4
187 49 2
188 49 77
193 49 33
195 49 5
198 49 24
200 49 11
201 49 9
209 49 5
210 49 10
211 49 3
215 49 83
224 49 2
226 49 4
230 49 5
234 49 100
248 49 9
254 49 5
258 49 3
260 49 26
262 49 17
266 49 4
269 49 8
271 49 19
274 49 94
276 49 32
285 49 2
287 49 4
288 49 15
289 49 85
290 49 9
291 49 3
300 49 18
305 49 15
310 49 31
311 49 21
315 49 13
331 49 14
334 49 6
335 49 16
337 49 3
344 49 30
346 49 3
350 49 3
351 49 4
352 49 5
363 49 5
372 49 7
375 49 17
377 49 3
378 49 3
387 49 32
393 49 7
394 49 2
397 49 4
401 49 5
409 49 27
417 49 24
421 49 5
427 49 5
430 49 15
433 49 9
436 49 3
438 49 1
439 49 15
441 49 36
443 49 19
454 49 8
457 49 37
469 49 83
472 49 6
479 49 6
487 49 4
490 49 6
494 49 3
495 49 5
1 50 5
2 50 10
5 50 21
8 50 18
12 50 2
13 50 7
15 50 2
20 50 5
21 50 1
22 50 1
24 50 2
25 50 4
28 50 4
29 50 14
31 50 4
33 50 12
34 50 6
35 50 20
36 50 5
39 50 6
40 50 16
41 50 7
45 50 5
47 50 4
48 50 23
49 50 41
50 50 5
51 50 2
52 50 35
53 50 20
55 50 6
57 50 4
59 50 7
60 50 17
62 50 18
63 50 74
64 50 4
67 50 28
68 50 19
69 50 7
70 50 3
71 50 8
73 50 2
75 50 3
77 50 24
78 50 18
81 50 19
83 50 3
86 50 7
90 50 12
92 50 3
94 50 10
96 50 5
97 50 2
98 50 24
101 50 5
102 50 12
104 50 8
105 50 15
106 50 18
108 50 6
109 50 7
113 50 7
116 50 3
117 50 3
119 50 16
124 50 36
125 50 6
128 50 7
130 50 2
132 50 2
133 50 5
135 50 4
136 50 3
139 50 21
140 50 9
142 50 20
146 50 4
148 50 2
151 50 15
152 50 14
155 50 41
156 50 5
157 50 18
158 50 16
159 50 7
160 50 53
161 50 14
164 50 1
165 50 5
166 50 2
167 50 5
168 50 9
169 50 25
170 50 3
171 50 6
173 50 3
174 50 7
177 50 8
179 50 4
180 50 3
183 50 4
185 50 3
186 50 4
191 50 17
192 50 8
196 50 16
197 50 8
198 50 18
200 50 17
202 50 20
204 50 45
205 50 5
207 50 6
210 50 2
212 50 1
216 50 3
217 50 9
218 50 7
219 50 17
220 50 7
222 50 6
223 50 5
225 50 4
226 50 7
227 50 3
233 50 14
235 50 10
237 50 6
239 50 7
240 50 29
241 50 16
242 50 10
243 50 33
244 50 14
245 50 5
246 50 4
247 50 4
248 50 7
249 50 3
250 50 7
251 50 16
255 50 4
257 50 6
258 50 5
259 50 3
261 50 17
262 50 20
263 50 5
264 50 47
265 50 3
267 50 8
271 50 3
272 50 6
277 50 4
278 50 13
282 50 5
283 50 5
284 50 13
285 50 4
290 50 31
291 50 4
292 50 4
297 50 6
299 50 7
301 50 5
302 50 5
303 50 2
305 50 20
307 50 7
309 50 8
312 50 2
313 50 39
314 50 7
317 50 5
320 50 4
323 50 4
325 50 8
328 50 9
329 50 5
330 50 5
331 50 14
332 50 15
333 50 24
335 50 13
336 50 4
337 50 15
338 50 2
339 50 5
341 50 2
343 50 8
345 50 11
348 50 5
350 50 4
352 50 3
353 50 3
355 50 4
357 50 13
358 50 10
359 50 4
360 50 9
361 50 13
362 50 21
363 50 25
364 50 7
365 50 3
368 50 33
369 50 5
371 50 4
374 50 32
375 50 19
378 50 3
379 50 1
380 50 8
381 50 15
383 50 13
384 50 4
386 50 4
387 50 10
388 50 6
395 50 5
396 50 6
397 50 9
399 50 27
401 50 11
402 50 9
404 50 5
405 50 16
406 50 8
408 50 15
409 50 4
410 50 10
411 50 5
412 50 2
413 50 27
414 50 7
417 50 5
419 50 15
420 50 17
421 50 15
422 50 13
424 50 6
425 50 3
426 50 2
427 50 5
428 50 3
429 50 7
430 50 1
431 50 4
433 50 4
434 50 7
437 50 10
438 50 25
439 50 24
440 50 5
442 50 7
443 50 12
444 50 4
445 50 20
446 50 7
447 50 6
448 50 5
450 50 11
452 50 5
456 50 6
458 50 6
460 50 3
461 50 8
463 50 4
464 50 8
465 50 11
467 50 7
468 50 10
470 50 9
471 50 12
472 50 3
473 50 1
474 50 5
475 50 4
477 50 14
479 50 8
481 50 17
483 50 6
485 50 5
487 50 13
489 50 6
490 50 3
491 50 21
493 50 21
494 50 35
495 50 2
496 50 8
498 50 7
499 50 22
500 50 6
1 51 2587
2 51 1401
3 51 1695
4 51 1967
5 51 2593
6 51 3328
7 51 2223
8 51 1317
9 51 1838
10 51 1623
11 51 1733
12 51 1484
13 51 1000
14 51 2528
15 51 1815
16 51 746
17 51 2463
18 51 1703
19 51 2059
20 51 2057
21 51 1427
22 51 867
23 51 1466
24 51 2200
25 51 1298
26 51 2138
27 51 1381
28 51 1675
29 51 1332
30 51 1396
31 51 1863
32 51 2253
33 51 932
34 51 1927
35 51 2308
36 51 2880
37 51 2972
38 51 2109
39 51 1638
40 51 2966
41 51 1447
42 51 3755
43 51 2094
44 51 1133
45 51 3840
46 51 764
47 51 1559
48 51 2951
49 51 2788
50 51 1434
51 51 2511
52 51 3459
53 51 2298
54 51 2777
55 51 2620
56 51 1759
57 51 2804
58 51 1648
59 51 1535
60 51 2095
61 51 819
62 51 3111
63 51 3381
64 51 2151
65 51 2643
66 51 1335
67 51 2180
68 51 2595
69 51 2332
70 51 2310
71 51 3355
72 51 767
73 51 2890
74 51 1948
75 51 1603
76 51 1767
77 51 2129
78 51 2263
79 51 3636
80 51 1494
81 51 3145
82 51 1721
83 51 1228
84 51 3643
85 51 1301
86 51 1540
87 51 1970
88 51 2421
89 51 2003
90 51 2570
91 51 1931
92 51 2200
93 51 1628
94 51 2310
95 51 2706
96 51 1967
97 51 1642
98 51 2125
99 51 1728
100 51 1454
101 51 1975
102 51 1482
103 51 1713
104 51 2517
105 51 2053
106 51 2105
107 51 2410
108 51 2609
109 51 3372
110 51 1494
111 51 1414
112 51 1615
113 51 2615
114 51 3608
115 51 1310
116 51 1490
117 51 1182
118 51 2514
119 51 2243
120 51 2174
121 51 2582
122 51 1509
123 51 2780
124 51 2199
125 51 1346
126 51 1831
127 51 1300
128 51 1714
129 51 2451
130 51 884
131 51 2247
132 51 2757
133 51 1873
134 51 2076
135 51 1618
136 51 559
137 51 3052
138 51 1808
139 51 2649
140 51 2862
141 51 1584
142 51 2880
143 51 1631
144 51 2615
145 51 1414
146 51 1262
147 51 2262
148 51 2272
149 51 1388
150 51 1638
151 51 2284
152 51 1036
153 51 1657
154 51 1824
155 51 1157
156 51 2356
157 51 1034
158 51 982
159 51 2635
160 51 1139
161 51 2212
162 51 1774
163 51 1695
164 51 1385
165 51 1482
166 51 2198
167 51 699
168 51 1869
169 51 2531
170 51 1530
171 51 2438
172 51 2436
173 51 2157
174 51 1004
175 51 1759
176 51 2198
177 51 1578
178 51 2698
179 51 1512
180 51 2377
181 51 1821
182 51 3052
183 51 1398
184 51 5227
185 51 1855
186 51 2229
187 51 2172
188 51 2320
189 51 1902
190 51 3380
191 51 1983
192 51 1631
193 51 1731
194 51 2302
195 51 1067
196 51 960
197 51 2770
198 51 2091
199 51 2756
200 51 2606
201 51 1394
202 51 1368
203 51 1818
204 51 2518
205 51 2592
206 51 1997
207 51 1460
208 51 2268
209 51 1508
210 51 1162
211 51 1366
212 51 3213
213 51 2931
214 51 2582
215 51 2367
216 51 1206
217 51 1991
218 51 1565
219 51 1282
220 51 2328
221 51 1235
222 51 3341
223 51 2643
224 51 1525
225 51 2089
226 51 3725
227 51 1410
228 51 2124
229 51 3178
230 51 1145
231 51 1042
232 51 788
233 51 1006
234 51 1524
235 51 3889
236 51 1936
237 51 1444
238 51 3162
239 51 1557
240 51 2753
241 51 2121
242 51 2073
243 51 2925
244 51 1775
245 51 1912
246 51 1679
247 51 1801
248 51 1168
249 51 1779
250 51 1807
251 51 1679
252 51 2073
253 51 1636
254 51 1061
255 51 2026
256 51 2158
257 51 4515
258 51 3092
259 51 1921
260 51 2807
261 51 2552
262 51 2632
263 51 2079
264 51 1243
265 51 2327
266 51 2432
267 51 2772
268 51 739
269 51 2364
270 51 2077
271 51 2129
272 51 4490
273 51 2630
274 51 1629
275 51 1831
276 51 1656
277 51 2157
278 51 1138
279 51 3238
280 51 1796
281 51 1688
282 51 2324
283 51 2560
284 51 1207
285 51 1564
286 51 1220
287 51 1990
288 51 1709
289 51 2284
290 51 1939
291 51 1012
292 51 1230
293 51 2523
294 51 1396
295 51 483
296 51 1575
297 51 916
298 51 1204
299 51 2717
300 51 1591
301 51 2050
302 51 2109
303 51 2331
304 51 1918
305 51 2118
306 51 1521
307 51 2063
308 51 1610
309 51 2908
310 51 2033
311 51 2183
312 51 1363
313 51 2675
314 51 1643
315 51 1420
316 51 1256
317 51 2597
318 51 1990
319 51 3659
320 51 2727
321 51 2315
322 51 1858
323 51 1644
324 51 1685
325 51 3467
326 51 2609
327 51 3800
328 51 1478
329 51 2747
330 51 4526
331 51 2622
332 51 5236
333 51 2665
334 51 3933
335 51 1933
336 51 1450
337 51 3160
338 51 1410
339 51 1252
340 51 1735
341 51 2076
342 51 3254
343 51 2488
344 51 2166
345 51 1543
346 51 2079
347 51 2161
348 51 4088
349 51 1983
350 51 2207
351 51 2539
352 51 1911
353 51 1343
354 51 1419
355 51 2347
356 51 764
357 51 1583
358 51 2122
359 51 2751
360 51 1977
361 51 1617
362 51 3534
363 51 1927
364 51 1655
365 51 1938
366 51 2867
367 51 1269
368 51 876
369 51 2336
370 51 1994
371 51 1270
372 51 1681
373 51 1789
374 51 1958
375 51 2095
376 51 1995
377 51 2233
378 51 1870
379 51 2567
380 51 1553
381 51 2185
382 51 1690
383 51 1592
384 51 1355
385 51 2251
386 51 2464
387 51 1570
388 51 2444
389 51 1756
390 51 1526
391 51 1702
392 51 1783
393 51 1434
394 51 2700
395 51 1546
396 51 2127
397 51 3121
398 51 2435
399 51 856
400 51 2339
401 51 1784
402 51 1384
403 51 1044
404 51 2065
405 51 2093
406 51 1662
407 51 2561
408 51 3494
409 51 3270
410 51 2102
411 51 707
412 51 1862
413 51 2172
414 51 2301
415 51 1668
416 51 2390
417 51 3271
418 51 3266
419 51 2004
420 51 2168
421 51 1213
422 51 1954
423 51 1681
424 51 2022
425 51 2034
426 51 1826
427 51 838
428 51 2463
429 51 1647
430 51 2129
431 51 2342
432 51 2601
433 51 2986
434 51 709
435 51 1052
436 51 2490
437 51 1203
438 51 1432
439 51 2116
440 51 4579
441 51 2030
442 51 1246
443 51 2021
444 51 3206
445 51 2067
446 51 2938
447 51 4780
448 51 2229
449 51 1733
450 51 2727
451 51 2337
452 51 3597
453 51 2757
454 51 1767
455 51 1673
456 51 2681
457 51 1350
458 51 3712
459 51 1475
460 51 3410
461 51 2054
462 51 1846
463 51 2897
464 51 2301
465 51 847
466 51 4164
467 51 1683
468 51 1348
469 51 2326
470 51 2303
471 51 1993
472 51 1060
473 51 2943
474 51 1191
475 51 2254
476 51 1465
477 51 1342
478 51 2000
479 51 2548
480 51 4705
481 51 2199
482 51 938
483 51 1591
484 51 2212
485 51 1326
486 51 2152
487 51 2499
488 51 1964
489 51 2404
490 51 2965
491 51 943
492 51 2463
493 51 3244
494 51 1850
495 51 2872
496 51 1351
497 51 1602
498 51 1909
499 51 1742
500 51 1820
1 52 240
2 52 890
3 52 503
4 52 498
5 52 2274
6 52 1124
7 52 731
8 52 1431
9 52 1800
10 52 486
11 52 722
12 52 841
13 52 568
14 52 640
15 52 259
16 52 931
17 52 633
18 52 361
19 52 628
20 52 698
21 52 334
22 52 294
23 52 890
24 52 1072
25 52 278
26 52 1204
27 52 128
28 52 693
29 52 1461
30 52 803
31 52 610
32 52 777
33 52 348
34 52 608
35 52 1227
36 52 947
37 52 1467
38 52 641
39 52 1138
40 52 682
41 52 1087
42 52 777
43 52 630
44 52 357
45 52 1736
46 52 474
47 52 764
48 52 1396
49 52 1153
50 52 609
51 52 985
52 52 486
53 52 849
54 52 537
55 52 1816
56 52 649
57 52 2036
58 52 327
59 52 717
60 52 469
61 52 663
62 52 808
63 52 871
64 52 926
65 52 583
66 52 915
67 52 387
68 52 428
69 52 1069
70 52 627
71 52 925
72 52 319
73 52 2128
74 52 1126
75 52 723
76 52 502
77 52 573
78 52 392
79 52 753
80 52 604
81 52 1759
82 52 551
83 52 346
84 52 744
85 52 1189
86 52 1434
87 52 735
88 52 1045
89 52 482
90 52 686
91 52 1222
92 52 392
93 52 898
94 52 675
95 52 859
96 52 346
97 52 803
98 52 1013
99 52 631
100 52 402
101 52 1198
102 52 560
103 52 607
104 52 1205
105 52 414
106 52 583
107 52 453
108 52 556
109 52 873
110 52 566
111 52 654
112 52 351
113 52 1259
114 52 854
115 52 1205
116 52 269
117 52 737
118 52 726
119 52 424
120 52 896
121 52 2014
122 52 602
123 52 1154
124 52 1435
125 52 715
126 52 1089
127 52 1133
128 52 990
129 52 651
130 52 305
131 52 704
132 52 346
133 52 930
134 52 601
135 52 1407
136 52 198
137 52 1371
138 52 564
139 52 727
140 52 1027
141 52 1256
142 52 476
143 52 716
144 52 2114
145 52 415
146 52 906
147 52 2220
148 52 563
149 52 1325
150 52 367
151 52 267
152 52 688
153 52 825
154 52 407
155 52 1235
156 52 1149
157 52 685
158 52 350
159 52 446
160 52 1128
161 52 1829
162 52 680
163 52 1627
164 52 559
165 52 845
166 52 963
167 52 851
168 52 1022
169 52 899
170 52 1201
171 52 533
172 52 1653
173 52 428
174 52 427
175 52 596
176 52 870
177 52 582
178 52 661
179 52 1069
180 52 1305
181 52 245
182 52 1271
183 52 896
184 52 1522
185 52 440
186 52 992
187 52 912
188 52 603
189 52 226
190 52 1049
191 52 221
192 52 913
193 52 712
194 52 1029
195 52 149
196 52 362
197 52 698
198 52 442
199 52 355
200 52 428
201 52 428
202 52 1424
203 52 1683
204 52 423
205 52 1685
206 52 232
207 52 1008
208 52 580
209 52 412
210 52 327
211 52 1397
212 52 966
213 52 343
214 52 546
215 52 579
216 52 862
217 52 526
218 52 475
219 52 810
220 52 1020
221 52 565
222 52 1341
223 52 743
224 52 547
225 52 1235
226 52 812
227 52 327
228 52 1092
229 52 1511
230 52 1112
231 52 454
232 52 747
233 52 661
234 52 1338
235 52 1641
236 52 678
237 52 639
238 52 1571
239 52 1458
240 52 1134
241 52 811
242 52 250
243 52 1986
244 52 1122
245 52 502
246 52 2239
247 52 1225
248 52 331
249 52 1644
250 52 280
251 52 893
252 52 261
253 52 315
254 52 155
255 52 1014
256 52 845
257 52 779
258 52 911
259 52 913
260 52 736
261 52 569
262 52 495
263 52 1186
264 52 590
265 52 1000
266 52 1096
267 52 643
268 52 744
269 52 721
270 52 1746
271 52 812
272 52 1079
273 52 545
274 52 1318
275 52 505
276 52 760
277 52 532
278 52 412
279 52 827
280 52 648
281 52 132
282 52 2250
283 52 1243
284 52 1075
285 52 244
286 52 1097
287 52 816
288 52 1040
289 52 561
290 52 586
291 52 726
292 52 484
293 52 747
294 52 921
295 52 531
296 52 1156
297 52 441
298 52 184
299 52 550
300 52 1031
301 52 238
302 52 454
303 52 1107
304 52 715
305 52 470
306 52 1332
307 52 726
308 52 512
309 52 413
310 52 745
311 52 915
312 52 839
313 52 1204
314 52 1028
315 52 464
316 52 1244
317 52 614
318 52 256
319 52 1075
320 52 522
321 52 1292
322 52 478
323 52 496
324 52 664
325 52 702
326 52 452
327 52 811
328 52 549
329 52 510
330 52 1099
331 52 473
332 52 506
333 52 471
334 52 1279
335 52 659
336 52 911
337 52 1826
338 52 897
339 52 887
340 52 469
341 52 460
342 52 437
343 52 233
344 52 717
345 52 893
346 52 1736
347 52 674
348 52 1196
349 52 611
350 52 602
351 52 895
352 52 439
353 52 566
354 52 940
355 52 615
356 52 707
357 52 965
358 52 931
359 52 614
360 52 508
361 52 772
362 52 436
363 52 560
364 52 1097
365 52 753
366 52 1029
367 52 535
368 52 318
369 52 986
370 52 475
371 52 475
372 52 333
373 52 1628
374 52 1499
375 52 466
376 52 1198
377 52 906
378 52 781
379 52 1224
380 52 816
381 52 1809
382 52 231
383 52 1022
384 52 505
385 52 290
386 52 1177
387 52 415
388 52 1104
389 52 460
390 52 1288
391 52 265
392 52 424
393 52 1264
394 52 354
395 52 1431
396 52 680
397 52 859
398 52 942
399 52 274
400 52 788
401 52 721
402 52 586
403 52 679
404 52 986
405 52 373
406 52 929
407 52 743
408 52 1080
409 52 1100
410 52 275
411 52 342
412 52 273
413 52 339
414 52 437
415 52 477
416 52 957
417 52 1070
418 52 766
419 52 672
420 52 1010
421 52 881
422 52 233
423 52 885
424 52 2079
425 52 319
426 52 535
427 52 282
428 52 529
429 52 1216
430 52 860
431 52 442
432 52 599
433 52 584
434 52 331
435 52 705
436 52 476
437 52 465
438 52 1060
439 52 472
440 52 1194
441 52 711
442 52 655
443 52 649
444 52 1357
445 52 990
446 52 512
447 52 1297
448 52 997
449 52 859
450 52 1026
451 52 863
452 52 739
453 52 460
454 52 579
455 52 305
456 52 375
457 52 921
458 52 1362
459 52 1111
460 52 763
461 52 1077
462 52 390
463 52 421
464 52 687
465 52 484
466 52 1234
467 52 871
468 52 562
469 52 600
470 52 1062
471 52 1338
472 52 99
473 52 374
474 52 1104
475 52 459
476 52 766
477 52 1366
478 52 245
479 52 803
480 52 773
481 52 1010
482 52 720
483 52 1488
484 52 275
485 52 430
486 52 1163
487 52 518
488 52 677
489 52 1435
490 52 1060
491 52 336
492 52 698
493 52 757
494 52 588
495 52 649
496 52 266
497 52 618
498 52 211
499 52 789
500 52 526
1 53 2715
2 53 764
3 53 1909
4 53 936
5 53 3980
6 53 3119
7 53 3800
8 53 2102
9 53 3785
10 53 879
11 53 1459
12 53 2724
13 53 1945
14 53 1240
15 53 2656
16 53 1162
17 53 1931
18 53 1836
19 53 1248
20 53 1608
21 53 1144
22 53 2076
23 53 2802
24 53 3118
25 53 639
26 53 2513
27 53 1036
28 53 2506
29 53 2130
30 53 1726
31 53 3094
32 53 1959
33 53 1146
34 53 1834
35 53 2448
36 53 2614
37 53 3672
38 53 2640
39 53 2290
40 53 2704
41 53 1890
42 53 2254
43 53 1286
44 53 763
45 53 2385
46 53 1393
47 53 2218
48 53 3173
49 53 2484
50 53 2134
51 53 1962
52 53 2639
53 53 1810
54 53 1480
55 53 2157
56 53 2441
57 53 2946
58 53 987
59 53 2289
60 53 2439
61 53 1644
62 53 3024
63 53 1604
64 53 3949
65 53 3448
66 53 1575
67 53 1815
68 53 1845
69 53 3234
70 53 1838
71 53 2462
72 53 730
73 53 2837
74 53 1357
75 53 2416
76 53 2102
77 53 1417
78 53 2839
79 53 2376
80 53 2031
81 53 1365
82 53 1715
83 53 1752
84 53 1930
85 53 3486
86 53 3435
87 53 1642
88 53 1345
89 53 3032
90 53 3410
91 53 2305
92 53 2522
93 53 3623
94 53 1534
95 53 2435
96 53 2420
97 53 1416
98 53 2560
99 53 1089
100 53 2197
101 53 1604
102 53 1389
103 53 1987
104 53 3199
105 53 2584
106 53 1742
107 53 1290
108 53 3532
109 53 2424
110 53 1268
111 53 914
112 53 1884
113 53 3048
114 53 3962
115 53 3532
116 53 2017
117 53 2776
118 53 2696
119 53 3021
120 53 1946
121 53 3485
122 53 4100
123 53 3214
124 53 2490
125 53 1477
126 53 1802
127 53 3361
128 53 1831
129 53 3057
130 53 2153
131 53 3856
132 53 1673
133 53 1422
134 53 598
135 53 2111
136 53 876
137 53 2984
138 53 1299
139 53 1998
140 53 2653
141 53 1809
142 53 1839
143 53 3448
144 53 3422
145 53 1414
146 53 1133
147 53 3147
148 53 2010
149 53 2773
150 53 1591
151 53 2141
152 53 658
153 53 1198
154 53 4022
155 53 2222
156 53 2412
157 53 670
158 53 1174
159 53 1167
160 53 2151
161 53 2556
162 53 1453
163 53 2147
164 53 2070
165 53 2623
166 53 3738
167 53 2636
168 53 1626
169 53 1710
170 53 848
171 53 1804
172 53 3013
173 53 1157
174 53 688
175 53 1886
176 53 1854
177 53 1783
178 53 1709
179 53 1988
180 53 2624
181 53 2127
182 53 3035
183 53 2645
184 53 6127
185 53 2404
186 53 1846
187 53 2111
188 53 2727
189 53 2002
190 53 3193
191 53 2879
192 53 951
193 53 1502
194 53 3139
195 53 2842
196 53 1166
197 53 1907
198 53 2407
199 53 4342
200 53 1918
201 53 1366
202 53 2115
203 53 2309
204 53 3446
205 53 3313
206 53 1982
207 53 1852
208 53 3089
209 53 1090
210 53 1443
211 53 2772
212 53 2504
213 53 4484
214 53 3291
215 53 2661
216 53 2336
217 53 3738
218 53 2099
219 53 2430
220 53 3220
221 53 1585
222 53 1636
223 53 3027
224 53 1980
225 53 1329
226 53 2348
227 53 1150
228 53 2266
229 53 2190
230 53 3068
231 53 1116
232 53 3141
233 53 690
234 53 1786
235 53 4033
236 53 1582
237 53 2019
238 53 2208
239 53 3619
240 53 2568
241 53 1772
242 53 2461
243 53 871
244 53 2438
245 53 1589
246 53 3523
247 53 1650
248 53 1433
249 53 2227
250 53 2663
251 53 2582
252 53 1950
253 53 1160
254 53 2835
255 53 1661
256 53 1711
257 53 3135
258 53 3116
259 53 1833
260 53 3078
261 53 3250
262 53 1934
263 53 1287
264 53 2586
265 53 3118
266 53 2781
267 53 4083
268 53 1572
269 53 2405
270 53 3466
271 53 3139
272 53 4619
273 53 2393
274 53 1874
275 53 894
276 53 1457
277 53 1494
278 53 2433
279 53 2567
280 53 1128
281 53 1758
282 53 2812
283 53 3090
284 53 3061
285 53 1904
286 53 2489
287 53 2487
288 53 1629
289 53 2693
290 53 1475
291 53 1421
292 53 1735
293 53 1526
294 53 1270
295 53 1820
296 53 1950
297 53 596
298 53 2091
299 53 2488
300 53 1632
301 53 2521
302 53 3215
303 53 2224
304 53 1587
305 53 2317
306 53 3477
307 53 1589
308 53 1957
309 53 3617
310 53 1984
311 53 1985
312 53 2142
313 53 2558
314 53 1869
315 53 1370
316 53 3441
317 53 1331
318 53 1934
319 53 2115
320 53 2247
321 53 2520
322 53 3990
323 53 1801
324 53 2907
325 53 2409
326 53 1481
327 53 1915
328 53 2098
329 53 2259
330 53 4757
331 53 1847
332 53 2167
333 53 2435
334 53 3371
335 53 1454
336 53 1455
337 53 1335
338 53 1529
339 53 1111
340 53 2454
341 53 1157
342 53 5420
343 53 2280
344 53 3759
345 53 1468
346 53 2557
347 53 2619
348 53 1036
349 53 1538
350 53 1414
351 53 3563
352 53 2414
353 53 1586
354 53 1277
355 53 1916
356 53 1665
357 53 1006
358 53 2579
359 53 4095
360 53 3910
361 53 2634
362 53 3314
363 53 1579
364 53 2322
365 53 2461
366 53 3429
367 53 2737
368 53 1537
369 53 3202
370 53 927
371 53 1560
372 53 1014
373 53 2234
374 53 1079
375 53 2500
376 53 2255
377 53 2078
378 53 1861
379 53 3177
380 53 2416
381 53 2620
382 53 2300
383 53 1059
384 53 1758
385 53 2288
386 53 3224
387 53 1754
388 53 2224
389 53 2484
390 53 3377
391 53 2333
392 53 1482
393 53 2843
394 53 2270
395 53 2129
396 53 2382
397 53 2037
398 53 1674
399 53 1461
400 53 2067
401 53 4452
402 53 1166
403 53 1399
404 53 1536
405 53 2187
406 53 1787
407 53 2766
408 53 2852
409 53 1636
410 53 2431
411 53 715
412 53 2665
413 53 1844
414 53 3335
415 53 2426
416 53 1664
417 53 1473
418 53 2418
419 53 1326
420 53 2651
421 53 1890
422 53 2913
423 53 1578
424 53 2160
425 53 2771
426 53 1578
427 53 2015
428 53 1191
429 53 3346
430 53 3129
431 53 3432
432 53 1969
433 53 2650
434 53 675
435 53 4118
436 53 1320
437 53 3255
438 53 1202
439 53 2447
440 53 3104
441 53 2069
442 53 1058
443 53 1478
444 53 3006
445 53 2509
446 53 2785
447 53 3219
448 53 1231
449 53 1697
450 53 2524
451 53 2603
452 53 1809
453 53 2142
454 53 1877
455 53 1965
456 53 2719
457 53 1566
458 53 2860
459 53 2185
460 53 2404
461 53 1646
462 53 1522
463 53 3581
464 53 1228
465 53 1126
466 53 2790
467 53 1743
468 53 1213
469 53 2619
470 53 1203
471 53 2444
472 53 1737
473 53 2708
474 53 2744
475 53 2087
476 53 1393
477 53 2051
478 53 1994
479 53 3256
480 53 2117
481 53 2563
482 53 3906
483 53 3574
484 53 4018
485 53 1330
486 53 2279
487 53 1158
488 53 1612
489 53 2567
490 53 3600
491 53 1132
492 53 2223
493 53 3938
494 53 1460
495 53 1565
496 53 643
497 53 2763
498 53 1243
499 53 2642
500 53 1486
5 54 10
6 54 6
21 54 8
27 54 4
32 54 2
36 54 12
41 54 5
46 54 4
52 54 8
58 54 12
61 54 4
66 54 4
70 54 3
76 54 8
83 54 6
85 54 5
86 54 4
88 54 5
100 54 8
110 54 4
115 54 1
116 54 3
117 54 3
119 54 4
127 54 4
132 54 7
135 54 3
140 54 4
145 54 5
152 54 3
153 54 5
157 54 2
159 54 2
172 54 11
177 54 2
179 54 5
187 54 5
190 54 13
197 54 8
201 54 6
203 54 7
204 54 7
205 54 2
207 54 6
208 54 5
217 54 4
219 54 5
221 54 2
227 54 9
228 54 2
229 54 5
231 54 1
232 54 7
233 54 2
238 54 2
239 54 6
247 54 7
250 54 14
253 54 13
257 54 3
266 54 7
267 54 2
270 54 10
281 54 2
285 54 2
286 54 6
288 54 2
291 54 2
292 54 5
300 54 6
303 54 4
306 54 7
309 54 3
315 54 10
316 54 7
317 54 1
323 54 3
332 54 34
334 54 5
336 54 5
338 54 4
340 54 6
342 54 4
345 54 5
348 54 3
350 54 1
355 54 2
359 54 6
360 54 6
361 54 5
362 54 4
372 54 10
377 54 5
383 54 5
384 54 3
388 54 6
389 54 6
390 54 7
392 54 7
395 54 7
396 54 7
397 54 5
398 54 1
399 54 4
400 54 2
405 54 7
412 54 14
415 54 6
416 54 5
419 54 8
421 54 7
423 54 5
432 54 8
435 54 5
437 54 5
440 54 7
446 54 7
447 54 2
449 54 12
456 54 2
457 54 6
459 54 2
462 54 3
463 54 7
474 54 8
480 54 11
482 54 5
483 54 4
486 54 5
487 54 3
489 54 6
492 54 5
499 54 1
1 55 4898
2 55 3192
3 55 3899
4 55 4235
5 55 6889
6 55 8194
7 55 5304
8 55 4940
9 55 4841
10 55 3371
11 55 4847
12 55 2870
13 55 3420
14 55 3158
15 55 5669
16 55 3305
17 55 2926
18 55 4283
19 55 3111
20 55 5946
21 55 2892
22 55 3278
23 55 6431
24 55 3295
25 55 3024
26 55 3602
27 55 1977
28 55 4506
29 55 4932
30 55 4853
31 55 5901
32 55 5065
33 55 1928
34 55 2754
35 55 6687
36 55 5788
37 55 5454
38 55 5975
39 55 5682
40 55 5808
41 55 3693
42 55 4473
43 55 3100
44 55 2149
45 55 4133
46 55 2203
47 55 3730
48 55 5125
49 55 6319
50 55 3925
51 55 6508
52 55 6098
53 55 5503
54 55 3208
55 55 5121
56 55 4561
57 55 6661
58 55 2079
59 55 3764
60 55 4983
61 55 4650
62 55 4349
63 55 4729
64 55 7135
65 55 3724
66 55 3722
67 55 3996
68 55 4445
69 55 3171
70 55 4568
71 55 4891
72 55 2267
73 55 6897
74 55 5549
75 55 4555
76 55 5390
77 55 5372
78 55 2820
79 55 4622
80 55 2911
81 55 4770
82 55 4241
83 55 4865
84 55 9413
85 55 4426
86 55 8672
87 55 4536
88 55 4838
89 55 3645
90 55 4845
91 55 3586
92 55 5542
93 55 3761
94 55 5609
95 55 3518
96 55 4243
97 55 2205
98 55 6970
99 55 2891
100 55 5865
101 55 2892
102 55 5111
103 55 4474
104 55 4465
105 55 5562
106 55 8737
107 55 2369
108 55 4663
109 55 4882
110 55 5730
111 55 2891
112 55 2270
113 55 8253
114 55 4896
115 55 4473
116 55 2175
117 55 2637
118 55 3809
119 55 7057
120 55 3711
121 55 5168
122 55 6844
123 55 6148
124 55 4740
125 55 11638
126 55 3082
127 55 4540
128 55 5730
129 55 7444
130 55 3197
131 55 5380
132 55 5748
133 55 3219
134 55 3795
135 55 5382
136 55 2290
137 55 7497
138 55 4774
139 55 4676
140 55 5945
141 55 4996
142 55 6923
143 55 7957
144 55 4980
145 55 3101
146 55 2017
147 55 6305
148 55 3310
149 55 5844
150 55 2323
151 55 2211
152 55 3357
153 55 7556
154 55 5977
155 55 3550
156 55 5577
157 55 3393
158 55 1875
159 55 2465
160 55 3570
161 55 9764
162 55 4751
163 55 5292
164 55 3744
165 55 2807
166 55 5678
167 55 3874
168 55 3876
169 55 6478
170 55 4695
171 55 4464
172 55 5020
173 55 4357
174 55 1559
175 55 4412
176 55 4250
177 55 6470
178 55 3963
179 55 3677
180 55 4230
181 55 3832
182 55 7376
183 55 2917
184 55 8797
185 55 5555
186 55 7001
187 55 5121
188 55 3381
189 55 3714
190 55 8313
191 55 6925
192 55 4984
193 55 4654
194 55 3301
195 55 4014
196 55 2001
197 55 3441
198 55 4808
199 55 8586
200 55 4615
201 55 3153
202 55 4895
203 55 3280
204 55 7432
205 55 4717
206 55 5048
207 55 3775
208 55 6007
209 55 5325
210 55 2294
211 55 5799
212 55 4738
213 55 8757
214 55 5523
215 55 3393
216 55 4990
217 55 4394
218 55 3630
219 55 3942
220 55 3310
221 55 2214
222 55 4538
223 55 5498
224 55 2865
225 55 4343
226 55 4496
227 55 2984
228 55 5294
229 55 5580
230 55 4503
231 55 3903
232 55 6529
233 55 3427
234 55 5021
235 55 5608
236 55 4625
237 55 3876
238 55 5476
239 55 8728
240 55 6329
241 55 5212
242 55 9765
243 55 7193
244 55 5459
245 55 1913
246 55 7526
247 55 6159
248 55 2238
249 55 2674
250 55 5380
251 55 4504
252 55 5101
253 55 3544
254 55 3915
255 55 6104
256 55 4347
257 55 9478
258 55 6975
259 55 4148
260 55 5153
261 55 4904
262 55 4574
263 55 4411
264 55 4909
265 55 3316
266 55 4829
267 55 4078
268 55 2517
269 55 4625
270 55 4830
271 55 6279
272 55 5849
273 55 3713
274 55 4990
275 55 3019
276 55 4689
277 55 6986
278 55 6008
279 55 3988
280 55 2951
281 55 3779
282 55 6692
283 55 4468
284 55 5413
285 55 2175
286 55 7985
287 55 3090
288 55 4270
289 55 3360
290 55 4245
291 55 3143
292 55 3413
293 55 4186
294 55 3955
295 55 3165
296 55 3741
297 55 3961
298 55 2633
299 55 5882
300 55 4006
301 55 9740
302 55 3863
303 55 3308
304 55 4450
305 55 4867
306 55 6255
307 55 6079
308 55 3760
309 55 3486
310 55 2786
311 55 3769
312 55 4157
313 55 6332
314 55 5756
315 55 3111
316 55 4562
317 55 4201
318 55 5059
319 55 8895
320 55 2910
321 55 3314
322 55 7385
323 55 6483
324 55 5252
325 55 5267
326 55 8706
327 55 3801
328 55 3861
329 55 2909
330 55 6011
331 55 4644
332 55 3282
333 55 3726
334 55 5056
335 55 3923
336 55 2443
337 55 4800
338 55 2386
339 55 2059
340 55 5031
341 55 4508
342 55 5915
343 55 5188
344 55 5420
345 55 2459
346 55 7923
347 55 5819
348 55 5060
349 55 4491
350 55 4948
351 55 4272
352 55 5669
353 55 2187
354 55 4000
355 55 4640
356 55 2500
357 55 4863
358 55 7009
359 55 4034
360 55 4216
361 55 6206
362 55 4659
363 55 4425
364 55 8577
365 55 3469
366 55 4429
367 55 4508
368 55 3261
369 55 3284
370 55 4344
371 55 3272
372 55 2140
373 55 2600
374 55 3310
375 55 4873
376 55 3501
377 55 5158
378 55 3968
379 55 4471
380 55 9289
381 55 9911
382 55 6306
383 55 3158
384 55 3356
385 55 6047
386 55 4601
387 55 3047
388 55 3295
389 55 5050
390 55 6303
391 55 6288
392 55 2847
393 55 5850
394 55 5344
395 55 5194
396 55 5710
397 55 6182
398 55 2614
399 55 2992
400 55 5032
401 55 5677
402 55 2327
403 55 4345
404 55 6113
405 55 6020
406 55 9496
407 55 3777
408 55 5408
409 55 2634
410 55 4754
411 55 2278
412 55 5410
413 55 3991
414 55 3839
415 55 4987
416 55 2732
417 55 2598
418 55 5148
419 55 3655
420 55 7033
421 55 5398
422 55 6996
423 55 3169
424 55 5348
425 55 2507
426 55 1883
427 55 3242
428 55 3873
429 55 5931
430 55 6383
431 55 4027
432 55 5537
433 55 5403
434 55 2347
435 55 7292
436 55 2305
437 55 5743
438 55 2071
439 55 5024
440 55 5617
441 55 2858
442 55 5306
443 55 3979
444 55 4948
445 55 5690
446 55 4632
447 55 5786
448 55 5811
449 55 3251
450 55 4509
451 55 6043
452 55 7564
453 55 4848
454 55 4508
455 55 2298
456 55 5182
457 55 3688
458 55 4959
459 55 4180
460 55 5187
461 55 6062
462 55 2821
463 55 3418
464 55 3422
465 55 6294
466 55 4096
467 55 4625
468 55 2361
469 55 3449
470 55 5798
471 55 4486
472 55 1398
473 55 4687
474 55 7027
475 55 5367
476 55 3333
477 55 4920
478 55 5171
479 55 8163
480 55 5483
481 55 6951
482 55 7385
483 55 8901
484 55 8643
485 55 2282
486 55 5246
487 55 4798
488 55 4546
489 55 4050
490 55 4298
491 55 1888
492 55 3999
493 55 9301
494 55 4168
495 55 7793
496 55 2997
497 55 4207
498 55 6238
499 55 6425
500 55 1863
1 56 906
2 56 1075
3 56 682
4 56 1634
5 56 1759
6 56 1580
7 56 1691
8 56 1397
9 56 2281
10 56 1140
11 56 2048
12 56 1849
13 56 854
14 56 1491
15 56 1528
16 56 1036
17 56 747
18 56 1144
19 56 1810
20 56 1872
21 56 832
22 56 758
23 56 1256
24 56 1284
25 56 1426
26 56 1089
27 56 433
28 56 996
29 56 1427
30 56 1554
31 56 2460
32 56 623
33 56 917
34 56 677
35 56 688
36 56 1620
37 56 3978
38 56 1851
39 56 1103
40 56 2204
41 56 1918
42 56 1549
43 56 1825
44 56 888
45 56 2062
46 56 1761
47 56 1119
48 56 2348
49 56 2576
50 56 1791
51 56 1585
52 56 2250
53 56 1579
54 56 1012
55 56 1519
56 56 1777
57 56 3290
58 56 2095
59 56 1129
60 56 715
61 56 1152
62 56 2241
63 56 2137
64 56 2431
65 56 2523
66 56 1503
67 56 935
68 56 1215
69 56 1310
70 56 1767
71 56 2162
72 56 1409
73 56 3480
74 56 1073
75 56 1044
76 56 1502
77 56 1046
78 56 1014
79 56 1493
80 56 1403
81 56 914
82 56 1665
83 56 1229
84 56 1176
85 56 1371
86 56 929
87 56 2263
88 56 1614
89 56 1513
90 56 2690
91 56 1541
92 56 1285
93 56 2211
94 56 2486
95 56 1085
96 56 1410
97 56 2065
98 56 1600
99 56 1694
100 56 699
101 56 1665
102 56 1739
103 56 1718
104 56 1862
105 56 1007
106 56 2222
107 56 1409
108 56 2091
109 56 2238
110 56 1464
111 56 379
112 56 1879
113 56 1783
114 56 2487
115 56 1414
116 56 1993
117 56 1970
118 56 1207
119 56 1204
120 56 337
121 56 1302
122 56 1597
123 56 1247
124 56 1910
125 56 1223
126 56 2299
127 56 1389
128 56 1334
129 56 3427
130 56 748
131 56 1750
132 56 1965
133 56 1785
134 56 1524
135 56 1022
136 56 870
137 56 3144
138 56 957
139 56 1362
140 56 1614
141 56 1559
142 56 2048
143 56 1529
144 56 1337
145 56 1348
146 56 924
147 56 1562
148 56 2270
149 56 767
150 56 1360
151 56 1207
152 56 834
153 56 1063
154 56 1551
155 56 531
156 56 2076
157 56 721
158 56 873
159 56 1040
160 56 562
161 56 2689
162 56 2149
163 56 2435
164 56 1831
165 56 1886
166 56 911
167 56 1069
168 56 1876
169 56 1978
170 56 1469
171 56 2500
172 56 1053
173 56 811
174 56 1151
175 56 1713
176 56 1732
177 56 1036
178 56 1104
179 56 1998
180 56 1535
181 56 2288
182 56 3181
183 56 1843
184 56 2182
185 56 2809
186 56 2043
187 56 2734
188 56 1635
189 56 2214
190 56 1628
191 56 1473
192 56 668
193 56 2188
194 56 1342
195 56 1559
196 56 911
197 56 1514
198 56 708
199 56 1304
200 56 1216
201 56 1384
202 56 1397
203 56 1261
204 56 2768
205 56 2128
206 56 2073
207 56 1877
208 56 1149
209 56 706
210 56 2200
211 56 734
212 56 2266
213 56 1263
214 56 1526
215 56 1658
216 56 921
217 56 2288
218 56 1545
219 56 889
220 56 1407
221 56 873
222 56 2342
223 56 926
224 56 1387
225 56 2763
226 56 1302
227 56 829
228 56 1542
229 56 2122
230 56 1306
231 56 1176
232 56 3000
233 56 759
234 56 1531
235 56 3418
236 56 2230
237 56 2114
238 56 2129
239 56 886
240 56 2463
241 56 1804
242 56 1747
243 56 2649
244 56 2013
245 56 1678
246 56 1749
247 56 2405
248 56 2205
249 56 1602
250 56 1567
251 56 1476
252 56 2000
253 56 1514
254 56 1518
255 56 2364
256 56 1786
257 56 3084
258 56 2275
259 56 1357
260 56 787
261 56 2607
262 56 1130
263 56 2639
264 56 1804
265 56 1291
266 56 2523
267 56 676
268 56 808
269 56 2475
270 56 1756
271 56 1626
272 56 3622
273 56 1130
274 56 1564
275 56 1462
276 56 2080
277 56 1400
278 56 584
279 56 2356
280 56 1696
281 56 1527
282 56 2544
283 56 1911
284 56 1359
285 56 1947
286 56 1759
287 56 2228
288 56 2746
289 56 1695
290 56 1025
291 56 712
292 56 1077
293 56 3706
294 56 1631
295 56 1845
296 56 1910
297 56 774
298 56 1195
299 56 1615
300 56 2685
301 56 1691
302 56 2663
303 56 1943
304 56 2157
305 56 695
306 56 1341
307 56 1913
308 56 740
309 56 1878
310 56 1731
311 56 311
312 56 1619
313 56 2475
314 56 1373
315 56 1359
316 56 1402
317 56 1252
318 56 2044
319 56 2543
320 56 1420
321 56 2294
322 56 3402
323 56 1032
324 56 2303
325 56 2215
326 56 1314
327 56 1449
328 56 1784
329 56 1432
330 56 3835
331 56 1137
332 56 1235
333 56 2640
334 56 1439
335 56 632
336 56 658
337 56 832
338 56 631
339 56 882
340 56 2697
341 56 731
342 56 814
343 56 2421
344 56 1709
345 56 655
346 56 2386
347 56 1885
348 56 1951
349 56 2226
350 56 1337
351 56 1692
352 56 2888
353 56 976
354 56 1581
355 56 1727
356 56 798
357 56 667
358 56 1628
359 56 756
360 56 2286
361 56 1134
362 56 1942
363 56 968
364 56 1619
365 56 2219
366 56 1205
367 56 1870
368 56 938
369 56 1281
370 56 1718
371 56 832
372 56 2081
373 56 1652
374 56 1866
375 56 724
376 56 1636
377 56 2709
378 56 1881
379 56 1804
380 56 2037
381 56 2739
382 56 1230
383 56 979
384 56 1007
385 56 2734
386 56 1847
387 56 1752
388 56 1880
389 56 2731
390 56 1342
391 56 1221
392 56 1635
393 56 741
394 56 1424
395 56 993
396 56 2356
397 56 2283
398 56 1505
399 56 432
400 56 703
401 56 2370
402 56 716
403 56 881
404 56 2430
405 56 2189
406 56 1638
407 56 1199
408 56 967
409 56 1077
410 56 1247
411 56 1388
412 56 1558
413 56 965
414 56 2638
415 56 2636
416 56 1447
417 56 1064
418 56 1574
419 56 1594
420 56 1544
421 56 1288
422 56 1378
423 56 1838
424 56 1543
425 56 1101
426 56 1688
427 56 759
428 56 1271
429 56 1184
430 56 1606
431 56 2014
432 56 2855
433 56 1313
434 56 1356
435 56 1448
436 56 1449
437 56 2423
438 56 683
439 56 696
440 56 1567
441 56 1738
442 56 1456
443 56 630
444 56 448
445 56 2873
446 56 1731
447 56 1489
448 56 2905
449 56 1763
450 56 1566
451 56 1565
452 56 2142
453 56 2587
454 56 1759
455 56 1899
456 56 299
457 56 1484
458 56 4121
459 56 722
460 56 2247
461 56 2437
462 56 1636
463 56 1878
464 56 1595
465 56 1416
466 56 368
467 56 1094
468 56 715
469 56 1683
470 56 3007
471 56 1651
472 56 947
473 56 661
474 56 2746
475 56 1295
476 56 2287
477 56 1449
478 56 1925
479 56 1343
480 56 1240
481 56 1637
482 56 1495
483 56 918
484 56 2334
485 56 769
486 56 1590
487 56 955
488 56 2216
489 56 2344
490 56 1147
491 56 884
492 56 1365
493 56 2362
494 56 1002
495 56 2657
496 56 1476
497 56 662
498 56 1648
499 56 1123
500 56 1729
1 57 4537
2 57 1354
3 57 3469
4 57 3917
5 57 5206
6 57 4956
7 57 3802
8 57 6208
9 57 4114
10 57 2795
11 57 2372
12 57 2410
13 57 2415
14 57 3853
15 57 3547
16 57 1217
17 57 3003
18 57 2321
19 57 2531
20 57 4540
21 57 2774
22 57 2820
23 57 4915
24 57 5191
25 57 2247
26 57 3760
27 57 1469
28 57 4349
29 57 6415
30 57 1794
31 57 7155
32 57 2681
33 57 1208
34 57 1964
35 57 6136
36 57 6522
37 57 5354
38 57 5900
39 57 3779
40 57 3544
41 57 5823
42 57 2902
43 57 2453
44 57 1670
45 57 4844
46 57 2713
47 57 2586
48 57 4486
49 57 3488
50 57 4898
51 57 3911
52 57 3633
53 57 5573
54 57 3276
55 57 4238
56 57 2710
57 57 6637
58 57 3674
59 57 2637
60 57 3346
61 57 1268
62 57 3623
63 57 3578
64 57 3877
65 57 5039
66 57 5282
67 57 1988
68 57 3326
69 57 5183
70 57 2954
71 57 3078
72 57 1729
73 57 6883
74 57 4719
75 57 4336
76 57 4137
77 57 2800
78 57 3419
79 57 2706
80 57 3366
81 57 4625
82 57 2913
83 57 1800
84 57 3928
85 57 4377
86 57 5402
87 57 4419
88 57 3953
89 57 4539
90 57 3729
91 57 2765
92 57 4042
93 57 8358
94 57 3458
95 57 7207
96 57 2842
97 57 2101
98 57 3194
99 57 2132
100 57 4965
101 57 8566
102 57 2571
103 57 2449
104 57 3729
105 57 3688
106 57 3986
107 57 2904
108 57 3246
109 57 3031
110 57 1566
111 57 2049
112 57 2690
113 57 4480
114 57 5887
115 57 4288
116 57 2761
117 57 2631
118 57 3651
119 57 5701
120 57 3103
121 57 6387
122 57 6171
123 57 4341
124 57 3727
125 57 3362
126 57 3203
127 57 4342
128 57 3817
129 57 3789
130 57 2692
131 57 3878
132 57 4534
133 57 3908
134 57 4372
135 57 1855
136 57 1165
137 57 5000
138 57 1747
139 57 3914
140 57 6610
141 57 3052
142 57 5538
143 57 7026
144 57 6571
145 57 2082
146 57 1923
147 57 4471
148 57 3142
149 57 2219
150 57 3466
151 57 3743
152 57 1742
153 57 2012
154 57 3038
155 57 2764
156 57 3594
157 57 1833
158 57 1282
159 57 2363
160 57 2720
161 57 3515
162 57 2400
163 57 3925
164 57 4999
165 57 2378
166 57 5281
167 57 1973
168 57 3965
169 57 3601
170 57 3059
171 57 4447
172 57 6553
173 57 1132
174 57 2509
175 57 2482
176 57 5090
177 57 2434
178 57 4260
179 57 5664
180 57 4336
181 57 4184
182 57 5131
183 57 2395
184 57 6701
185 57 2966
186 57 3950
187 57 3304
188 57 2258
189 57 4120
190 57 4789
191 57 5111
192 57 2906
193 57 2422
194 57 5166
195 57 2916
196 57 1233
197 57 5108
198 57 3345
199 57 3395
200 57 3313
201 57 2165
202 57 6263
203 57 4422
204 57 3341
205 57 3736
206 57 3228
207 57 5757
208 57 6741
209 57 2257
210 57 3352
211 57 2254
212 57 3123
213 57 3372
214 57 3302
215 57 2257
216 57 2794
217 57 5222
218 57 3891
219 57 3813
220 57 5076
221 57 2322
222 57 2638
223 57 5862
224 57 3383
225 57 3043
226 57 4364
227 57 2764
228 57 3663
229 57 3603
230 57 4322
231 57 1544
232 57 5695
233 57 1777
234 57 3036
235 57 6213
236 57 4349
237 57 2506
238 57 3598
239 57 5242
240 57 3323
241 57 4009
242 57 3665
243 57 2586
244 57 4323
245 57 3659
246 57 3507
247 57 3859
248 57 3262
249 57 4431
250 57 3855
251 57 3318
252 57 3102
253 57 2403
254 57 2854
255 57 3026
256 57 5107
257 57 3534
258 57 5895
259 57 4026
260 57 3875
261 57 3762
262 57 3249
263 57 3088
264 57 3983
265 57 5220
266 57 3317
267 57 3815
268 57 3478
269 57 5289
270 57 4316
271 57 2686
272 57 4696
273 57 3631
274 57 3122
275 57 2557
276 57 2427
277 57 2896
278 57 5579
279 57 5338
280 57 2039
281 57 3070
282 57 6570
283 57 3759
284 57 3410
285 57 2774
286 57 3996
287 57 3153
288 57 4480
289 57 2202
290 57 4636
291 57 2241
292 57 2381
293 57 6243
294 57 2450
295 57 3668
296 57 3991
297 57 2022
298 57 3665
299 57 5003
300 57 4455
301 57 3704
302 57 4449
303 57 3110
304 57 4227
305 57 3404
306 57 2624
307 57 4377
308 57 3593
309 57 3900
310 57 3393
311 57 3048
312 57 3713
313 57 3353
314 57 3603
315 57 2114
316 57 4365
317 57 2810
318 57 3260
319 57 4249
320 57 2245
321 57 5972
322 57 6286
323 57 2428
324 57 4168
325 57 4258
326 57 4994
327 57 2850
328 57 5069
329 57 2202
330 57 4613
331 57 3180
332 57 3641
333 57 5950
334 57 5135
335 57 1248
336 57 2057
337 57 4643
338 57 2087
339 57 1972
340 57 5510
341 57 1175
342 57 3169
343 57 3973
344 57 3842
345 57 2059
346 57 5747
347 57 6065
348 57 5418
349 57 4394
350 57 3104
351 57 4718
352 57 3013
353 57 2735
354 57 2442
355 57 3009
356 57 3479
357 57 2964
358 57 3124
359 57 3808
360 57 5320
361 57 3329
362 57 5341
363 57 4572
364 57 4300
365 57 4361
366 57 4617
367 57 3510
368 57 4371
369 57 5223
370 57 3845
371 57 2768
372 57 3782
373 57 4501
374 57 2702
375 57 3323
376 57 2786
377 57 3234
378 57 4071
379 57 3655
380 57 5023
381 57 3423
382 57 5335
383 57 2282
384 57 2431
385 57 6101
386 57 3765
387 57 3423
388 57 3048
389 57 5313
390 57 2667
391 57 5288
392 57 3879
393 57 2243
394 57 4146
395 57 1832
396 57 6736
397 57 3151
398 57 4322
399 57 2899
400 57 2764
401 57 4568
402 57 1461
403 57 2640
404 57 3120
405 57 5573
406 57 3949
407 57 3532
408 57 6382
409 57 2101
410 57 3894
411 57 1717
412 57 3974
413 57 2031
414 57 4426
415 57 5409
416 57 4460
417 57 2150
418 57 3222
419 57 4024
420 57 3121
421 57 2087
422 57 5082
423 57 1942
424 57 2385
425 57 4242
426 57 3547
427 57 2854
428 57 1983
429 57 4646
430 57 2656
431 57 3333
432 57 4605
433 57 5124
434 57 1673
435 57 4455
436 57 2840
437 57 4321
438 57 2604
439 57 3305
440 57 4085
441 57 3448
442 57 5162
443 57 1249
444 57 2924
445 57 3038
446 57 4002
447 57 4380
448 57 3480
449 57 1997
450 57 2989
451 57 3486
452 57 2368
453 57 3537
454 57 2510
455 57 2738
456 57 3744
457 57 5297
458 57 3775
459 57 5971
460 57 4158
461 57 2996
462 57 3940
463 57 3807
464 57 3262
465 57 2836
466 57 2505
467 57 3748
468 57 1326
469 57 2171
470 57 3488
471 57 4773
472 57 2893
473 57 5284
474 57 2795
475 57 3813
476 57 3389
477 57 6251
478 57 3124
479 57 4003
480 57 6475
481 57 3046
482 57 4521
483 57 5356
484 57 5641
485 57 2997
486 57 3427
487 57 2942
488 57 4271
489 57 3222
490 57 4597
491 57 1247
492 57 4229
493 57 3905
494 57 4725
495 57 4875
496 57 2321
497 57 2764
498 57 5204
499 57 3233
500 57 3668
1 58 4913
2 58 2256
3 58 3634
4 58 5886
5 58 6550
6 58 4315
7 58 4867
8 58 6002
9 58 4310
10 58 4483
11 58 2228
12 58 2452
13 58 2532
14 58 2920
15 58 3500
16 58 1036
17 58 1972
18 58 2477
19 58 4029
20 58 5267
21 58 2862
22 58 2693
23 58 5001
24 58 4689
25 58 3881
26 58 4739
27 58 1677
28 58 5403
29 58 5988
30 58 3037
31 58 10442
32 58 2420
33 58 2410
34 58 2089
35 58 4082
36 58 3962
37 58 6103
38 58 3211
39 58 3515
40 58 4857
41 58 3210
42 58 4020
43 58 4088
44 58 1685
45 58 5275
46 58 1570
47 58 4349
48 58 3403
49 58 4456
50 58 3099
51 58 3570
52 58 5537
53 58 7227
54 58 2109
55 58 3459
56 58 5901
57 58 6105
58 58 2546
59 58 4368
60 58 5649
61 58 2203
62 58 7269
63 58 4270
64 58 5318
65 58 3823
66 58 3291
67 58 2363
68 58 4749
69 58 4802
70 58 2817
71 58 4092
72 58 2647
73 58 6019
74 58 3684
75 58 5622
76 58 5798
77 58 3268
78 58 1870
79 58 4168
80 58 3131
81 58 4726
82 58 3014
83 58 3772
84 58 8049
85 58 3478
86 58 6463
87 58 3215
88 58 4482
89 58 4185
90 58 3119
91 58 6463
92 58 2405
93 58 5216
94 58 4270
95 58 8479
96 58 2195
97 58 3566
98 58 3033
99 58 2566
100 58 4986
101 58 4250
102 58 3112
103 58 4388
104 58 5760
105 58 4441
106 58 5515
107 58 3298
108 58 4716
109 58 4131
110 58 2543
111 58 1750
112 58 2809
113 58 5458
114 58 3749
115 58 3345
116 58 3775
117 58 2955
118 58 4273
119 58 3765
120 58 3455
121 58 4039
122 58 6010
123 58 6988
124 58 4470
125 58 3037
126 58 2397
127 58 3328
128 58 2429
129 58 4584
130 58 2692
131 58 4919
132 58 4446
133 58 3816
134 58 5157
135 58 2721
136 58 3167
137 58 5989
138 58 4288
139 58 4730
140 58 3939
141 58 1686
142 58 6638
143 58 3328
144 58 4053
145 58 3578
146 58 2224
147 58 3873
148 58 4079
149 58 2855
150 58 3227
151 58 2460
152 58 1377
153 58 2825
154 58 5583
155 58 2578
156 58 3926
157 58 1407
158 58 2566
159 58 3339
160 58 2574
161 58 3727
162 58 2128
163 58 3315
164 58 3131
165 58 2407
166 58 6801
167 58 3132
168 58 3701
169 58 4480
170 58 3124
171 58 3155
172 58 4209
173 58 2062
174 58 2169
175 58 4325
176 58 2959
177 58 4287
178 58 4633
179 58 3229
180 58 3802
181 58 3193
182 58 6035
183 58 2468
184 58 8918
185 58 2038
186 58 5162
187 58 4638
188 58 4619
189 58 3193
190 58 4228
191 58 4899
192 58 3006
193 58 2270
194 58 4902
195 58 3069
196 58 2437
197 58 5683
198 58 5673
199 58 3954
200 58 4679
201 58 3426
202 58 6077
203 58 5372
204 58 4964
205 58 5289
206 58 2285
207 58 3209
208 58 3876
209 58 1542
210 58 2411
211 58 2830
212 58 4091
213 58 3891
214 58 3590
215 58 4590
216 58 3240
217 58 4332
218 58 4003
219 58 2190
220 58 4718
221 58 3327
222 58 2587
223 58 5600
224 58 3037
225 58 4472
226 58 6643
227 58 2797
228 58 3794
229 58 3705
230 58 5898
231 58 1237
232 58 6937
233 58 1400
234 58 1663
235 58 4809
236 58 3202
237 58 706
238 58 3749
239 58 6575
240 58 4381
241 58 4704
242 58 3336
243 58 4558
244 58 4046
245 58 1770
246 58 6682
247 58 6997
248 58 2399
249 58 3634
250 58 3742
251 58 3148
252 58 2175
253 58 3161
254 58 3030
255 58 6714
256 58 2938
257 58 7755
258 58 3436
259 58 3433
260 58 4772
261 58 3037
262 58 4763
263 58 4362
264 58 3389
265 58 4822
266 58 5172
267 58 2979
268 58 3439
269 58 4708
270 58 8368
271 58 3272
272 58 3201
273 58 4240
274 58 1735
275 58 3425
276 58 2230
277 58 3568
278 58 3429
279 58 4514
280 58 2680
281 58 3429
282 58 4608
283 58 5757
284 58 5385
285 58 3647
286 58 3763
287 58 5916
288 58 2659
289 58 4542
290 58 5042
291 58 2852
292 58 2384
293 58 5279
294 58 3385
295 58 2846
296 58 3401
297 58 1966
298 58 3539
299 58 3476
300 58 2671
301 58 3437
302 58 4147
303 58 5372
304 58 3209
305 58 5572
306 58 2548
307 58 5254
308 58 3710
309 58 5330
310 58 3705
311 58 3275
312 58 3113
313 58 4295
314 58 2465
315 58 3502
316 58 3448
317 58 2405
318 58 2243
319 58 5276
320 58 3549
321 58 4463
322 58 5288
323 58 4311
324 58 7192
325 58 4076
326 58 5935
327 58 3689
328 58 3111
329 58 3404
330 58 3197
331 58 4715
332 58 8128
333 58 3595
334 58 3839
335 58 3000
336 58 3421
337 58 4744
338 58 3327
339 58 2219
340 58 7455
341 58 2063
342 58 5587
343 58 4337
344 58 4967
345 58 3433
346 58 4578
347 58 3369
348 58 4569
349 58 3122
350 58 3136
351 58 3280
352 58 2075
353 58 4395
354 58 3501
355 58 2812
356 58 3443
357 58 2999
358 58 3139
359 58 3135
360 58 4187
361 58 4388
362 58 5613
363 58 4981
364 58 3882
365 58 7100
366 58 3959
367 58 4900
368 58 3205
369 58 4858
370 58 5932
371 58 3229
372 58 2625
373 58 3494
374 58 3545
375 58 5677
376 58 6392
377 58 4826
378 58 4080
379 58 5632
380 58 5307
381 58 3826
382 58 4644
383 58 2826
384 58 2497
385 58 3247
386 58 5786
387 58 2567
388 58 5307
389 58 7438
390 58 2594
391 58 4661
392 58 3213
393 58 2878
394 58 3222
395 58 2719
396 58 3718
397 58 3627
398 58 5222
399 58 2889
400 58 2460
401 58 4583
402 58 1274
403 58 1873
404 58 6601
405 58 4602
406 58 5311
407 58 4305
408 58 5531
409 58 3652
410 58 2130
411 58 2656
412 58 3792
413 58 2304
414 58 4104
415 58 7461
416 58 5288
417 58 3525
418 58 4912
419 58 4731
420 58 3005
421 58 2249
422 58 4839
423 58 3258
424 58 3204
425 58 3007
426 58 1747
427 58 2664
428 58 2903
429 58 5214
430 58 3437
431 58 4378
432 58 3782
433 58 4378
434 58 2731
435 58 4997
436 58 3385
437 58 6928
438 58 1962
439 58 5687
440 58 5902
441 58 3750
442 58 3943
443 58 3060
444 58 4308
445 58 2434
446 58 5849
447 58 6154
448 58 3676
449 58 3267
450 58 4240
451 58 4449
452 58 2827
453 58 4546
454 58 4285
455 58 2858
456 58 3749
457 58 3390
458 58 4266
459 58 6779
460 58 4123
461 58 6729
462 58 3134
463 58 5393
464 58 4808
465 58 3268
466 58 6146
467 58 2001
468 58 1375
469 58 4433
470 58 3770
471 58 4545
472 58 3639
473 58 5186
474 58 3957
475 58 5565
476 58 4418
477 58 6122
478 58 2288
479 58 6623
480 58 4728
481 58 3004
482 58 5060
483 58 6607
484 58 5268
485 58 2382
486 58 3802
487 58 3064
488 58 3236
489 58 4090
490 58 6338
491 58 2480
492 58 2933
493 58 5718
494 58 5015
495 58 5722
496 58 3880
497 58 3641
498 58 2641
499 58 4140
500 58 1792
1 59 1814
2 59 2008
3 59 1996
4 59 2259
5 59 3360
6 59 4280
7 59 1938
8 59 1750
9 59 3241
10 59 1545
11 59 1517
12 59 1647
13 59 1571
14 59 1680
15 59 2565
16 59 1270
17 59 1331
18 59 2575
19 59 1528
20 59 2790
21 59 1244
22 59 1197
23 59 2526
24 59 1543
25 59 1875
26 59 1680
27 59 1322
28 59 2346
29 59 1671
30 59 1433
31 59 4099
32 59 1363
33 59 1056
34 59 1604
35 59 3210
36 59 2887
37 59 3517
38 59 3414
39 59 3145
40 59 2549
41 59 2546
42 59 2080
43 59 1616
44 59 1169
45 59 3313
46 59 1107
47 59 1599
48 59 2158
49 59 3528
50 59 1754
51 59 3198
52 59 2871
53 59 3191
54 59 2226
55 59 1784
56 59 2209
57 59 4618
58 59 1313
59 59 1650
60 59 2844
61 59 1616
62 59 3745
63 59 2475
64 59 3088
65 59 2707
66 59 2315
67 59 2015
68 59 2053
69 59 1568
70 59 1812
71 59 1833
72 59 1157
73 59 4626
74 59 1245
75 59 2414
76 59 2183
77 59 1812
78 59 2165
79 59 2125
80 59 1647
81 59 3363
82 59 1885
83 59 2054
84 59 2370
85 59 2397
86 59 2981
87 59 1862
88 59 1311
89 59 2311
90 59 2363
91 59 2915
92 59 1109
93 59 4098
94 59 2386
95 59 1895
96 59 1507
97 59 2235
98 59 1608
99 59 952
100 59 1482
101 59 2467
102 59 684
103 59 2205
104 59 1919
105 59 2530
106 59 1555
107 59 1831
108 59 1520
109 59 1888
110 59 1828
111 59 1240
112 59 1511
113 59 2778
114 59 2934
115 59 2495
116 59 3367
117 59 1363
118 59 2459
119 59 2850
120 59 2054
121 59 4286
122 59 3610
123 59 1586
124 59 1857
125 59 1633
126 59 1943
127 59 2610
128 59 1617
129 59 2827
130 59 1175
131 59 1912
132 59 3794
133 59 1940
134 59 2523
135 59 1240
136 59 1175
137 59 2672
138 59 2369
139 59 849
140 59 2822
141 59 1966
142 59 2404
143 59 2223
144 59 4332
145 59 1855
146 59 884
147 59 3606
148 59 1694
149 59 1812
150 59 2070
151 59 1101
152 59 484
153 59 1827
154 59 3747
155 59 3075
156 59 3456
157 59 516
158 59 1212
159 59 1492
160 59 2947
161 59 2108
162 59 1532
163 59 1601
164 59 1667
165 59 1731
166 59 2746
167 59 1539
168 59 1880
169 59 3381
170 59 2469
171 59 3198
172 59 3558
173 59 921
174 59 877
175 59 2243
176 59 2597
177 59 1682
178 59 2222
179 59 2631
180 59 1162
181 59 1816
182 59 2688
183 59 1650
184 59 3647
185 59 2698
186 59 1851
187 59 2424
188 59 2654
189 59 1780
190 59 4353
191 59 3329
192 59 3314
193 59 1484
194 59 1661
195 59 2570
196 59 1160
197 59 2432
198 59 2993
199 59 2183
200 59 2081
201 59 1908
202 59 1720
203 59 2548
204 59 2777
205 59 2983
206 59 2273
207 59 2514
208 59 1670
209 59 1164
210 59 1349
211 59 1807
212 59 1849
213 59 2106
214 59 1372
215 59 2672
216 59 2995
217 59 3353
218 59 2611
219 59 2304
220 59 1545
221 59 1206
222 59 3800
223 59 3118
224 59 1669
225 59 2827
226 59 1113
227 59 1295
228 59 2220
229 59 2177
230 59 3893
231 59 848
232 59 2647
233 59 485
234 59 1932
235 59 4939
236 59 1820
237 59 854
238 59 2196
239 59 3009
240 59 3679
241 59 2608
242 59 2160
243 59 3281
244 59 3204
245 59 1293
246 59 2152
247 59 2686
248 59 1391
249 59 3368
250 59 3018
251 59 2049
252 59 2239
253 59 1420
254 59 2583
255 59 1046
256 59 2579
257 59 4655
258 59 1787
259 59 1610
260 59 2448
261 59 2318
262 59 2008
263 59 2875
264 59 1687
265 59 1617
266 59 2929
267 59 1431
268 59 1312
269 59 1469
270 59 2107
271 59 2178
272 59 2522
273 59 1456
274 59 1891
275 59 1673
276 59 1542
277 59 1857
278 59 3771
279 59 2133
280 59 955
281 59 1165
282 59 1903
283 59 1981
284 59 2489
285 59 3398
286 59 1727
287 59 2085
288 59 1848
289 59 2618
290 59 2660
291 59 1536
292 59 1537
293 59 2182
294 59 2166
295 59 2649
296 59 2774
297 59 1056
298 59 1781
299 59 3461
300 59 1865
301 59 2117
302 59 2283
303 59 2549
304 59 1922
305 59 2713
306 59 2893
307 59 2855
308 59 2131
309 59 1960
310 59 1392
311 59 2018
312 59 1560
313 59 3601
314 59 1703
315 59 1895
316 59 2546
317 59 975
318 59 2236
319 59 3404
320 59 1885
321 59 1907
322 59 2944
323 59 1547
324 59 2708
325 59 3685
326 59 2568
327 59 3597
328 59 1781
329 59 1932
330 59 2643
331 59 2001
332 59 4154
333 59 2865
334 59 2696
335 59 2037
336 59 2174
337 59 3411
338 59 2161
339 59 897
340 59 2474
341 59 960
342 59 3133
343 59 2982
344 59 1942
345 59 2091
346 59 2762
347 59 3346
348 59 3354
349 59 1863
350 59 1182
351 59 2511
352 59 2635
353 59 1327
354 59 2132
355 59 1962
356 59 1329
357 59 3252
358 59 1648
359 59 1523
360 59 3293
361 59 3061
362 59 2309
363 59 2727
364 59 3141
365 59 3607
366 59 2768
367 59 4112
368 59 1983
369 59 1647
370 59 2172
371 59 2198
372 59 1330
373 59 3342
374 59 2116
375 59 2833
376 59 2967
377 59 2426
378 59 1925
379 59 1986
380 59 3248
381 59 2103
382 59 1838
383 59 1459
384 59 1605
385 59 2653
386 59 1913
387 59 1655
388 59 2616
389 59 2428
390 59 2969
391 59 1950
392 59 1958
393 59 1784
394 59 2349
395 59 1172
396 59 2057
397 59 1482
398 59 1955
399 59 1188
400 59 1369
401 59 2740
402 59 1123
403 59 473
404 59 1056
405 59 2663
406 59 3276
407 59 2322
408 59 3282
409 59 2190
410 59 2481
411 59 1254
412 59 2984
413 59 2033
414 59 2193
415 59 2443
416 59 1821
417 59 2231
418 59 2484
419 59 1514
420 59 1672
421 59 1857
422 59 3238
423 59 1881
424 59 2959
425 59 4514
426 59 1230
427 59 1236
428 59 2168
429 59 2429
430 59 2115
431 59 2455
432 59 1383
433 59 1408
434 59 1206
435 59 1852
436 59 1760
437 59 2965
438 59 988
439 59 2873
440 59 2873
441 59 1432
442 59 2953
443 59 2065
444 59 2942
445 59 1919
446 59 2511
447 59 2923
448 59 2657
449 59 1839
450 59 2470
451 59 2357
452 59 3378
453 59 2711
454 59 2197
455 59 1590
456 59 2676
457 59 2235
458 59 2842
459 59 1864
460 59 3713
461 59 1117
462 59 1977
463 59 2016
464 59 2395
465 59 1281
466 59 2742
467 59 1525
468 59 1177
469 59 2652
470 59 2673
471 59 2422
472 59 1886
473 59 2194
474 59 2671
475 59 2023
476 59 2153
477 59 1704
478 59 2197
479 59 2385
480 59 3691
481 59 1682
482 59 1810
483 59 3082
484 59 2111
485 59 1192
486 59 2159
487 59 2020
488 59 1828
489 59 3714
490 59 1992
491 59 1147
492 59 2914
493 59 3601
494 59 2713
495 59 1882
496 59 1836
497 59 1722
498 59 1726
499 59 3246
500 59 1319
1 60 20
2 60 10
3 60 4
5 60 21
6 60 2
7 60 44
8 60 11
11 60 3
12 60 4
14 60 12
16 60 6
17 60 1
22 60 1
23 60 19
25 60 5
26 60 13
27 60 5
28 60 6
29 60 9
30 60 9
31 60 6
32 60 3
33 60 3
34 60 5
35 60 16
40 60 25
46 60 4
47 60 3
50 60 13
51 60 4
52 60 9
53 60 5
54 60 75
56 60 1
57 60 3
59 60 10
60 60 8
61 60 6
62 60 7
65 60 4
66 60 5
67 60 6
68 60 11
71 60 4
72 60 3
73 60 4
75 60 6
76 60 27
77 60 2
78 60 23
82 60 9
85 60 6
86 60 8
87 60 5
89 60 43
91 60 5
92 60 1
93 60 5
94 60 14
95 60 28
96 60 13
97 60 6
101 60 6
102 60 28
106 60 8
107 60 13
109 60 3
110 60 26
114 60 4
115 60 6
116 60 6
120 60 18
121 60 7
122 60 3
124 60 2
127 60 5
128 60 5
129 60 6
130 60 1
131 60 43
132 60 28
133 60 1
134 60 4
135 60 3
137 60 8
138 60 6
139 60 7
141 60 30
143 60 4
144 60 12
145 60 3
146 60 4
147 60 83
148 60 19
149 60 1
150 60 16
151 60 4
153 60 7
155 60 14
158 60 3
159 60 3
160 60 13
161 60 8
162 60 4
164 60 17
165 60 3
166 60 15
167 60 5
168 60 8
169 60 6
170 60 10
172 60 8
174 60 6
178 60 22
180 60 2
181 60 5
182 60 9
183 60 2
184 60 20
185 60 3
186 60 3
188 60 3
189 60 5
190 60 4
193 60 8
195 60 6
196 60 3
197 60 6
198 60 5
199 60 10
200 60 6
201 60 2
202 60 4
209 60 10
210 60 8
211 60 2
212 60 9
213 60 20
214 60 6
215 60 8
218 60 7
221 60 1
223 60 3
225 60 34
228 60 7
229 60 24
230 60 5
231 60 29
232 60 8
234 60 29
236 60 5
237 60 4
238 60 32
239 60 7
241 60 19
244 60 67
245 60 5
247 60 3
248 60 9
251 60 2
253 60 15
254 60 1
255 60 24
259 60 1
260 60 4
262 60 4
263 60 28
264 60 21
266 60 6
267 60 6
270 60 6
273 60 4
274 60 22
276 60 6
277 60 6
279 60 14
281 60 4
285 60 5
286 60 10
287 60 1
289 60 4
290 60 16
292 60 17
294 60 3
298 60 13
299 60 4
303 60 17
304 60 2
305 60 7
306 60 5
308 60 6
309 60 24
311 60 11
314 60 3
315 60 1
316 60 5
317 60 3
319 60 7
320 60 11
322 60 6
324 60 5
325 60 16
327 60 13
328 60 20
329 60 24
331 60 5
336 60 4
338 60 9
339 60 5
342 60 21
344 60 45
345 60 6
346 60 7
349 60 7
350 60 33
351 60 6
352 60 5
353 60 28
354 60 3
359 60 8
361 60 12
363 60 15
364 60 2
367 60 9
368 60 8
374 60 15
375 60 10
376 60 5
381 60 5
384 60 16
385 60 7
388 60 17
390 60 4
393 60 7
395 60 4
396 60 4
397 60 5
399 60 4
400 60 2
401 60 17
404 60 39
408 60 6
409 60 10
410 60 4
411 60 3
413 60 6
417 60 2
419 60 6
421 60 6
425 60 4
426 60 7
427 60 4
428 60 29
433 60 2
436 60 13
438 60 4
439 60 7
440 60 4
442 60 4
445 60 4
447 60 3
448 60 5
450 60 6
452 60 5
453 60 41
457 60 2
458 60 1
459 60 3
460 60 15
461 60 26
463 60 18
464 60 5
465 60 3
466 60 10
467 60 8
469 60 7
470 60 7
472 60 9
474 60 12
477 60 7
480 60 5
483 60 9
486 60 8
487 60 6
488 60 7
489 60 10
490 60 14
491 60 2
492 60 11
493 60 5
494 60 23
495 60 26
496 60 7
499 60 14
500 60 7
1 61 1731
2 61 1225
3 61 2542
4 61 3626
5 61 3250
6 61 2402
7 61 2228
8 61 2364
9 61 3005
10 61 2480
11 61 1387
12 61 1584
13 61 1250
14 61 1904
15 61 2088
16 61 915
17 61 1684
18 61 3642
19 61 1765
20 61 3510
21 61 1089
22 61 1374
23 61 1833
24 61 1779
25 61 2759
26 61 1624
27 61 633
28 61 842
29 61 2364
30 61 1279
31 61 1546
32 61 1605
33 61 844
34 61 1130
35 61 1778
36 61 2092
37 61 2366
38 61 2671
39 61 3738
40 61 2651
41 61 3879
42 61 1439
43 61 1766
44 61 870
45 61 3879
46 61 1041
47 61 1655
48 61 2861
49 61 1996
50 61 3517
51 61 2043
52 61 2792
53 61 2393
54 61 2064
55 61 3117
56 61 2063
57 61 2704
58 61 1901
59 61 1673
60 61 2465
61 61 1023
62 61 3026
63 61 1704
64 61 2804
65 61 3061
66 61 1383
67 61 1439
68 61 3829
69 61 1756
70 61 1604
71 61 2927
72 61 1060
73 61 2889
74 61 1834
75 61 828
76 61 1808
77 61 1716
78 61 2259
79 61 1456
80 61 2055
81 61 3301
82 61 2117
83 61 1658
84 61 4038
85 61 2793
86 61 3183
87 61 1380
88 61 2799
89 61 2551
90 61 2308
91 61 1314
92 61 1612
93 61 3171
94 61 1764
95 61 2306
96 61 1210
97 61 1823
98 61 1839
99 61 1809
100 61 1757
101 61 1456
102 61 1388
103 61 2704
104 61 2217
105 61 3976
106 61 1726
107 61 2835
108 61 2300
109 61 3098
110 61 1607
111 61 1046
112 61 1475
113 61 3571
114 61 1742
115 61 2787
116 61 2349
117 61 1105
118 61 2669
119 61 1556
120 61 2350
121 61 4116
122 61 3303
123 61 4337
124 61 3773
125 61 2265
126 61 1357
127 61 2793
128 61 2296
129 61 2853
130 61 1312
131 61 2263
132 61 3229
133 61 1727
134 61 2647
135 61 2323
136 61 1001
137 61 3535
138 61 1511
139 61 1260
140 61 2132
141 61 1830
142 61 3392
143 61 2688
144 61 4048
145 61 1597
146 61 1230
147 61 2549
148 61 2530
149 61 2796
150 61 1633
151 61 1207
152 61 982
153 61 1053
154 61 2362
155 61 2013
156 61 4206
157 61 1002
158 61 834
159 61 1266
160 61 2096
161 61 2068
162 61 1405
163 61 2974
164 61 3473
165 61 1584
166 61 2127
167 61 2406
168 61 3404
169 61 3534
170 61 2263
171 61 1548
172 61 4326
173 61 1785
174 61 552
175 61 2742
176 61 3014
177 61 2875
178 61 2201
179 61 3856
180 61 2408
181 61 2082
182 61 3445
183 61 1665
184 61 4763
185 61 1521
186 61 1752
187 61 2025
188 61 1669
189 61 1974
190 61 2460
191 61 2525
192 61 1638
193 61 1421
194 61 1747
195 61 1807
196 61 835
197 61 3397
198 61 2521
199 61 2914
200 61 3863
201 61 1621
202 61 2417
203 61 3171
204 61 1733
205 61 2351
206 61 1961
207 61 3873
208 61 2443
209 61 1872
210 61 1327
211 61 2871
212 61 3006
213 61 2993
214 61 3596
215 61 1649
216 61 2372
217 61 2546
218 61 1895
219 61 1887
220 61 1655
221 61 1308
222 61 1693
223 61 3667
224 61 2030
225 61 2695
226 61 2587
227 61 1195
228 61 2432
229 61 2035
230 61 2853
231 61 1086
232 61 3485
233 61 994
234 61 1867
235 61 3667
236 61 1448
237 61 1602
238 61 2133
239 61 3227
240 61 2061
241 61 2992
242 61 3495
243 61 1755
244 61 2231
245 61 2248
246 61 2769
247 61 3973
248 61 1288
249 61 2930
250 61 3031
251 61 1444
252 61 1999
253 61 2050
254 61 1835
255 61 1341
256 61 3032
257 61 2110
258 61 1607
259 61 1731
260 61 1448
261 61 2278
262 61 3746
263 61 2750
264 61 2388
265 61 1699
266 61 2844
267 61 1657
268 61 1334
269 61 4403
270 61 3747
271 61 2421
272 61 6931
273 61 2340
274 61 1836
275 61 1888
276 61 1335
277 61 2245
278 61 3099
279 61 2092
280 61 1803
281 61 2000
282 61 2499
283 61 2150
284 61 1805
285 61 2335
286 61 2117
287 61 1572
288 61 1761
289 61 1632
290 61 1745
291 61 1123
292 61 1976
293 61 3600
294 61 1817
295 61 1434
296 61 2805
297 61 1075
298 61 1436
299 61 3638
300 61 1742
301 61 3455
302 61 2359
303 61 1613
304 61 1446
305 61 2463
306 61 2869
307 61 3446
308 61 2548
309 61 1972
310 61 1620
311 61 2349
312 61 1800
313 61 1959
314 61 2295
315 61 1626
316 61 2667
317 61 1303
318 61 1988
319 61 3180
320 61 2678
321 61 1288
322 61 2734
323 61 2936
324 61 1767
325 61 3673
326 61 4178
327 61 3443
328 61 3523
329 61 2569
330 61 7044
331 61 3882
332 61 1701
333 61 1580
334 61 2224
335 61 2258
336 61 967
337 61 3281
338 61 907
339 61 1230
340 61 3449
341 61 1740
342 61 2785
343 61 3249
344 61 2295
345 61 908
346 61 2091
347 61 2633
348 61 2450
349 61 1470
350 61 2057
351 61 3024
352 61 1607
353 61 818
354 61 1825
355 61 1631
356 61 1316
357 61 1646
358 61 1872
359 61 1575
360 61 2634
361 61 2395
362 61 2176
363 61 1696
364 61 2281
365 61 1684
366 61 4484
367 61 1483
368 61 1514
369 61 1677
370 61 3605
371 61 2172
372 61 1840
373 61 3114
374 61 2120
375 61 2475
376 61 1312
377 61 1974
378 61 3255
379 61 2210
380 61 2456
381 61 2169
382 61 1606
383 61 3101
384 61 1938
385 61 1570
386 61 2166
387 61 1787
388 61 1631
389 61 3478
390 61 2783
391 61 1658
392 61 1968
393 61 2750
394 61 3011
395 61 2269
396 61 2420
397 61 1985
398 61 2366
399 61 1725
400 61 1687
401 61 3226
402 61 604
403 61 1237
404 61 1289
405 61 2724
406 61 2097
407 61 2716
408 61 2701
409 61 1172
410 61 2477
411 61 1145
412 61 3076
413 61 1481
414 61 2379
415 61 3563
416 61 2394
417 61 1115
418 61 3496
419 61 1927
420 61 1871
421 61 1425
422 61 2503
423 61 2092
424 61 3826
425 61 2290
426 61 2338
427 61 1192
428 61 2192
429 61 2422
430 61 2446
431 61 2466
432 61 3545
433 61 1970
434 61 1103
435 61 3405
436 61 2840
437 61 2806
438 61 825
439 61 2515
440 61 3763
441 61 1593
442 61 1834
443 61 2308
444 61 2626
445 61 3415
446 61 2767
447 61 3833
448 61 3760
449 61 2148
450 61 3687
451 61 2675
452 61 2501
453 61 2315
454 61 2629
455 61 1491
456 61 1877
457 61 1392
458 61 3017
459 61 2345
460 61 3735
461 61 1311
462 61 1955
463 61 2029
464 61 2127
465 61 1365
466 61 2985
467 61 2205
468 61 638
469 61 1687
470 61 3730
471 61 1921
472 61 1828
473 61 2302
474 61 2836
475 61 2630
476 61 1540
477 61 2374
478 61 1978
479 61 3932
480 61 2815
481 61 1843
482 61 3443
483 61 3205
484 61 1163
485 61 1647
486 61 2316
487 61 3443
488 61 1456
489 61 1969
490 61 1666
491 61 884
492 61 2527
493 61 3257
494 61 1754
495 61 2621
496 61 2723
497 61 4130
498 61 2284
499 61 2386
500 61 2327
1 62 3790
2 62 2121
3 62 2633
4 62 3748
5 62 2072
6 62 3423
7 62 4937
8 62 4252
9 62 3141
10 62 3692
11 62 2449
12 62 2292
13 62 1841
14 62 2183
15 62 2563
16 62 1156
17 62 2028
18 62 3010
19 62 2040
20 62 1953
21 62 5077
22 62 3048
23 62 1959
24 62 2618
25 62 4450
26 62 3634
27 62 1579
28 62 2915
29 62 4376
30 62 1827
31 62 573
32 62 3028
33 62 2795
34 62 3516
35 62 2567
36 62 4502
37 62 4575
38 62 2627
39 62 3098
40 62 4013
41 62 5117
42 62 2906
43 62 1998
44 62 1322
45 62 2252
46 62 2941
47 62 4470
48 62 2220
49 62 4469
50 62 2598
51 62 3931
52 62 1546
53 62 4236
54 62 3713
55 62 3005
56 62 3949
57 62 3752
58 62 3104
59 62 4405
60 62 4280
61 62 1851
62 62 3629
63 62 3014
64 62 3411
65 62 3352
66 62 2027
67 62 1716
68 62 3000
69 62 2524
70 62 4000
71 62 2992
72 62 1918
73 62 3917
74 62 2241
75 62 2894
76 62 2173
77 62 3292
78 62 3146
79 62 2845
80 62 3175
81 62 4764
82 62 2614
83 62 3045
84 62 3249
85 62 2937
86 62 4133
87 62 4473
88 62 4039
89 62 3969
90 62 3169
91 62 6451
92 62 3600
93 62 2946
94 62 4350
95 62 2874
96 62 3216
97 62 2696
98 62 3740
99 62 1980
100 62 2978
101 62 3741
102 62 2013
103 62 3356
104 62 3785
105 62 1827
106 62 5008
107 62 2738
108 62 2791
109 62 2754
110 62 2208
111 62 2235
112 62 2340
113 62 993
114 62 2995
115 62 3035
116 62 2931
117 62 4194
118 62 2515
119 62 3483
120 62 3117
121 62 6723
122 62 3535
123 62 2631
124 62 2614
125 62 3128
126 62 2765
127 62 2976
128 62 4497
129 62 3109
130 62 3131
131 62 4924
132 62 2138
133 62 2899
134 62 3081
135 62 2228
136 62 1755
137 62 4725
138 62 3026
139 62 3504
140 62 4597
141 62 3140
142 62 4670
143 62 5917
144 62 6652
145 62 2553
146 62 2021
147 62 5275
148 62 3129
149 62 4673
150 62 2742
151 62 3211
152 62 2127
153 62 3010
154 62 3371
155 62 4283
156 62 3999
157 62 2150
158 62 2804
159 62 2358
160 62 4392
161 62 4717
162 62 2359
163 62 3384
164 62 2625
165 62 2168
166 62 3069
167 62 2623
168 62 3438
169 62 5316
170 62 4002
171 62 4150
172 62 3586
173 62 2105
174 62 1957
175 62 3408
176 62 4595
177 62 3307
178 62 2415
179 62 5070
180 62 2570
181 62 3522
182 62 4705
183 62 2249
184 62 5533
185 62 2932
186 62 2630
187 62 5028
188 62 3126
189 62 3579
190 62 3445
191 62 2377
192 62 3259
193 62 2309
194 62 2813
195 62 3160
196 62 2821
197 62 4556
198 62 4346
199 62 4172
200 62 3045
201 62 2593
202 62 4407
203 62 5420
204 62 3675
205 62 4304
206 62 3878
207 62 5219
208 62 3720
209 62 1621
210 62 4376
211 62 4457
212 62 2858
213 62 3982
214 62 3327
215 62 3191
216 62 2445
217 62 3710
218 62 2840
219 62 2902
220 62 2723
221 62 1358
222 62 4077
223 62 3609
224 62 3175
225 62 2773
226 62 2351
227 62 5041
228 62 3592
229 62 5004
230 62 2415
231 62 2210
232 62 2377
233 62 2118
234 62 2982
235 62 687
236 62 4488
237 62 2311
238 62 5234
239 62 4164
240 62 4281
241 62 3529
242 62 3147
243 62 3920
244 62 3853
245 62 3154
246 62 4656
247 62 4788
248 62 4411
249 62 6209
250 62 4082
251 62 2242
252 62 3826
253 62 2570
254 62 3063
255 62 3055
256 62 4588
257 62 4640
258 62 3273
259 62 1730
260 62 4091
261 62 3137
262 62 3017
263 62 2835
264 62 4200
265 62 2676
266 62 5545
267 62 3990
268 62 4049
269 62 3911
270 62 4105
271 62 3349
272 62 4404
273 62 5176
274 62 3114
275 62 2534
276 62 2356
277 62 2480
278 62 6152
279 62 2731
280 62 2076
281 62 2815
282 62 3136
283 62 3884
284 62 5542
285 62 2994
286 62 2915
287 62 4288
288 62 4198
289 62 3102
290 62 3189
291 62 2863
292 62 1990
293 62 2995
294 62 3619
295 62 2956
296 62 2451
297 62 749
298 62 4787
299 62 1707
300 62 4127
301 62 2975
302 62 3860
303 62 2274
304 62 4521
305 62 4317
306 62 4081
307 62 1955
308 62 2603
309 62 4760
310 62 3022
311 62 3127
312 62 2076
313 62 4350
314 62 4454
315 62 2470
316 62 2979
317 62 4141
318 62 3897
319 62 3736
320 62 2674
321 62 2053
322 62 2461
323 62 3354
324 62 3542
325 62 5064
326 62 3549
327 62 2366
328 62 2604
329 62 2835
330 62 4564
331 62 2970
332 62 2878
333 62 2698
334 62 3193
335 62 2021
336 62 3495
337 62 4716
338 62 3536
339 62 1973
340 62 2431
341 62 2181
342 62 3046
343 62 4746
344 62 4900
345 62 3620
346 62 3931
347 62 2685
348 62 3035
349 62 4624
350 62 4605
351 62 2716
352 62 2852
353 62 2496
354 62 3677
355 62 3778
356 62 4071
357 62 3186
358 62 3765
359 62 3925
360 62 3567
361 62 3931
362 62 571
363 62 3212
364 62 2326
365 62 3797
366 62 2227
367 62 4043
368 62 2737
369 62 2695
370 62 3693
371 62 2612
372 62 3002
373 62 6170
374 62 6989
375 62 4332
376 62 6759
377 62 5001
378 62 5173
379 62 3852
380 62 3990
381 62 4712
382 62 2615
383 62 3791
384 62 1991
385 62 2615
386 62 3911
387 62 2621
388 62 2350
389 62 2419
390 62 4149
391 62 2498
392 62 2964
393 62 4605
394 62 3921
395 62 2143
396 62 3897
397 62 4137
398 62 2721
399 62 1526
400 62 2989
401 62 2568
402 62 1276
403 62 2272
404 62 2984
405 62 3836
406 62 4081
407 62 2454
408 62 3756
409 62 2774
410 62 4642
411 62 1951
412 62 3989
413 62 1747
414 62 4032
415 62 2401
416 62 2596
417 62 2805
418 62 3465
419 62 3160
420 62 3773
421 62 3177
422 62 2441
423 62 3582
424 62 2160
425 62 4216
426 62 3234
427 62 3123
428 62 2917
429 62 2054
430 62 3247
431 62 3156
432 62 4074
433 62 2920
434 62 1897
435 62 4657
436 62 2785
437 62 3106
438 62 1290
439 62 4200
440 62 2963
441 62 2890
442 62 3978
443 62 2046
444 62 3459
445 62 4344
446 62 3760
447 62 3207
448 62 4826
449 62 3530
450 62 6429
451 62 2258
452 62 5668
453 62 2612
454 62 3509
455 62 2461
456 62 2741
457 62 2062
458 62 3457
459 62 3776
460 62 5039
461 62 3034
462 62 3029
463 62 4799
464 62 1641
465 62 1634
466 62 5214
467 62 4071
468 62 1274
469 62 3256
470 62 4739
471 62 3861
472 62 3231
473 62 3488
474 62 2896
475 62 4786
476 62 4133
477 62 4446
478 62 3945
479 62 1770
480 62 4169
481 62 3759
482 62 4709
483 62 4131
484 62 3663
485 62 2178
486 62 3598
487 62 2745
488 62 4510
489 62 5826
490 62 3063
491 62 2767
492 62 5568
493 62 4511
494 62 3133
495 62 2696
496 62 4470
497 62 2980
498 62 2513
499 62 3863
500 62 3158
1 63 5965
2 63 3116
3 63 3310
4 63 3622
5 63 3841
6 63 4980
7 63 3826
8 63 4165
9 63 3052
10 63 2558
11 63 3626
12 63 3900
13 63 3036
14 63 1396
15 63 1919
16 63 1447
17 63 3072
18 63 3019
19 63 2229
20 63 2910
21 63 1761
22 63 1498
23 63 3962
24 63 2594
25 63 4083
26 63 2498
27 63 2173
28 63 5138
29 63 4145
30 63 4331
31 63 4518
32 63 2953
33 63 2291
34 63 3890
35 63 6753
36 63 4832
37 63 6468
38 63 2624
39 63 3854
40 63 5335
41 63 3902
42 63 3493
43 63 2188
44 63 2993
45 63 3781
46 63 1897
47 63 2504
48 63 2967
49 63 4490
50 63 2458
51 63 3270
52 63 3197
53 63 4294
54 63 2075
55 63 2882
56 63 6609
57 63 5025
58 63 3621
59 63 2488
60 63 2592
61 63 2710
62 63 2285
63 63 4604
64 63 2353
65 63 3836
66 63 2760
67 63 2350
68 63 3966
69 63 2608
70 63 2756
71 63 4398
72 63 1704
73 63 5067
74 63 6421
75 63 5310
76 63 3821
77 63 5100
78 63 3259
79 63 3480
80 63 3759
81 63 6372
82 63 2443
83 63 2772
84 63 6113
85 63 4536
86 63 4307
87 63 2677
88 63 3062
89 63 3007
90 63 3983
91 63 5535
92 63 3850
93 63 3498
94 63 5022
95 63 3859
96 63 5664
97 63 2178
98 63 5888
99 63 3163
100 63 4214
101 63 4745
102 63 4202
103 63 2136
104 63 2651
105 63 4403
106 63 3844
107 63 3516
108 63 3205
109 63 4294
110 63 3747
111 63 2644
112 63 2735
113 63 3118
114 63 3848
115 63 4621
116 63 2661
117 63 3915
118 63 2677
119 63 4593
120 63 3958
121 63 4984
122 63 6302
123 63 5146
124 63 6073
125 63 2563
126 63 3733
127 63 4663
128 63 3103
129 63 3457
130 63 1571
131 63 3844
132 63 5163
133 63 2301
134 63 3113
135 63 3298
136 63 2961
137 63 3833
138 63 1860
139 63 4034
140 63 4886
141 63 2584
142 63 3651
143 63 4317
144 63 5050
145 63 1768
146 63 2562
147 63 5045
148 63 3346
149 63 3018
150 63 2581
151 63 3396
152 63 2452
153 63 3858
154 63 2826
155 63 4170
156 63 3991
157 63 2498
158 63 2355
159 63 2953
160 63 4186
161 63 4443
162 63 3539
163 63 3411
164 63 2510
165 63 3848
166 63 4683
167 63 3927
168 63 4232
169 63 4074
170 63 2493
171 63 3579
172 63 3778
173 63 2137
174 63 1290
175 63 2194
176 63 4558
177 63 2593
178 63 4630
179 63 4119
180 63 4773
181 63 3260
182 63 3678
183 63 3853
184 63 5886
185 63 3545
186 63 4340
187 63 4442
188 63 2673
189 63 3422
190 63 5001
191 63 3705
192 63 2836
193 63 3734
194 63 2584
195 63 3484
196 63 2274
197 63 4969
198 63 2604
199 63 2005
200 63 3892
201 63 1744
202 63 4245
203 63 6265
204 63 3444
205 63 4422
206 63 3241
207 63 3988
208 63 4989
209 63 2372
210 63 1659
211 63 2943
212 63 4309
213 63 1963
214 63 4019
215 63 2679
216 63 3473
217 63 5586
218 63 3161
219 63 4167
220 63 2678
221 63 3272
222 63 8915
223 63 5092
224 63 3756
225 63 4286
226 63 5365
227 63 1718
228 63 2437
229 63 4842
230 63 4863
231 63 1477
232 63 2311
233 63 2487
234 63 2458
235 63 4027
236 63 2614
237 63 2308
238 63 4774
239 63 4324
240 63 4499
241 63 5092
242 63 3661
243 63 3788
244 63 3792
245 63 3039
246 63 3258
247 63 5143
248 63 1712
249 63 2969
250 63 4330
251 63 3853
252 63 3200
253 63 2407
254 63 3485
255 63 5030
256 63 4533
257 63 4522
258 63 4248
259 63 2623
260 63 4452
261 63 4053
262 63 3906
263 63 4317
264 63 4271
265 63 2603
266 63 3163
267 63 4448
268 63 3201
269 63 5046
270 63 6121
271 63 3316
272 63 6389
273 63 3026
274 63 2450
275 63 2500
276 63 3658
277 63 2938
278 63 5398
279 63 3534
280 63 3209
281 63 3817
282 63 5086
283 63 2631
284 63 3172
285 63 2609
286 63 4909
287 63 3772
288 63 3552
289 63 2663
290 63 2360
291 63 1728
292 63 1480
293 63 5809
294 63 3078
295 63 2351
296 63 3796
297 63 1602
298 63 3414
299 63 4101
300 63 3491
301 63 3577
302 63 4986
303 63 5713
304 63 2548
305 63 2626
306 63 4260
307 63 2780
308 63 3381
309 63 4153
310 63 1846
311 63 3945
312 63 2740
313 63 4578
314 63 3136
315 63 1795
316 63 4575
317 63 3232
318 63 3235
319 63 4978
320 63 5323
321 63 4937
322 63 5322
323 63 2587
324 63 3816
325 63 5451
326 63 2404
327 63 3024
328 63 2409
329 63 5319
330 63 6370
331 63 3833
332 63 4536
333 63 6508
334 63 5312
335 63 2137
336 63 2984
337 63 6271
338 63 2933
339 63 2667
340 63 3782
341 63 2287
342 63 3307
343 63 3942
344 63 3844
345 63 3008
346 63 2925
347 63 2689
348 63 5325
349 63 2695
350 63 5040
351 63 5939
352 63 3602
353 63 2245
354 63 3056
355 63 2808
356 63 3187
357 63 2983
358 63 6035
359 63 4387
360 63 5604
361 63 3478
362 63 4124
363 63 2340
364 63 4338
365 63 2630
366 63 3450
367 63 4727
368 63 2022
369 63 2550
370 63 3743
371 63 2986
372 63 3602
373 63 2841
374 63 4437
375 63 2685
376 63 5596
377 63 4392
378 63 6768
379 63 2591
380 63 6950
381 63 4589
382 63 3537
383 63 3097
384 63 1384
385 63 2649
386 63 2681
387 63 3848
388 63 5601
389 63 3839
390 63 4247
391 63 3625
392 63 5541
393 63 2859
394 63 3450
395 63 3287
396 63 4429
397 63 2800
398 63 1700
399 63 1429
400 63 3034
401 63 2557
402 63 1001
403 63 4456
404 63 5036
405 63 4075
406 63 2952
407 63 2699
408 63 7394
409 63 2244
410 63 2409
411 63 1778
412 63 4355
413 63 2342
414 63 5186
415 63 3867
416 63 1653
417 63 2239
418 63 2984
419 63 3445
420 63 5880
421 63 4118
422 63 3871
423 63 1806
424 63 3559
425 63 4221
426 63 3024
427 63 1480
428 63 4293
429 63 4883
430 63 3404
431 63 4039
432 63 5665
433 63 5854
434 63 1723
435 63 4655
436 63 3633
437 63 5334
438 63 1695
439 63 2617
440 63 5028
441 63 1800
442 63 3173
443 63 2170
444 63 3532
445 63 4233
446 63 3622
447 63 5328
448 63 4162
449 63 1820
450 63 6172
451 63 2265
452 63 3984
453 63 4111
454 63 2150
455 63 2755
456 63 5690
457 63 2628
458 63 4212
459 63 5657
460 63 5307
461 63 5091
462 63 5633
463 63 4023
464 63 2135
465 63 2229
466 63 4978
467 63 2867
468 63 1015
469 63 2710
470 63 4126
471 63 3902
472 63 1943
473 63 5242
474 63 3397
475 63 3551
476 63 2740
477 63 4205
478 63 3246
479 63 3238
480 63 3552
481 63 5999
482 63 4629
483 63 4376
484 63 5225
485 63 1945
486 63 2280
487 63 2921
488 63 2627
489 63 4482
490 63 2855
491 63 2321
492 63 4035
493 63 4878
494 63 2269
495 63 5692
496 63 4073
497 63 2827
498 63 5932
499 63 3494
500 63 3107
1 64 60
2 64 120
3 64 92
4 64 74
5 64 222
6 64 194
7 64 169
8 64 156
9 64 91
10 64 59
11 64 82
12 64 135
13 64 75
14 64 49
15 64 71
16 64 42
17 64 98
18 64 41
19 64 23
20 64 27
21 64 30
22 64 214
23 64 195
24 64 105
25 64 181
26 64 93
27 64 64
28 64 227
29 64 183
30 64 37
31 64 134
32 64 101
33 64 40
34 64 73
35 64 305
36 64 119
37 64 340
38 64 135
39 64 160
40 64 120
41 64 76
42 64 229
43 64 28
44 64 42
45 64 39
46 64 15
47 64 37
48 64 322
49 64 158
50 64 156
51 64 148
52 64 111
53 64 224
54 64 118
55 64 227
56 64 51
57 64 336
58 64 118
59 64 39
60 64 279
61 64 44
62 64 238
63 64 87
64 64 214
65 64 91
66 64 50
67 64 72
68 64 103
69 64 120
70 64 95
71 64 105
72 64 36
73 64 360
74 64 91
75 64 255
76 64 85
77 64 62
78 64 75
79 64 239
80 64 88
81 64 164
82 64 47
83 64 42
84 64 220
85 64 201
86 64 225
87 64 99
88 64 74
89 64 100
90 64 163
91 64 247
92 64 106
93 64 284
94 64 88
95 64 130
96 64 80
97 64 77
98 64 107
99 64 83
100 64 34
101 64 87
102 64 126
103 64 64
104 64 75
105 64 133
106 64 78
107 64 76
108 64 27
109 64 103
110 64 53
111 64 26
112 64 32
113 64 302
114 64 222
115 64 184
116 64 223
117 64 67
118 64 137
119 64 110
120 64 213
121 64 117
122 64 145
123 64 195
124 64 146
125 64 293
126 64 91
127 64 195
128 64 62
129 64 111
130 64 224
131 64 161
132 64 142
133 64 72
134 64 63
135 64 318
136 64 76
137 64 184
138 64 74
139 64 92
140 64 127
141 64 83
142 64 141
143 64 129
144 64 130
145 64 59
146 64 52
147 64 35
148 64 86
149 64 116
150 64 61
151 64 102
152 64 53
153 64 110
154 64 91
155 64 76
156 64 117
157 64 55
158 64 50
159 64 56
160 64 76
161 64 105
162 64 92
163 64 89
164 64 132
165 64 126
166 64 138
167 64 170
168 64 76
169 64 182
170 64 196
171 64 66
172 64 42
173 64 67
174 64 37
175 64 81
176 64 80
177 64 100
178 64 76
179 64 79
180 64 110
181 64 166
182 64 189
183 64 99
184 64 263
185 64 28
186 64 125
187 64 104
188 64 101
189 64 166
190 64 193
191 64 160
192 64 68
193 64 75
194 64 112
195 64 106
196 64 53
197 64 205
198 64 319
199 64 188
200 64 97
201 64 76
202 64 171
203 64 121
204 64 169
205 64 113
206 64 139
207 64 77
208 64 144
209 64 76
210 64 59
211 64 126
212 64 117
213 64 172
214 64 118
215 64 100
216 64 139
217 64 200
218 64 38
219 64 113
220 64 102
221 64 37
222 64 132
223 64 72
224 64 89
225 64 175
226 64 212
227 64 33
228 64 238
229 64 60
230 64 104
231 64 126
232 64 93
233 64 50
234 64 89
235 64 324
236 64 95
237 64 81
238 64 51
239 64 200
240 64 153
241 64 172
242 64 100
243 64 159
244 64 146
245 64 50
246 64 117
247 64 122
248 64 60
249 64 100
250 64 96
251 64 111
252 64 136
253 64 84
254 64 141
255 64 68
256 64 101
257 64 76
258 64 214
259 64 164
260 64 267
261 64 145
262 64 143
263 64 171
264 64 134
265 64 108
266 64 53
267 64 87
268 64 30
269 64 128
270 64 215
271 64 86
272 64 73
273 64 73
274 64 68
275 64 101
276 64 90
277 64 170
278 64 159
279 64 50
280 64 83
281 64 159
282 64 181
283 64 70
284 64 205
285 64 245
286 64 114
287 64 140
288 64 134
289 64 111
290 64 86
291 64 98
292 64 26
293 64 172
294 64 110
295 64 131
296 64 111
297 64 58
298 64 106
299 64 87
300 64 151
301 64 104
302 64 95
303 64 99
304 64 94
305 64 299
306 64 107
307 64 31
308 64 84
309 64 246
310 64 79
311 64 173
312 64 148
313 64 166
314 64 66
315 64 57
316 64 179
317 64 132
318 64 149
319 64 226
320 64 196
321 64 129
322 64 110
323 64 92
324 64 147
325 64 189
326 64 83
327 64 123
328 64 139
329 64 169
330 64 62
331 64 100
332 64 139
333 64 62
334 64 224
335 64 202
336 64 113
337 64 144
338 64 130
339 64 49
340 64 105
341 64 63
342 64 127
343 64 165
344 64 147
345 64 140
346 64 68
347 64 118
348 64 55
349 64 102
350 64 72
351 64 228
352 64 33
353 64 89
354 64 89
355 64 101
356 64 27
357 64 67
358 64 97
359 64 73
360 64 179
361 64 101
362 64 152
363 64 81
364 64 34
365 64 141
366 64 137
367 64 257
368 64 61
369 64 93
370 64 81
371 64 74
372 64 150
373 64 106
374 64 208
375 64 274
376 64 253
377 64 99
378 64 57
379 64 73
380 64 171
381 64 123
382 64 91
383 64 241
384 64 19
385 64 185
386 64 70
387 64 89
388 64 119
389 64 99
390 64 106
391 64 85
392 64 128
393 64 114
394 64 113
395 64 330
396 64 94
397 64 91
398 64 45
399 64 38
400 64 97
401 64 74
402 64 25
403 64 50
404 64 82
405 64 165
406 64 119
407 64 153
408 64 250
409 64 172
410 64 238
411 64 42
412 64 96
413 64 58
414 64 83
415 64 98
416 64 49
417 64 155
418 64 72
419 64 116
420 64 84
421 64 44
422 64 124
423 64 96
424 64 112
425 64 194
426 64 67
427 64 226
428 64 65
429 64 47
430 64 85
431 64 40
432 64 64
433 64 193
434 64 42
435 64 79
436 64 106
437 64 297
438 64 84
439 64 299
440 64 176
441 64 94
442 64 183
443 64 178
444 64 102
445 64 154
446 64 61
447 64 218
448 64 84
449 64 77
450 64 71
451 64 157
452 64 195
453 64 94
454 64 65
455 64 32
456 64 67
457 64 34
458 64 150
459 64 146
460 64 181
461 64 72
462 64 120
463 64 245
464 64 134
465 64 95
466 64 337
467 64 57
468 64 30
469 64 104
470 64 91
471 64 203
472 64 84
473 64 125
474 64 122
475 64 135
476 64 128
477 64 160
478 64 142
479 64 308
480 64 76
481 64 98
482 64 76
483 64 223
484 64 111
485 64 92
486 64 235
487 64 66
488 64 92
489 64 114
490 64 44
491 64 48
492 64 207
493 64 127
494 64 84
495 64 241
496 64 180
497 64 99
498 64 92
499 64 122
500 64 75
1 65 8903
2 65 1981
3 65 3480
4 65 9390
5 65 6102
6 65 3978
7 65 3930
8 65 5127
9 65 4959
10 65 3718
11 65 4790
12 65 3259
13 65 4402
14 65 3358
15 65 2622
16 65 1519
17 65 3252
18 65 4120
19 65 4339
20 65 5907
21 65 2986
22 65 3187
23 65 4584
24 65 3822
25 65 3716
26 65 2544
27 65 1147
28 65 2488
29 65 5185
30 65 3015
31 65 4931
32 65 4911
33 65 1349
34 65 4918
35 65 4442
36 65 7228
37 65 5672
38 65 2997
39 65 4611
40 65 5003
41 65 7817
42 65 3336
43 65 4345
44 65 2125
45 65 5246
46 65 1501
47 65 3074
48 65 4368
49 65 2910
50 65 3677
51 65 2888
52 65 3877
53 65 4888
54 65 3982
55 65 3969
56 65 4780
57 65 8603
58 65 2129
59 65 3051
60 65 2338
61 65 2456
62 65 5271
63 65 4179
64 65 2787
65 65 4107
66 65 3856
67 65 1356
68 65 2203
69 65 3824
70 65 3022
71 65 2835
72 65 2649
73 65 8826
74 65 2389
75 65 2486
76 65 3851
77 65 2314
78 65 2764
79 65 3275
80 65 1857
81 65 4460
82 65 3121
83 65 2282
84 65 4726
85 65 3866
86 65 3823
87 65 2316
88 65 2727
89 65 4996
90 65 4162
91 65 3230
92 65 4065
93 65 4165
94 65 7674
95 65 6062
96 65 3065
97 65 2684
98 65 4473
99 65 1870
100 65 4175
101 65 5995
102 65 2150
103 65 3271
104 65 4699
105 65 5174
106 65 3015
107 65 2062
108 65 5345
109 65 2880
110 65 2016
111 65 2477
112 65 2464
113 65 4403
114 65 5609
115 65 3899
116 65 4020
117 65 5112
118 65 4406
119 65 5896
120 65 4393
121 65 4681
122 65 5774
123 65 6591
124 65 3903
125 65 3090
126 65 2286
127 65 3813
128 65 3641
129 65 3891
130 65 3108
131 65 3797
132 65 4520
133 65 2736
134 65 2874
135 65 5212
136 65 1872
137 65 5364
138 65 1684
139 65 3746
140 65 7113
141 65 3357
142 65 5842
143 65 4959
144 65 4753
145 65 3146
146 65 2367
147 65 4224
148 65 3643
149 65 4310
150 65 3730
151 65 5170
152 65 1107
153 65 1970
154 65 5092
155 65 2808
156 65 5404
157 65 1142
158 65 1251
159 65 3635
160 65 2862
161 65 4105
162 65 4934
163 65 3942
164 65 3798
165 65 3277
166 65 4389
167 65 2822
168 65 5076
169 65 3099
170 65 2296
171 65 2688
172 65 3379
173 65 1996
174 65 1020
175 65 3297
176 65 4364
177 65 4289
178 65 3588
179 65 7646
180 65 3132
181 65 2129
182 65 5471
183 65 3248
184 65 4453
185 65 2373
186 65 6811
187 65 3757
188 65 3527
189 65 2044
190 65 4076
191 65 4003
192 65 2080
193 65 4982
194 65 3698
195 65 3624
196 65 1319
197 65 4934
198 65 2475
199 65 3319
200 65 2345
201 65 3238
202 65 5048
203 65 6277
204 65 4141
205 65 4107
206 65 1847
207 65 7835
208 65 6183
209 65 2396
210 65 1857
211 65 4368
212 65 2913
213 65 3326
214 65 4974
215 65 3582
216 65 3794
217 65 4939
218 65 3890
219 65 2652
220 65 3756
221 65 1661
222 65 7033
223 65 3837
224 65 1929
225 65 4508
226 65 4860
227 65 3079
228 65 4981
229 65 2880
230 65 4827
231 65 3119
232 65 6470
233 65 1139
234 65 3404
235 65 5190
236 65 2153
237 65 2196
238 65 2857
239 65 3836
240 65 2898
241 65 4488
242 65 2798
243 65 2375
244 65 4435
245 65 2111
246 65 4438
247 65 4059
248 65 1939
249 65 4169
250 65 4838
251 65 3440
252 65 1909
253 65 2581
254 65 3452
255 65 2334
256 65 4235
257 65 5832
258 65 4895
259 65 3032
260 65 4213
261 65 4234
262 65 2338
263 65 4448
264 65 2837
265 65 3717
266 65 2943
267 65 2655
268 65 2472
269 65 2620
270 65 5517
271 65 3409
272 65 5145
273 65 2003
274 65 3361
275 65 2740
276 65 4914
277 65 5097
278 65 3611
279 65 5185
280 65 1947
281 65 2332
282 65 5570
283 65 4753
284 65 4840
285 65 3960
286 65 4125
287 65 4680
288 65 2651
289 65 3511
290 65 3450
291 65 2734
292 65 1826
293 65 6121
294 65 3414
295 65 3510
296 65 4540
297 65 6872
298 65 3930
299 65 3181
300 65 2708
301 65 2930
302 65 5012
303 65 3750
304 65 2153
305 65 2363
306 65 3691
307 65 5669
308 65 3262
309 65 4707
310 65 2844
311 65 4300
312 65 3685
313 65 2917
314 65 3662
315 65 3284
316 65 3911
317 65 1583
318 65 1947
319 65 4116
320 65 4034
321 65 4058
322 65 5866
323 65 4114
324 65 3538
325 65 7104
326 65 6556
327 65 5295
328 65 3793
329 65 4105
330 65 5262
331 65 2369
332 65 5086
333 65 4251
334 65 3734
335 65 3340
336 65 3689
337 65 4454
338 65 3588
339 65 2258
340 65 3276
341 65 2129
342 65 5930
343 65 4329
344 65 3926
345 65 3608
346 65 2527
347 65 2968
348 65 4826
349 65 2332
350 65 7286
351 65 4046
352 65 2339
353 65 2225
354 65 3566
355 65 2971
356 65 2500
357 65 2035
358 65 4471
359 65 2710
360 65 5056
361 65 3918
362 65 4013
363 65 3422
364 65 5955
365 65 4486
366 65 3962
367 65 3404
368 65 1693
369 65 3790
370 65 9385
371 65 3275
372 65 2115
373 65 4022
374 65 3954
375 65 2469
376 65 3265
377 65 3778
378 65 5266
379 65 4810
380 65 3626
381 65 3880
382 65 2883
383 65 2569
384 65 1865
385 65 5613
386 65 4700
387 65 2122
388 65 3790
389 65 3349
390 65 3748
391 65 2894
392 65 1352
393 65 4312
394 65 4003
395 65 5264
396 65 5356
397 65 5847
398 65 3489
399 65 4532
400 65 5001
401 65 3541
402 65 1535
403 65 3553
404 65 2386
405 65 4438
406 65 6562
407 65 4298
408 65 3837
409 65 2205
410 65 3274
411 65 2674
412 65 4799
413 65 1320
414 65 5186
415 65 3313
416 65 3451
417 65 2175
418 65 2913
419 65 3246
420 65 4502
421 65 2870
422 65 4018
423 65 1928
424 65 4793
425 65 3022
426 65 2309
427 65 3058
428 65 3530
429 65 5069
430 65 3444
431 65 2856
432 65 4755
433 65 5515
434 65 2732
435 65 3911
436 65 2123
437 65 6491
438 65 2490
439 65 2317
440 65 3341
441 65 2782
442 65 3400
443 65 3467
444 65 3615
445 65 3417
446 65 6257
447 65 3417
448 65 3357
449 65 1856
450 65 3702
451 65 2831
452 65 4016
453 65 2740
454 65 3193
455 65 2423
456 65 2624
457 65 3899
458 65 5004
459 65 3098
460 65 7185
461 65 2391
462 65 1333
463 65 4599
464 65 3388
465 65 2050
466 65 3427
467 65 3245
468 65 1603
469 65 3551
470 65 3371
471 65 7959
472 65 1821
473 65 4283
474 65 3635
475 65 3157
476 65 4099
477 65 5138
478 65 1872
479 65 3228
480 65 6247
481 65 4497
482 65 4086
483 65 3823
484 65 5009
485 65 2835
486 65 4844
487 65 3757
488 65 2184
489 65 3250
490 65 8413
491 65 1359
492 65 3714
493 65 3839
494 65 3435
495 65 4087
496 65 3868
497 65 4966
498 65 4730
499 65 4025
500 65 2194
1 66 5712
2 66 2128
3 66 3483
4 66 2360
5 66 4946
6 66 4459
7 66 3370
8 66 5549
9 66 3985
10 66 2121
11 66 3240
12 66 4305
13 66 2454
14 66 2161
15 66 2193
16 66 1936
17 66 3290
18 66 2394
19 66 1644
20 66 4538
21 66 1164
22 66 2378
23 66 3908
24 66 5299
25 66 1325
26 66 3692
27 66 2284
28 66 2374
29 66 5495
30 66 2450
31 66 6484
32 66 2213
33 66 1399
34 66 2536
35 66 6694
36 66 3358
37 66 4284
38 66 2561
39 66 3748
40 66 5383
41 66 3070
42 66 2994
43 66 1681
44 66 1423
45 66 3237
46 66 2306
47 66 2495
48 66 4116
49 66 3360
50 66 3695
51 66 3696
52 66 3230
53 66 4370
54 66 3640
55 66 4845
56 66 4887
57 66 4078
58 66 2122
59 66 2555
60 66 2870
61 66 2601
62 66 3150
63 66 5183
64 66 3247
65 66 4081
66 66 2490
67 66 2194
68 66 2523
69 66 5393
70 66 3343
71 66 2876
72 66 1727
73 66 4176
74 66 3935
75 66 2329
76 66 3771
77 66 2253
78 66 2032
79 66 3025
80 66 3658
81 66 4195
82 66 2243
83 66 2003
84 66 6982
85 66 3250
86 66 4628
87 66 4416
88 66 2199
89 66 2967
90 66 2686
91 66 2579
92 66 2319
93 66 6887
94 66 4057
95 66 4352
96 66 2038
97 66 3633
98 66 4423
99 66 2258
100 66 2876
101 66 3759
102 66 2500
103 66 4854
104 66 3063
105 66 5324
106 66 3309
107 66 2890
108 66 3797
109 66 2836
110 66 1509
111 66 1390
112 66 2274
113 66 6787
114 66 3462
115 66 3391
116 66 2650
117 66 2401
118 66 3349
119 66 3241
120 66 1623
121 66 5673
122 66 4866
123 66 3924
124 66 4216
125 66 1979
126 66 3011
127 66 3281
128 66 3437
129 66 3340
130 66 2487
131 66 3480
132 66 4569
133 66 2207
134 66 2400
135 66 2559
136 66 1404
137 66 5920
138 66 2792
139 66 2534
140 66 3280
141 66 2656
142 66 5636
143 66 3508
144 66 5621
145 66 1771
146 66 1356
147 66 3144
148 66 3425
149 66 3431
150 66 1163
151 66 3024
152 66 1011
153 66 2992
154 66 3387
155 66 4542
156 66 3254
157 66 1117
158 66 1384
159 66 2094
160 66 4530
161 66 3280
162 66 3290
163 66 4178
164 66 3597
165 66 4391
166 66 4939
167 66 3500
168 66 1510
169 66 4788
170 66 3119
171 66 2464
172 66 3275
173 66 1609
174 66 1722
175 66 4786
176 66 1562
177 66 2423
178 66 2904
179 66 3181
180 66 5019
181 66 2249
182 66 5962
183 66 4272
184 66 5880
185 66 2949
186 66 4561
187 66 2057
188 66 2497
189 66 2197
190 66 4426
191 66 2885
192 66 3986
193 66 3203
194 66 5311
195 66 2861
196 66 1387
197 66 3925
198 66 2824
199 66 3826
200 66 2451
201 66 1834
202 66 5557
203 66 4281
204 66 5551
205 66 3846
206 66 2949
207 66 3192
208 66 3901
209 66 1325
210 66 1542
211 66 3459
212 66 2891
213 66 4028
214 66 4206
215 66 2457
216 66 2316
217 66 3244
218 66 5567
219 66 2956
220 66 5333
221 66 3433
222 66 2958
223 66 3514
224 66 3642
225 66 3309
226 66 3349
227 66 1186
228 66 3343
229 66 4394
230 66 5150
231 66 2983
232 66 4388
233 66 1069
234 66 2576
235 66 3495
236 66 4313
237 66 1541
238 66 4337
239 66 4718
240 66 3473
241 66 3094
242 66 3278
243 66 4936
244 66 3593
245 66 3326
246 66 3991
247 66 2996
248 66 1487
249 66 3168
250 66 2692
251 66 3852
252 66 2909
253 66 3891
254 66 2834
255 66 4604
256 66 1498
257 66 7471
258 66 1964
259 66 2978
260 66 3227
261 66 2771
262 66 2631
263 66 3355
264 66 2993
265 66 5374
266 66 4464
267 66 3805
268 66 1937
269 66 3396
270 66 4435
271 66 4259
272 66 3007
273 66 2638
274 66 2466
275 66 1562
276 66 3226
277 66 4283
278 66 2404
279 66 4448
280 66 2142
281 66 2198
282 66 3843
283 66 3050
284 66 3442
285 66 2715
286 66 3658
287 66 3175
288 66 3449
289 66 2623
290 66 3346
291 66 2434
292 66 2327
293 66 3210
294 66 2320
295 66 2639
296 66 2962
297 66 2394
298 66 2816
299 66 3877
300 66 3363
301 66 3274
302 66 3164
303 66 3475
304 66 4363
305 66 2905
306 66 2902
307 66 4459
308 66 3512
309 66 5124
310 66 1919
311 66 1560
312 66 2161
313 66 3313
314 66 3541
315 66 1829
316 66 3426
317 66 1381
318 66 2918
319 66 4460
320 66 3421
321 66 4120
322 66 5179
323 66 2513
324 66 3413
325 66 3420
326 66 4351
327 66 2619
328 66 3538
329 66 3293
330 66 3017
331 66 2609
332 66 6705
333 66 5459
334 66 3471
335 66 2488
336 66 2371
337 66 4229
338 66 2476
339 66 1306
340 66 6162
341 66 1610
342 66 4922
343 66 4125
344 66 3480
345 66 2472
346 66 4185
347 66 2527
348 66 4039
349 66 4421
350 66 2862
351 66 3615
352 66 2908
353 66 1455
354 66 2458
355 66 3383
356 66 1958
357 66 3854
358 66 4400
359 66 3858
360 66 3145
361 66 3886
362 66 2969
363 66 3257
364 66 3594
365 66 3436
366 66 3843
367 66 3689
368 66 3742
369 66 5229
370 66 2430
371 66 1710
372 66 2196
373 66 3108
374 66 2461
375 66 2852
376 66 2543
377 66 2069
378 66 3806
379 66 2973
380 66 4736
381 66 3190
382 66 1562
383 66 2769
384 66 2380
385 66 3982
386 66 3074
387 66 3220
388 66 3505
389 66 6097
390 66 2864
391 66 1568
392 66 3140
393 66 3512
394 66 1749
395 66 2522
396 66 3172
397 66 2853
398 66 3225
399 66 1694
400 66 2256
401 66 3141
402 66 1303
403 66 1279
404 66 4768
405 66 3220
406 66 3131
407 66 3411
408 66 5181
409 66 4055
410 66 2023
411 66 1747
412 66 2744
413 66 2207
414 66 3186
415 66 6125
416 66 3248
417 66 3954
418 66 2920
419 66 1898
420 66 4366
421 66 3002
422 66 2794
423 66 2261
424 66 3900
425 66 4006
426 66 3302
427 66 2440
428 66 1910
429 66 3032
430 66 4065
431 66 2834
432 66 4078
433 66 5299
434 66 1719
435 66 3549
436 66 3056
437 66 3946
438 66 1360
439 66 2850
440 66 4115
441 66 1896
442 66 3622
443 66 2575
444 66 4339
445 66 3030
446 66 4114
447 66 4313
448 66 4382
449 66 2371
450 66 2749
451 66 3625
452 66 3340
453 66 4427
454 66 4903
455 66 2318
456 66 3811
457 66 2642
458 66 4585
459 66 3659
460 66 3390
461 66 4830
462 66 3134
463 66 5139
464 66 2691
465 66 1586
466 66 4239
467 66 2325
468 66 1318
469 66 2453
470 66 4315
471 66 3134
472 66 2871
473 66 2664
474 66 3263
475 66 2269
476 66 2723
477 66 5371
478 66 2855
479 66 4622
480 66 4798
481 66 4525
482 66 3532
483 66 4807
484 66 3800
485 66 1650
486 66 3234
487 66 3251
488 66 4296
489 66 4318
490 66 2643
491 66 1370
492 66 3567
493 66 3231
494 66 3208
495 66 2981
496 66 1355
497 66 1570
498 66 3221
499 66 3929
500 66 3418
1 67 4193
2 67 3671
3 67 4254
4 67 4279
5 67 5163
6 67 2868
7 67 3366
8 67 2097
9 67 5499
10 67 3102
11 67 3204
12 67 2992
13 67 1846
14 67 1926
15 67 1632
16 67 2537
17 67 2693
18 67 4239
19 67 1832
20 67 9778
21 67 1406
22 67 1706
23 67 3433
24 67 4358
25 67 1833
26 67 2936
27 67 2068
28 67 3581
29 67 2177
30 67 1932
31 67 5051
32 67 2658
33 67 1351
34 67 2111
35 67 3760
36 67 4089
37 67 7673
38 67 2894
39 67 2690
40 67 4594
41 67 3864
42 67 2733
43 67 1918
44 67 1391
45 67 3734
46 67 2201
47 67 2934
48 67 4725
49 67 3523
50 67 2846
51 67 2353
52 67 2224
53 67 2228
54 67 3751
55 67 1731
56 67 2913
57 67 5238
58 67 4554
59 67 2883
60 67 2868
61 67 1724
62 67 3156
63 67 4460
64 67 4368
65 67 2773
66 67 4896
67 67 1830
68 67 3188
69 67 4551
70 67 2888
71 67 4057
72 67 1166
73 67 5403
74 67 4021
75 67 3669
76 67 3459
77 67 3095
78 67 2417
79 67 2940
80 67 3090
81 67 3173
82 67 1651
83 67 1920
84 67 3331
85 67 3916
86 67 5108
87 67 3741
88 67 2853
89 67 5034
90 67 3775
91 67 4509
92 67 3328
93 67 7029
94 67 6128
95 67 4461
96 67 3002
97 67 1570
98 67 3468
99 67 2806
100 67 2874
101 67 3900
102 67 3875
103 67 1477
104 67 3401
105 67 4130
106 67 3530
107 67 3589
108 67 4994
109 67 4050
110 67 1759
111 67 1440
112 67 1989
113 67 5059
114 67 2969
115 67 3864
116 67 2538
117 67 2205
118 67 2886
119 67 3629
120 67 1515
121 67 5318
122 67 4140
123 67 4346
124 67 3494
125 67 3059
126 67 2206
127 67 3825
128 67 2959
129 67 4525
130 67 1736
131 67 3410
132 67 4276
133 67 2813
134 67 2989
135 67 3669
136 67 1410
137 67 1965
138 67 2791
139 67 4398
140 67 4130
141 67 2727
142 67 4288
143 67 3452
144 67 5261
145 67 1611
146 67 1333
147 67 2758
148 67 3230
149 67 2713
150 67 3239
151 67 5153
152 67 1924
153 67 2777
154 67 5000
155 67 2216
156 67 3873
157 67 1969
158 67 1222
159 67 1518
160 67 2262
161 67 2868
162 67 3253
163 67 2820
164 67 2696
165 67 2988
166 67 4268
167 67 2652
168 67 3103
169 67 5153
170 67 2926
171 67 4855
172 67 3515
173 67 2150
174 67 1204
175 67 1527
176 67 2842
177 67 2607
178 67 2304
179 67 3960
180 67 2642
181 67 3001
182 67 1991
183 67 2916
184 67 4677
185 67 2640
186 67 2951
187 67 4435
188 67 2954
189 67 3027
190 67 2874
191 67 3116
192 67 4134
193 67 3150
194 67 4520
195 67 2448
196 67 1314
197 67 3296
198 67 2943
199 67 4023
200 67 3132
201 67 1667
202 67 2108
203 67 3742
204 67 3846
205 67 3382
206 67 3039
207 67 4007
208 67 4297
209 67 2161
210 67 2050
211 67 2712
212 67 4035
213 67 4083
214 67 3455
215 67 3056
216 67 4037
217 67 4267
218 67 2470
219 67 3479
220 67 4461
221 67 2878
222 67 2441
223 67 4076
224 67 3031
225 67 3880
226 67 5708
227 67 1424
228 67 928
229 67 2831
230 67 3387
231 67 1390
232 67 5393
233 67 2008
234 67 2891
235 67 2615
236 67 3770
237 67 3457
238 67 2822
239 67 5168
240 67 3481
241 67 4386
242 67 2115
243 67 2883
244 67 5253
245 67 1622
246 67 5436
247 67 5988
248 67 2119
249 67 2029
250 67 3651
251 67 4152
252 67 2977
253 67 3715
254 67 2500
255 67 2369
256 67 2849
257 67 3901
258 67 3025
259 67 3121
260 67 1837
261 67 3870
262 67 3104
263 67 3953
264 67 2665
265 67 4326
266 67 3295
267 67 2764
268 67 3959
269 67 4577
270 67 3715
271 67 2843
272 67 4165
273 67 2062
274 67 2710
275 67 1322
276 67 3324
277 67 4321
278 67 3313
279 67 3725
280 67 2755
281 67 4737
282 67 3922
283 67 3524
284 67 4348
285 67 2622
286 67 6642
287 67 4268
288 67 2916
289 67 3001
290 67 2958
291 67 2161
292 67 1839
293 67 3336
294 67 2237
295 67 3206
296 67 3300
297 67 1157
298 67 3246
299 67 3158
300 67 3015
301 67 2078
302 67 5355
303 67 1952
304 67 3720
305 67 2916
306 67 2364
307 67 9995
308 67 4108
309 67 3960
310 67 2516
311 67 1415
312 67 3695
313 67 3518
314 67 2908
315 67 1716
316 67 3906
317 67 1871
318 67 3060
319 67 4733
320 67 2412
321 67 3597
322 67 5409
323 67 2501
324 67 3567
325 67 1722
326 67 4283
327 67 4181
328 67 2798
329 67 2293
330 67 4318
331 67 3071
332 67 3444
333 67 4025
334 67 2926
335 67 1940
336 67 1713
337 67 3228
338 67 1628
339 67 1280
340 67 5141
341 67 2042
342 67 7171
343 67 3727
344 67 3438
345 67 1727
346 67 2941
347 67 2764
348 67 3720
349 67 3725
350 67 4521
351 67 3843
352 67 2749
353 67 1167
354 67 2204
355 67 2991
356 67 3831
357 67 4163
358 67 3415
359 67 2741
360 67 4232
361 67 4343
362 67 5924
363 67 2902
364 67 3218
365 67 3230
366 67 5141
367 67 2701
368 67 2816
369 67 4470
370 67 4242
371 67 3072
372 67 4599
373 67 2110
374 67 3673
375 67 2841
376 67 4520
377 67 4432
378 67 2173
379 67 3507
380 67 3914
381 67 2984
382 67 2954
383 67 2849
384 67 1834
385 67 3905
386 67 3518
387 67 3694
388 67 1898
389 67 5198
390 67 2324
391 67 3043
392 67 3828
393 67 2770
394 67 3922
395 67 3537
396 67 4202
397 67 3231
398 67 2613
399 67 1309
400 67 2616
401 67 6496
402 67 3279
403 67 1522
404 67 2363
405 67 3881
406 67 5108
407 67 2872
408 67 3674
409 67 2004
410 67 2083
411 67 1310
412 67 3541
413 67 1723
414 67 5311
415 67 5349
416 67 2606
417 67 2195
418 67 2630
419 67 2912
420 67 3398
421 67 2054
422 67 3207
423 67 1904
424 67 3223
425 67 2793
426 67 1782
427 67 1763
428 67 2382
429 67 3250
430 67 2883
431 67 4464
432 67 5391
433 67 5076
434 67 1280
435 67 2384
436 67 3666
437 67 6509
438 67 3591
439 67 2818
440 67 6672
441 67 2513
442 67 2319
443 67 2059
444 67 4222
445 67 1786
446 67 3639
447 67 6954
448 67 4243
449 67 1933
450 67 3406
451 67 2537
452 67 3095
453 67 2507
454 67 1489
455 67 2031
456 67 2158
457 67 5003
458 67 3493
459 67 2753
460 67 1686
461 67 2410
462 67 3959
463 67 4060
464 67 1995
465 67 1668
466 67 4101
467 67 3836
468 67 3356
469 67 3041
470 67 4129
471 67 3876
472 67 3042
473 67 3547
474 67 3845
475 67 2719
476 67 2495
477 67 2032
478 67 3085
479 67 4473
480 67 4499
481 67 3425
482 67 2433
483 67 5030
484 67 3722
485 67 2440
486 67 907
487 67 3606
488 67 3719
489 67 2490
490 67 5600
491 67 1252
492 67 3634
493 67 2894
494 67 2863
495 67 4350
496 67 1808
497 67 2109
498 67 3261
499 67 4230
500 67 1749
1 68 4166
2 68 4182
3 68 3944
4 68 5740
5 68 6095
6 68 4551
7 68 5663
8 68 2913
9 68 3245
10 68 5628
11 68 3377
12 68 3886
13 68 5241
14 68 2060
15 68 2797
16 68 1801
17 68 3569
18 68 2626
19 68 2649
20 68 4679
21 68 3250
22 68 1649
23 68 4775
24 68 3035
25 68 3700
26 68 3447
27 68 1321
28 68 3418
29 68 2802
30 68 3305
31 68 3076
32 68 3371
33 68 2301
34 68 2869
35 68 5099
36 68 5314
37 68 5987
38 68 4949
39 68 4722
40 68 6038
41 68 3889
42 68 4307
43 68 2718
44 68 1554
45 68 3854
46 68 3952
47 68 3962
48 68 5302
49 68 4891
50 68 4768
51 68 3782
52 68 4425
53 68 3789
54 68 3646
55 68 4728
56 68 3530
57 68 7373
58 68 4801
59 68 3737
60 68 3722
61 68 2483
62 68 7322
63 68 3487
64 68 3813
65 68 5116
66 68 2156
67 68 2892
68 68 3634
69 68 3085
70 68 1353
71 68 3779
72 68 1572
73 68 7543
74 68 3151
75 68 3519
76 68 6698
77 68 2046
78 68 2765
79 68 4401
80 68 5872
81 68 3229
82 68 3290
83 68 3402
84 68 9129
85 68 4076
86 68 4939
87 68 4182
88 68 3310
89 68 3547
90 68 2195
91 68 4491
92 68 2618
93 68 6647
94 68 6175
95 68 4626
96 68 3836
97 68 2792
98 68 3481
99 68 2806
100 68 4725
101 68 4119
102 68 4157
103 68 3329
104 68 5675
105 68 5417
106 68 4249
107 68 2483
108 68 5379
109 68 3765
110 68 2411
111 68 2245
112 68 2577
113 68 4773
114 68 4802
115 68 4046
116 68 4069
117 68 2632
118 68 2905
119 68 4165
120 68 3110
121 68 5591
122 68 6441
123 68 4580
124 68 3375
125 68 2346
126 68 3860
127 68 4031
128 68 3680
129 68 3716
130 68 1587
131 68 5884
132 68 3924
133 68 3128
134 68 4399
135 68 3549
136 68 1953
137 68 7031
138 68 2587
139 68 5613
140 68 5247
141 68 3047
142 68 5734
143 68 6144
144 68 5386
145 68 3755
146 68 2009
147 68 5378
148 68 3365
149 68 2631
150 68 2603
151 68 2794
152 68 1579
153 68 2428
154 68 5986
155 68 2951
156 68 4953
157 68 1597
158 68 2262
159 68 5578
160 68 3059
161 68 7353
162 68 3403
163 68 2029
164 68 4748
165 68 3860
166 68 7063
167 68 3067
168 68 3128
169 68 3066
170 68 3193
171 68 4572
172 68 3252
173 68 1675
174 68 1733
175 68 3311
176 68 2955
177 68 4463
178 68 2191
179 68 3881
180 68 3701
181 68 2088
182 68 7410
183 68 3866
184 68 4793
185 68 4914
186 68 5929
187 68 3189
188 68 2708
189 68 2182
190 68 4514
191 68 3610
192 68 3985
193 68 3360
194 68 3002
195 68 3692
196 68 2284
197 68 4488
198 68 3742
199 68 4704
200 68 3571
201 68 3838
202 68 2751
203 68 4216
204 68 4138
205 68 5168
206 68 4192
207 68 3881
208 68 5425
209 68 1884
210 68 3318
211 68 2725
212 68 3823
213 68 4779
214 68 4956
215 68 2651
216 68 6439
217 68 5599
218 68 3598
219 68 3718
220 68 3002
221 68 2684
222 68 4746
223 68 8341
224 68 5849
225 68 4693
226 68 5263
227 68 3326
228 68 4232
229 68 5806
230 68 7062
231 68 1426
232 68 3753
233 68 1598
234 68 3098
235 68 6326
236 68 4280
237 68 2816
238 68 5838
239 68 5035
240 68 4905
241 68 4506
242 68 3267
243 68 3562
244 68 5475
245 68 1994
246 68 3118
247 68 5344
248 68 3252
249 68 2271
250 68 3455
251 68 2805
252 68 4303
253 68 4474
254 68 3591
255 68 5468
256 68 2983
257 68 5545
258 68 2915
259 68 3323
260 68 5014
261 68 2190
262 68 3757
263 68 4752
264 68 3925
265 68 3100
266 68 3728
267 68 3697
268 68 2580
269 68 4674
270 68 3612
271 68 4074
272 68 4173
273 68 4034
274 68 2941
275 68 3213
276 68 3380
277 68 4424
278 68 3272
279 68 5072
280 68 2913
281 68 4757
282 68 3273
283 68 5760
284 68 3857
285 68 4018
286 68 3969
287 68 5218
288 68 5571
289 68 2705
290 68 4137
291 68 6178
292 68 3669
293 68 3701
294 68 4165
295 68 2596
296 68 4681
297 68 1877
298 68 2134
299 68 4600
300 68 5661
301 68 3196
302 68 5090
303 68 3124
304 68 4272
305 68 3738
306 68 4930
307 68 4643
308 68 4072
309 68 3843
310 68 2484
311 68 3118
312 68 5228
313 68 4948
314 68 3684
315 68 3761
316 68 4001
317 68 2781
318 68 4121
319 68 5394
320 68 3003
321 68 3884
322 68 5905
323 68 4517
324 68 4635
325 68 4990
326 68 6808
327 68 4553
328 68 4778
329 68 2819
330 68 4253
331 68 3702
332 68 5523
333 68 4877
334 68 5198
335 68 3039
336 68 2954
337 68 3250
338 68 2860
339 68 1984
340 68 5238
341 68 1670
342 68 5448
343 68 4765
344 68 5788
345 68 2794
346 68 3834
347 68 4880
348 68 4329
349 68 4181
350 68 2618
351 68 4837
352 68 4757
353 68 2167
354 68 4201
355 68 1387
356 68 2599
357 68 4001
358 68 3424
359 68 3707
360 68 5479
361 68 2762
362 68 5003
363 68 4285
364 68 4082
365 68 3545
366 68 2491
367 68 4509
368 68 1656
369 68 3066
370 68 5862
371 68 2449
372 68 4849
373 68 2183
374 68 4858
375 68 3711
376 68 4524
377 68 3216
378 68 4898
379 68 5802
380 68 5041
381 68 7476
382 68 3647
383 68 3696
384 68 3519
385 68 2958
386 68 5700
387 68 2416
388 68 3110
389 68 5225
390 68 4904
391 68 3787
392 68 2573
393 68 2664
394 68 4680
395 68 3434
396 68 3203
397 68 4385
398 68 2074
399 68 4106
400 68 3295
401 68 4609
402 68 2881
403 68 5670
404 68 5532
405 68 3967
406 68 5454
407 68 2881
408 68 6022
409 68 2276
410 68 5615
411 68 1634
412 68 3544
413 68 2924
414 68 5051
415 68 5394
416 68 1981
417 68 2282
418 68 3914
419 68 2591
420 68 3418
421 68 2113
422 68 3696
423 68 3293
424 68 1982
425 68 5669
426 68 2045
427 68 1563
428 68 2359
429 68 3711
430 68 4058
431 68 4698
432 68 6369
433 68 5642
434 68 1629
435 68 4074
436 68 2485
437 68 3541
438 68 2040
439 68 3652
440 68 5798
441 68 2452
442 68 5330
443 68 3166
444 68 5479
445 68 4511
446 68 5911
447 68 6132
448 68 3919
449 68 3205
450 68 7246
451 68 3929
452 68 3270
453 68 4725
454 68 3265
455 68 2375
456 68 4172
457 68 2085
458 68 5525
459 68 3761
460 68 5084
461 68 5375
462 68 2660
463 68 3853
464 68 3892
465 68 2894
466 68 4542
467 68 3175
468 68 2904
469 68 2708
470 68 3829
471 68 4093
472 68 1990
473 68 3898
474 68 3560
475 68 1969
476 68 4998
477 68 2829
478 68 4187
479 68 3612
480 68 6118
481 68 3415
482 68 3960
483 68 5005
484 68 4450
485 68 2907
486 68 4383
487 68 2503
488 68 4280
489 68 5519
490 68 3572
491 68 2422
492 68 4754
493 68 7031
494 68 4186
495 68 4782
496 68 3671
497 68 3573
498 68 6895
499 68 2818
500 68 2083
1 69 6122
2 69 5166
3 69 6275
4 69 5968
5 69 7817
6 69 6409
7 69 5396
8 69 7838
9 69 7142
10 69 7651
11 69 5641
12 69 8199
13 69 2369
14 69 4077
15 69 10613
16 69 4504
17 69 5000
18 69 9608
19 69 3153
20 69 7848
21 69 2794
22 69 2763
23 69 6764
24 69 10078
25 69 9127
26 69 4518
27 69 13806
28 69 6192
29 69 7728
30 69 5403
31 69 8378
32 69 8717
33 69 3543
34 69 2558
35 69 9554
36 69 8421
37 69 7605
38 69 5115
39 69 7912
40 69 8729
41 69 3354
42 69 10162
43 69 3235
44 69 2921
45 69 10525
46 69 1650
47 69 7860
48 69 4697
49 69 9158
50 69 4107
51 69 7485
52 69 10161
53 69 6668
54 69 6056
55 69 5006
56 69 4182
57 69 13505
58 69 6107
59 69 7993
60 69 8644
61 69 7404
62 69 5784
63 69 5215
64 69 4796
65 69 8651
66 69 4370
67 69 34261
68 69 5181
69 69 10002
70 69 6610
71 69 7336
72 69 5926
73 69 13695
74 69 12213
75 69 6076
76 69 7706
77 69 5169
78 69 5728
79 69 10141
80 69 3748
81 69 6978
82 69 9095
83 69 4729
84 69 9678
85 69 7464
86 69 7413
87 69 4662
88 69 5726
89 69 6249
90 69 7098
91 69 6107
92 69 4542
93 69 7837
94 69 6080
95 69 7645
96 69 7244
97 69 5258
98 69 5942
99 69 7257
100 69 7846
101 69 8670
102 69 4542
103 69 5685
104 69 9866
105 69 11999
106 69 6918
107 69 7082
108 69 7309
109 69 7280
110 69 4033
111 69 4798
112 69 5316
113 69 6024
114 69 4438
115 69 7570
116 69 5797
117 69 8091
118 69 5097
119 69 6375
120 69 5605
121 69 8735
122 69 7609
123 69 7958
124 69 5195
125 69 5105
126 69 5474
127 69 7717
128 69 3387
129 69 7364
130 69 2757
131 69 5486
132 69 7634
133 69 7661
134 69 4729
135 69 6839
136 69 4861
137 69 5837
138 69 3955
139 69 9137
140 69 8331
141 69 6480
142 69 9459
143 69 8040
144 69 8797
145 69 6944
146 69 1206
147 69 6234
148 69 5626
149 69 8897
150 69 7424
151 69 7160
152 69 9377
153 69 10303
154 69 7321
155 69 4204
156 69 7215
157 69 9375
158 69 3618
159 69 4952
160 69 4147
161 69 12002
162 69 5612
163 69 5329
164 69 4099
165 69 8295
166 69 11377
167 69 4402
168 69 6969
169 69 6149
170 69 8730
171 69 6382
172 69 9289
173 69 4361
174 69 2652
175 69 5882
176 69 6074
177 69 6525
178 69 5361
179 69 3425
180 69 11707
181 69 8493
182 69 6011
183 69 8468
184 69 12302
185 69 5442
186 69 6754
187 69 6139
188 69 9851
189 69 8682
190 69 6440
191 69 7191
192 69 4348
193 69 5682
194 69 10242
195 69 4895
196 69 3588
197 69 7300
198 69 8615
199 69 7897
200 69 5071
201 69 6980
202 69 7810
203 69 3979
204 69 6712
205 69 5780
206 69 6210
207 69 3390
208 69 7524
209 69 2989
210 69 10845
211 69 9078
212 69 7090
213 69 7900
214 69 5730
215 69 9868
216 69 8287
217 69 8722
218 69 7121
219 69 4832
220 69 10168
221 69 3683
222 69 5615
223 69 4919
224 69 3778
225 69 5804
226 69 5537
227 69 2959
228 69 11173
229 69 6593
230 69 7414
231 69 2407
232 69 5865
233 69 9368
234 69 6318
235 69 8568
236 69 4662
237 69 7278
238 69 6598
239 69 7281
240 69 9048
241 69 5563
242 69 6340
243 69 5966
244 69 8272
245 69 4470
246 69 5784
247 69 10543
248 69 10754
249 69 4578
250 69 8099
251 69 4504
252 69 6358
253 69 11326
254 69 4858
255 69 8899
256 69 6164
257 69 7039
258 69 5291
259 69 3676
260 69 8678
261 69 7000
262 69 5037
263 69 5821
264 69 6000
265 69 10118
266 69 8831
267 69 7174
268 69 5449
269 69 5532
270 69 9682
271 69 6934
272 69 11016
273 69 4423
274 69 6362
275 69 5473
276 69 5672
277 69 8713
278 69 6193
279 69 5018
280 69 7421
281 69 5767
282 69 10735
283 69 9803
284 69 5559
285 69 5944
286 69 5990
287 69 8760
288 69 6547
289 69 10011
290 69 4169
291 69 4548
292 69 7488
293 69 6621
294 69 4878
295 69 8762
296 69 6377
297 69 3025
298 69 5514
299 69 6980
300 69 6284
301 69 6413
302 69 7778
303 69 5512
304 69 4695
305 69 8622
306 69 6070
307 69 7998
308 69 6507
309 69 7160
310 69 5653
311 69 5383
312 69 7678
313 69 9069
314 69 3367
315 69 7002
316 69 7530
317 69 3098
318 69 6346
319 69 8072
320 69 7288
321 69 5803
322 69 8745
323 69 6470
324 69 6806
325 69 6057
326 69 8004
327 69 9878
328 69 4177
329 69 7162
330 69 11114
331 69 5016
332 69 13819
333 69 7187
334 69 8336
335 69 4232
336 69 8035
337 69 6980
338 69 7861
339 69 1220
340 69 4228
341 69 4239
342 69 5946
343 69 4619
344 69 5579
345 69 8226
346 69 4993
347 69 5149
348 69 6966
349 69 4587
350 69 6040
351 69 3986
352 69 5303
353 69 4001
354 69 5098
355 69 6656
356 69 5467
357 69 4276
358 69 6020
359 69 6998
360 69 8767
361 69 6012
362 69 8378
363 69 4159
364 69 5891
365 69 7993
366 69 6703
367 69 7534
368 69 2847
369 69 10231
370 69 6044
371 69 5132
372 69 6016
373 69 4578
374 69 6411
375 69 8705
376 69 6178
377 69 6098
378 69 6241
379 69 10029
380 69 6610
381 69 11966
382 69 5511
383 69 9355
384 69 7452
385 69 8959
386 69 9969
387 69 5205
388 69 5351
389 69 4112
390 69 6129
391 69 5418
392 69 8114
393 69 9262
394 69 5469
395 69 6735
396 69 6423
397 69 6145
398 69 6533
399 69 2934
400 69 8774
401 69 5306
402 69 5877
403 69 5446
404 69 9038
405 69 4620
406 69 6357
407 69 5022
408 69 8067
409 69 4811
410 69 7043
411 69 5757
412 69 7808
413 69 34617
414 69 7844
415 69 4105
416 69 6543
417 69 4816
418 69 5997
419 69 6534
420 69 6029
421 69 5297
422 69 7167
423 69 3606
424 69 7578
425 69 9587
426 69 4589
427 69 2654
428 69 2449
429 69 14414
430 69 6830
431 69 7909
432 69 6195
433 69 7790
434 69 5950
435 69 7272
436 69 7139
437 69 6351
438 69 2844
439 69 8684
440 69 7431
441 69 5718
442 69 6108
443 69 4349
444 69 8194
445 69 7270
446 69 6764
447 69 7613
448 69 17763
449 69 3570
450 69 7638
451 69 6334
452 69 7421
453 69 6775
454 69 5880
455 69 5296
456 69 7566
457 69 4298
458 69 12875
459 69 5764
460 69 6017
461 69 8898
462 69 8021
463 69 7086
464 69 8916
465 69 3448
466 69 6626
467 69 7030
468 69 6111
469 69 9882
470 69 17763
471 69 4999
472 69 7526
473 69 3938
474 69 7070
475 69 7735
476 69 8085
477 69 7869
478 69 6235
479 69 5929
480 69 7757
481 69 5993
482 69 7396
483 69 7343
484 69 6950
485 69 4068
486 69 11122
487 69 6317
488 69 4754
489 69 5912
490 69 7167
491 69 3687
492 69 13233
493 69 9352
494 69 4313
495 69 9497
496 69 9132
497 69 7732
498 69 5590
499 69 5972
500 69 4773
10 70 1968
13 70 21
14 70 344
15 70 11
16 70 5
18 70 800
19 70 1049
22 70 1769
25 70 10
27 70 6
30 70 1000
34 70 799
43 70 1047
44 70 756
46 70 1066
47 70 69
58 70 2979
59 70 79
67 70 1519
72 70 1298
94 70 18
96 70 21
99 70 1222
102 70 19
107 70 151
110 70 2000
111 70 167
112 70 1278
117 70 1601
130 70 1768
136 70 2
138 70 2712
145 70 2093
146 70 212
152 70 1162
153 70 8
157 70 1157
159 70 33
176 70 3784
177 70 1630
192 70 2145
201 70 2145
210 70 2229
221 70 1693
233 70 1180
237 70 915
245 70 1708
248 70 2317
251 70 1267
253 70 2703
256 70 3796
259 70 108
268 70 1979
275 70 585
280 70 1255
292 70 86
294 70 2045
295 70 14
315 70 2013
317 70 2388
323 70 1602
335 70 245
336 70 1272
338 70 1256
339 70 265
345 70 1257
353 70 7
354 70 2101
356 70 1985
357 70 2188
368 70 871
371 70 3
372 70 2987
383 70 643
384 70 101
398 70 1857
402 70 1497
403 70 1410
411 70 1408
413 70 1456
416 70 1990
419 70 15
426 70 1788
427 70 1751
434 70 1352
436 70 112
438 70 1287
443 70 274
455 70 1313
465 70 183
468 70 1490
472 70 51
496 70 21
500 70 1812
1 71 6592
2 71 8036
3 71 5833
4 71 9698
5 71 5714
6 71 7486
7 71 8086
8 71 7903
9 71 6243
10 71 278
11 71 39559
12 71 4441
13 71 3127
14 71 1311
15 71 8671
16 71 5397
17 71 4418
18 71 1849
19 71 1070
20 71 5336
21 71 7183
22 71 271
23 71 4869
24 71 6694
25 71 5047
26 71 4246
27 71 3213
28 71 6851
29 71 7713
30 71 1568
31 71 7065
32 71 6243
33 71 11524
34 71 675
35 71 8349
36 71 9011
37 71 6929
38 71 10641
39 71 6198
40 71 10514
41 71 9083
42 71 5102
43 71 1098
44 71 473
45 71 9937
46 71 827
47 71 5457
48 71 9418
49 71 7378
50 71 10864
51 71 8031
52 71 6463
53 71 10834
54 71 7505
55 71 5966
56 71 10141
57 71 8872
58 71 161
59 71 5395
60 71 7770
61 71 4541
62 71 5905
63 71 5870
64 71 5299
65 71 7446
66 71 4983
67 71 506
68 71 9441
69 71 6740
70 71 5611
71 71 7157
72 71 758
73 71 8995
74 71 4359
75 71 6840
76 71 6268
77 71 7246
78 71 13017
79 71 5323
80 71 11048
81 71 8711
82 71 3657
83 71 5832
84 71 6149
85 71 7198
86 71 7625
87 71 6042
88 71 8178
89 71 6982
90 71 7268
91 71 7667
92 71 5058
93 71 9094
94 71 8688
95 71 5880
96 71 6121
97 71 11203
98 71 6303
99 71 717
100 71 13599
101 71 9240
102 71 3953
103 71 6253
104 71 8525
105 71 9973
106 71 6942
107 71 4513
108 71 7224
109 71 7150
110 71 107
111 71 2405
112 71 47
113 71 9378
114 71 7451
115 71 7339
116 71 11187
117 71 525
118 71 9968
119 71 8521
120 71 8306
121 71 7234
122 71 8528
123 71 8450
124 71 7187
125 71 5306
126 71 4668
127 71 7366
128 71 6968
129 71 5881
130 71 278
131 71 7989
132 71 14151
133 71 5233
134 71 13035
135 71 3220
136 71 3171
137 71 7785
138 71 62
139 71 6872
140 71 8934
141 71 4308
142 71 7907
143 71 13653
144 71 7104
145 71 58
146 71 1954
147 71 11400
148 71 5725
149 71 5703
150 71 3512
151 71 6818
152 71 43
153 71 2820
154 71 7143
155 71 9061
156 71 8409
157 71 49
158 71 11793
159 71 2969
160 71 8973
161 71 7987
162 71 39555
163 71 4346
164 71 10822
165 71 4610
166 71 17361
167 71 9727
168 71 8470
169 71 8522
170 71 5053
171 71 9873
172 71 6690
173 71 11655
174 71 3104
175 71 6467
176 71 151
177 71 1273
178 71 7455
179 71 8810
180 71 10242
181 71 6722
182 71 7473
183 71 4385
184 71 10831
185 71 7513
186 71 22020
187 71 6807
188 71 3856
189 71 6676
190 71 7466
191 71 8745
192 71 182
193 71 39382
194 71 6668
195 71 2826
196 71 11887
197 71 7275
198 71 7746
199 71 5354
200 71 9239
201 71 66
202 71 7941
203 71 9350
204 71 6339
205 71 5994
206 71 7694
207 71 8917
208 71 7248
209 71 3228
210 71 577
211 71 5492
212 71 7239
213 71 5362
214 71 8838
215 71 3737
216 71 8071
217 71 6501
218 71 8780
219 71 6946
220 71 6738
221 71 78
222 71 7824
223 71 5910
224 71 10862
225 71 7296
226 71 6199
227 71 7264
228 71 7409
229 71 7109
230 71 10873
231 71 2904
232 71 16788
233 71 39
234 71 4350
235 71 9140
236 71 6030
237 71 1017
238 71 7023
239 71 7541
240 71 7547
241 71 5952
242 71 7195
243 71 12866
244 71 6175
245 71 198
246 71 7987
247 71 5307
248 71 508
249 71 9459
250 71 7684
251 71 1236
252 71 7734
253 71 183
254 71 2748
255 71 9189
256 71 145
257 71 10954
258 71 6513
259 71 4022
260 71 9381
261 71 7435
262 71 9352
263 71 7278
264 71 7664
265 71 6648
266 71 5866
267 71 9901
268 71 109
269 71 13909
270 71 6282
271 71 7747
272 71 9542
273 71 6151
274 71 4300
275 71 2042
276 71 38957
277 71 9057
278 71 5904
279 71 9153
280 71 737
281 71 7445
282 71 15030
283 71 8404
284 71 7520
285 71 11226
286 71 11410
287 71 5974
288 71 3885
289 71 3818
290 71 4779
291 71 4564
292 71 2200
293 71 9326
294 71 175
295 71 4524
296 71 8077
297 71 2597
298 71 5273
299 71 7836
300 71 3928
301 71 7263
302 71 8427
303 71 7408
304 71 5987
305 71 7971
306 71 8437
307 71 5192
308 71 5968
309 71 8084
310 71 3828
311 71 8354
312 71 5921
313 71 7480
314 71 6875
315 71 62
316 71 7335
317 71 121
318 71 7664
319 71 11598
320 71 7123
321 71 9069
322 71 10277
323 71 1235
324 71 7812
325 71 8706
326 71 5865
327 71 6787
328 71 11145
329 71 7134
330 71 9721
331 71 9544
332 71 8929
333 71 8419
334 71 7614
335 71 821
336 71 1421
337 71 8622
338 71 1433
339 71 1963
340 71 10424
341 71 11590
342 71 6114
343 71 4886
344 71 7962
345 71 1446
346 71 6058
347 71 10701
348 71 6309
349 71 5964
350 71 9280
351 71 9403
352 71 7463
353 71 2617
354 71 153
355 71 5571
356 71 101
357 71 197
358 71 6475
359 71 10162
360 71 6519
361 71 6120
362 71 7286
363 71 4829
364 71 5835
365 71 5961
366 71 4103
367 71 5815
368 71 1130
369 71 6685
370 71 9552
371 71 9001
372 71 168
373 71 9424
374 71 5290
375 71 7719
376 71 7653
377 71 6687
378 71 7761
379 71 8234
380 71 10349
381 71 7846
382 71 4245
383 71 793
384 71 2177
385 71 4704
386 71 8434
387 71 5042
388 71 7425
389 71 10493
390 71 8325
391 71 4339
392 71 5634
393 71 5544
394 71 17907
395 71 3145
396 71 7212
397 71 6953
398 71 13
399 71 9317
400 71 6208
401 71 9939
402 71 34
403 71 548
404 71 9082
405 71 8963
406 71 5713
407 71 10237
408 71 11489
409 71 11303
410 71 12832
411 71 733
412 71 7545
413 71 533
414 71 8564
415 71 10521
416 71 14
417 71 11443
418 71 6772
419 71 4169
420 71 6468
421 71 5393
422 71 8595
423 71 4376
424 71 7140
425 71 7224
426 71 193
427 71 276
428 71 10854
429 71 5938
430 71 7975
431 71 6243
432 71 13474
433 71 8042
434 71 809
435 71 7422
436 71 4509
437 71 9794
438 71 181
439 71 7727
440 71 7806
441 71 3865
442 71 7169
443 71 878
444 71 11435
445 71 17767
446 71 9503
447 71 7868
448 71 8170
449 71 4494
450 71 8331
451 71 7148
452 71 6007
453 71 14342
454 71 6494
455 71 54
456 71 11664
457 71 4947
458 71 6650
459 71 13029
460 71 8935
461 71 9196
462 71 5622
463 71 8117
464 71 3734
465 71 1917
466 71 5694
467 71 7517
468 71 39
469 71 3814
470 71 8263
471 71 5727
472 71 2597
473 71 6774
474 71 7354
475 71 4594
476 71 5294
477 71 7830
478 71 7638
479 71 11683
480 71 11797
481 71 6696
482 71 7281
483 71 7657
484 71 8525
485 71 5404
486 71 7489
487 71 7342
488 71 6004
489 71 9783
490 71 7238
491 71 11850
492 71 5701
493 71 9411
494 71 4688
495 71 13190
496 71 5013
497 71 6605
498 71 8683
499 71 6140
500 71 180
10 72 1586
13 72 157
14 72 884
15 72 66
16 72 87
17 72 79
18 72 940
19 72 537
22 72 1155
25 72 373
26 72 47
27 72 73
30 72 924
34 72 1061
43 72 519
44 72 259
46 72 1018
47 72 171
56 72 7
58 72 1060
59 72 181
64 72 6
67 72 799
70 72 26
72 72 746
77 72 108
83 72 8
85 72 5
88 72 4
96 72 81
97 72 13
99 72 1509
102 72 78
107 72 190
110 72 1375
111 72 400
112 72 1364
115 72 8
117 72 1600
118 72 4
127 72 11
130 72 1137
134 72 5
136 72 151
138 72 408
145 72 1001
146 72 227
152 72 576
153 72 78
157 72 603
159 72 202
170 72 13
173 72 16
176 72 1598
177 72 258
192 72 1691
201 72 1025
210 72 1089
216 72 3
218 72 3
221 72 1555
231 72 2
233 72 590
237 72 836
245 72 1775
248 72 1092
251 72 1231
253 72 1754
256 72 1676
259 72 163
268 72 1433
275 72 330
280 72 1517
281 72 55
284 72 11
291 72 11
292 72 959
294 72 750
295 72 55
297 72 61
315 72 1039
316 72 8
317 72 1324
323 72 257
324 72 4
335 72 1114
336 72 514
338 72 520
339 72 248
341 72 11
345 72 505
353 72 161
354 72 775
355 72 29
356 72 1493
357 72 1719
368 72 1109
371 72 6
372 72 1105
383 72 457
384 72 987
397 72 32
398 72 1271
399 72 160
402 72 990
403 72 763
407 72 3
411 72 738
413 72 881
416 72 1255
418 72 3
419 72 35
426 72 1872
427 72 1149
434 72 753
436 72 213
438 72 935
443 72 1160
455 72 1287
464 72 64
465 72 511
468 72 978
472 72 554
485 72 6
496 72 341
497 72 15
500 72 1843
10 73 2679
13 73 104
14 73 1457
15 73 3
16 73 4
17 73 6
18 73 1463
19 73 1001
22 73 1019
25 73 36
27 73 23
30 73 1248
34 73 1512
43 73 1007
44 73 1224
46 73 920
47 73 97
58 73 1125
59 73 110
67 73 1386
70 73 4
72 73 1806
77 73 2
99 73 1032
102 73 34
107 73 121
110 73 2060
111 73 103
112 73 1117
117 73 1520
130 73 983
136 73 13
138 73 1062
145 73 2113
146 73 179
152 73 759
153 73 44
157 73 750
159 73 32
173 73 9
176 73 1971
177 73 1534
192 73 1998
201 73 2206
210 73 1293
221 73 2093
233 73 766
237 73 1136
245 73 1908
248 73 1238
251 73 1529
253 73 2495
256 73 1936
259 73 48
268 73 1593
275 73 980
280 73 991
281 73 36
292 73 579
294 73 964
295 73 5
297 73 2
299 73 7
315 73 2121
317 73 1206
323 73 1559
335 73 990
336 73 1493
338 73 1481
339 73 162
341 73 6
345 73 1476
353 73 4
354 73 920
355 73 4
356 73 1609
357 73 1934
368 73 608
372 73 1151
383 73 214
384 73 601
398 73 1603
399 73 4
402 73 925
403 73 846
411 73 1846
413 73 1419
416 73 1541
426 73 1950
427 73 998
434 73 1859
436 73 138
438 73 920
443 73 1088
455 73 1102
465 73 589
468 73 840
472 73 74
496 73 46
500 73 1830
1 74 6430
2 74 2633
3 74 6711
4 74 6745
5 74 4506
6 74 6218
7 74 10000
8 74 4203
9 74 3915
10 74 444
11 74 2813
12 74 3671
13 74 3783
14 74 1548
15 74 3706
16 74 1894
17 74 3545
18 74 1375
19 74 1543
20 74 5615
21 74 3615
22 74 543
23 74 4052
24 74 5402
25 74 4673
26 74 4885
27 74 5064
28 74 4700
29 74 4303
30 74 4155
31 74 4618
32 74 3158
33 74 2368
34 74 2175
35 74 5087
36 74 8928
37 74 9059
38 74 4262
39 74 4808
40 74 4571
41 74 5370
42 74 4397
43 74 1564
44 74 699
45 74 6148
46 74 760
47 74 2944
48 74 4255
49 74 4534
50 74 4417
51 74 3610
52 74 5470
53 74 5423
54 74 7651
55 74 5315
56 74 4181
57 74 4997
58 74 175
59 74 2913
60 74 5643
61 74 5534
62 74 3819
63 74 6379
64 74 3419
65 74 6422
66 74 3697
67 74 939
68 74 6282
69 74 5420
70 74 5760
71 74 4987
72 74 598
73 74 5192
74 74 5852
75 74 4623
76 74 5373
77 74 2719
78 74 4564
79 74 4326
80 74 4510
81 74 4679
82 74 3234
83 74 2940
84 74 8559
85 74 5546
86 74 4911
87 74 7777
88 74 3975
89 74 4823
90 74 3780
91 74 6138
92 74 4056
93 74 7041
94 74 6733
95 74 8329
96 74 3186
97 74 3840
98 74 3824
99 74 465
100 74 4448
101 74 5463
102 74 4075
103 74 3180
104 74 7183
105 74 3838
106 74 3421
107 74 3000
108 74 4839
109 74 5035
110 74 115
111 74 1204
112 74 64
113 74 6277
114 74 6235
115 74 5503
116 74 3790
117 74 657
118 74 3576
119 74 3618
120 74 4194
121 74 4522
122 74 8704
123 74 5731
124 74 5535
125 74 3314
126 74 4114
127 74 5496
128 74 6317
129 74 4840
130 74 511
131 74 10050
132 74 3677
133 74 3620
134 74 5597
135 74 4459
136 74 2642
137 74 6952
138 74 41
139 74 3186
140 74 8944
141 74 3379
142 74 5210
143 74 4308
144 74 4639
145 74 159
146 74 1785
147 74 5390
148 74 5130
149 74 5809
150 74 4535
151 74 3356
152 74 36
153 74 3113
154 74 4689
155 74 3273
156 74 4517
157 74 54
158 74 2244
159 74 3619
160 74 3305
161 74 4711
162 74 2841
163 74 3549
164 74 4426
165 74 3658
166 74 5073
167 74 4082
168 74 3611
169 74 5374
170 74 2775
171 74 5909
172 74 2965
173 74 2852
174 74 1703
175 74 3135
176 74 341
177 74 807
178 74 2897
179 74 5431
180 74 8283
181 74 3703
182 74 7042
183 74 3566
184 74 10198
185 74 3909
186 74 4788
187 74 4546
188 74 6059
189 74 3717
190 74 6246
191 74 3924
192 74 50
193 74 2858
194 74 5559
195 74 2873
196 74 2207
197 74 6866
198 74 5689
199 74 9554
200 74 6381
201 74 183
202 74 4192
203 74 3363
204 74 5585
205 74 4245
206 74 3833
207 74 5455
208 74 3824
209 74 3482
210 74 110
211 74 5796
212 74 4913
213 74 9383
214 74 7536
215 74 6294
216 74 4855
217 74 4498
218 74 4450
219 74 3859
220 74 5587
221 74 8
222 74 5306
223 74 6049
224 74 4572
225 74 2439
226 74 4955
227 74 3615
228 74 6298
229 74 6690
230 74 3553
231 74 2351
232 74 6250
233 74 53
234 74 3324
235 74 5594
236 74 7640
237 74 2416
238 74 6625
239 74 4882
240 74 4507
241 74 5312
242 74 2897
243 74 4195
244 74 5575
245 74 73
246 74 3781
247 74 3265
248 74 137
249 74 5292
250 74 10661
251 74 891
252 74 3901
253 74 105
254 74 2786
255 74 6364
256 74 363
257 74 5825
258 74 3807
259 74 3658
260 74 4147
261 74 3844
262 74 6264
263 74 2327
264 74 5596
265 74 5485
266 74 5097
267 74 4958
268 74 131
269 74 4163
270 74 4394
271 74 4838
272 74 6428
273 74 2693
274 74 3367
275 74 2277
276 74 2891
277 74 3545
278 74 5821
279 74 9120
280 74 400
281 74 3465
282 74 5012
283 74 7234
284 74 3046
285 74 3906
286 74 4479
287 74 3805
288 74 4851
289 74 6334
290 74 2791
291 74 3412
292 74 2350
293 74 6227
294 74 74
295 74 2555
296 74 6000
297 74 2401
298 74 4691
299 74 3691
300 74 4763
301 74 2893
302 74 5970
303 74 3206
304 74 7927
305 74 5623
306 74 5067
307 74 5803
308 74 6514
309 74 4426
310 74 3602
311 74 4208
312 74 4629
313 74 4431
314 74 6504
315 74 189
316 74 5560
317 74 414
318 74 3811
319 74 5589
320 74 2644
321 74 4648
322 74 8240
323 74 808
324 74 4882
325 74 5301
326 74 4352
327 74 4644
328 74 4436
329 74 2755
330 74 6477
331 74 6283
332 74 4619
333 74 7910
334 74 3791
335 74 1054
336 74 1419
337 74 4762
338 74 1422
339 74 1836
340 74 8088
341 74 2881
342 74 4221
343 74 3844
344 74 10134
345 74 1382
346 74 3094
347 74 4175
348 74 5636
349 74 7736
350 74 6387
351 74 6525
352 74 3922
353 74 3555
354 74 60
355 74 5731
356 74 150
357 74 38
358 74 3811
359 74 5134
360 74 4328
361 74 7199
362 74 7714
363 74 2826
364 74 6678
365 74 5179
366 74 3269
367 74 3135
368 74 1666
369 74 5431
370 74 6866
371 74 8176
372 74 202
373 74 5140
374 74 3182
375 74 5651
376 74 6115
377 74 4699
378 74 5025
379 74 7160
380 74 6929
381 74 4632
382 74 3585
383 74 3265
384 74 2353
385 74 7463
386 74 7209
387 74 2432
388 74 3233
389 74 7944
390 74 5205
391 74 3610
392 74 3226
393 74 5822
394 74 6540
395 74 4502
396 74 3389
397 74 3761
398 74 5
399 74 3498
400 74 3033
401 74 4390
402 74 52
403 74 2175
404 74 6219
405 74 4634
406 74 7034
407 74 3559
408 74 5926
409 74 3143
410 74 4047
411 74 616
412 74 10886
413 74 954
414 74 6132
415 74 8029
416 74 4
417 74 3057
418 74 5221
419 74 2535
420 74 3871
421 74 1889
422 74 3783
423 74 3403
424 74 4263
425 74 4005
426 74 60
427 74 503
428 74 2129
429 74 8052
430 74 4943
431 74 5386
432 74 4837
433 74 5714
434 74 567
435 74 4328
436 74 2837
437 74 5559
438 74 590
439 74 5574
440 74 7038
441 74 3526
442 74 6359
443 74 1092
444 74 4786
445 74 5375
446 74 5745
447 74 7319
448 74 3747
449 74 3370
450 74 5125
451 74 4327
452 74 4524
453 74 2953
454 74 3119
455 74 65
456 74 5554
457 74 3706
458 74 4629
459 74 6818
460 74 5429
461 74 6297
462 74 3209
463 74 4528
464 74 5003
465 74 2543
466 74 4773
467 74 2417
468 74 65
469 74 6288
470 74 3755
471 74 5502
472 74 4241
473 74 4796
474 74 5384
475 74 3505
476 74 4481
477 74 4268
478 74 3896
479 74 9630
480 74 4852
481 74 3918
482 74 4376
483 74 5055
484 74 3858
485 74 2989
486 74 6305
487 74 3457
488 74 7800
489 74 5071
490 74 4443
491 74 2277
492 74 4440
493 74 7084
494 74 2764
495 74 7397
496 74 4858
497 74 6608
498 74 2841
499 74 7301
500 74 89
1 75 2423
3 75 343
4 75 1001
5 75 2921
6 75 2224
7 75 135
8 75 453
9 75 1025
11 75 65
12 75 97
15 75 119
17 75 84
20 75 1422
23 75 1467
24 75 79
25 75 82
28 75 1189
29 75 477
31 75 4075
32 75 94
33 75 2
35 75 1827
36 75 2953
37 75 753
38 75 996
39 75 2158
40 75 1576
41 75 608
42 75 253
45 75 1863
47 75 101
48 75 3078
49 75 497
50 75 1123
51 75 861
52 75 2533
53 75 2806
54 75 48
55 75 1839
56 75 132
57 75 2947
59 75 89
60 75 149
62 75 1515
63 75 2172
64 75 673
65 75 1824
68 75 145
69 75 86
70 75 27
71 75 1309
73 75 2988
74 75 1551
75 75 1187
76 75 2015
78 75 927
79 75 223
80 75 10
81 75 716
84 75 2145
85 75 479
86 75 2406
87 75 156
88 75 181
89 75 2234
90 75 1899
91 75 1457
92 75 536
93 75 2805
94 75 2003
95 75 3394
96 75 348
97 75 74
98 75 298
100 75 265
101 75 880
104 75 560
105 75 1404
106 75 2038
107 75 123
108 75 2218
109 75 1330
113 75 1904
114 75 2618
115 75 495
116 75 1318
118 75 675
119 75 920
120 75 2428
121 75 2276
122 75 1161
123 75 2960
124 75 1775
126 75 4
127 75 490
129 75 1896
131 75 141
132 75 1030
134 75 1304
135 75 63
137 75 2364
139 75 1205
140 75 2845
141 75 97
142 75 2809
143 75 1243
144 75 2263
147 75 935
148 75 1025
149 75 1475
151 75 1209
154 75 457
155 75 160
156 75 1661
158 75 4
160 75 163
161 75 286
162 75 75
163 75 1544
164 75 1156
165 75 75
166 75 2899
167 75 15
168 75 36
169 75 1168
170 75 100
171 75 1936
172 75 993
178 75 479
179 75 638
180 75 2003
181 75 1453
182 75 2403
183 75 80
184 75 4244
185 75 1454
186 75 1633
187 75 1394
188 75 165
189 75 1459
190 75 2158
191 75 293
193 75 70
194 75 64
195 75 782
196 75 3
197 75 2282
198 75 139
199 75 2386
200 75 149
202 75 460
203 75 634
204 75 984
205 75 1246
206 75 491
207 75 651
208 75 2442
211 75 1493
212 75 1310
213 75 2333
214 75 564
215 75 183
216 75 919
217 75 2272
218 75 373
219 75 1565
220 75 83
222 75 1731
223 75 1034
224 75 12
225 75 2197
226 75 1986
228 75 2345
229 75 2608
230 75 729
232 75 1621
234 75 99
235 75 1442
236 75 160
238 75 2553
239 75 2432
240 75 405
241 75 1133
242 75 1481
243 75 707
244 75 1817
246 75 658
247 75 282
249 75 424
250 75 579
252 75 478
254 75 750
255 75 1921
257 75 1793
258 75 304
259 75 9
260 75 2536
261 75 1978
262 75 133
263 75 2155
264 75 1491
265 75 80
266 75 1278
267 75 899
269 75 360
270 75 1274
271 75 191
272 75 1500
274 75 116
276 75 69
277 75 165
278 75 2074
279 75 1719
281 75 31
282 75 752
283 75 552
284 75 1387
285 75 1340
286 75 1317
287 75 1784
288 75 385
289 75 154
290 75 334
292 75 5
293 75 2444
295 75 72
296 75 3213
298 75 886
299 75 1815
300 75 374
301 75 1490
302 75 1255
303 75 2573
304 75 152
305 75 133
306 75 2042
307 75 1398
308 75 339
309 75 1731
311 75 2448
312 75 280
313 75 463
316 75 471
318 75 439
319 75 2376
320 75 155
321 75 1147
322 75 1109
324 75 1567
325 75 841
326 75 1306
327 75 2550
328 75 1126
329 75 131
330 75 1490
331 75 145
332 75 2729
333 75 2237
334 75 1412
337 75 697
340 75 3034
342 75 1009
343 75 1483
344 75 136
346 75 2396
347 75 928
348 75 3414
349 75 183
350 75 1806
351 75 1096
352 75 1468
355 75 24
358 75 280
359 75 869
360 75 2288
361 75 1345
362 75 1250
363 75 307
364 75 1982
365 75 652
366 75 3128
367 75 774
369 75 85
370 75 1018
371 75 177
373 75 417
374 75 256
375 75 160
376 75 1376
377 75 1400
378 75 738
379 75 576
380 75 1891
381 75 294
382 75 1021
384 75 1
385 75 1082
386 75 572
388 75 2518
389 75 3033
390 75 2054
391 75 1060
393 75 1410
394 75 1618
395 75 54
396 75 280
397 75 575
400 75 115
401 75 3968
404 75 1891
405 75 1040
406 75 1853
407 75 722
408 75 1095
410 75 52
412 75 550
414 75 1244
415 75 2968
418 75 948
419 75 964
420 75 328
422 75 335
424 75 2387
425 75 110
429 75 1276
430 75 178
431 75 1272
432 75 1093
433 75 1584
435 75 800
436 75 114
437 75 642
439 75 137
440 75 1505
442 75 1098
444 75 1058
445 75 279
446 75 1801
447 75 1562
448 75 383
450 75 1183
451 75 988
452 75 166
453 75 1065
456 75 6
458 75 2043
459 75 2171
460 75 820
461 75 1950
463 75 1712
464 75 133
466 75 2048
467 75 4
469 75 187
470 75 357
471 75 562
473 75 1525
474 75 1316
475 75 2188
476 75 992
477 75 453
478 75 497
479 75 2731
480 75 3128
481 75 278
482 75 790
483 75 2438
484 75 3683
485 75 37
486 75 2371
488 75 173
489 75 1281
490 75 1120
491 75 2
492 75 857
493 75 1941
494 75 336
495 75 1629
496 75 107
497 75 68
498 75 324
499 75 1349
1 76 6224
3 76 2850
4 76 3797
5 76 5424
6 76 5836
7 76 908
8 76 2823
9 76 4421
11 76 594
12 76 970
15 76 1204
17 76 1396
18 76 86
20 76 5542
23 76 4203
24 76 1340
25 76 611
26 76 6
28 76 5205
29 76 2749
31 76 8919
32 76 378
33 76 9
35 76 4990
36 76 5793
37 76 4760
38 76 5371
39 76 6124
40 76 8740
41 76 4560
42 76 2330
45 76 6049
47 76 796
48 76 5590
49 76 3217
50 76 4383
51 76 7044
52 76 5628
53 76 6106
54 76 108
55 76 5383
56 76 1574
57 76 7800
59 76 785
60 76 2770
62 76 4736
63 76 6564
64 76 4422
65 76 4497
68 76 2650
69 76 1402
70 76 148
71 76 4555
73 76 8063
74 76 3793
75 76 5183
76 76 6386
77 76 15
78 76 3276
79 76 2360
80 76 8
81 76 4628
83 76 5
84 76 7425
85 76 3719
86 76 6465
87 76 1769
88 76 3921
89 76 6277
90 76 6190
91 76 3958
92 76 2300
93 76 4666
94 76 6864
95 76 8040
96 76 1764
97 76 167
98 76 2524
100 76 2910
101 76 4166
103 76 32
104 76 4522
105 76 5041
106 76 5487
107 76 633
108 76 6621
109 76 4590
113 76 8736
114 76 6046
115 76 3719
116 76 5795
118 76 5384
119 76 3215
120 76 3340
121 76 5750
122 76 6753
123 76 7965
124 76 6245
127 76 3763
129 76 5391
131 76 945
132 76 7576
133 76 6
134 76 5469
135 76 1270
137 76 8415
139 76 5716
140 76 5784
141 76 85
142 76 4035
143 76 4311
144 76 5745
146 76 2
147 76 5391
148 76 3735
149 76 4234
151 76 5462
154 76 5725
155 76 655
156 76 5207
158 76 7
160 76 709
161 76 4682
162 76 612
163 76 7775
164 76 4601
165 76 933
166 76 5685
167 76 821
168 76 2270
169 76 8400
170 76 1330
171 76 6313
172 76 5499
173 76 6
175 76 26
178 76 4584
179 76 4500
180 76 4741
181 76 6380
182 76 8396
183 76 924
184 76 9531
185 76 4189
186 76 3144
187 76 4158
188 76 2949
189 76 6361
190 76 5845
191 76 5926
193 76 576
194 76 1320
195 76 3488
196 76 5
197 76 7306
198 76 2785
199 76 4653
200 76 2657
202 76 2794
203 76 4604
204 76 4798
205 76 7119
206 76 1599
207 76 4495
208 76 6185
209 76 14
211 76 4249
212 76 4683
213 76 4561
214 76 4498
215 76 2937
216 76 2909
217 76 6477
218 76 2707
219 76 4302
220 76 1379
222 76 5368
223 76 5824
224 76 7
225 76 4167
226 76 6121
228 76 5238
229 76 7604
230 76 6026
232 76 4244
234 76 86
235 76 7840
236 76 1749
238 76 7977
239 76 6465
240 76 3043
241 76 3814
242 76 5710
243 76 5342
244 76 8680
246 76 5449
247 76 3580
249 76 4701
250 76 2000
252 76 1667
254 76 3425
255 76 3900
257 76 4214
258 76 3872
260 76 6058
261 76 6088
262 76 2707
263 76 4105
264 76 4169
265 76 1363
266 76 5339
267 76 6122
269 76 7038
270 76 4055
271 76 2445
272 76 6215
273 76 4
274 76 85
276 76 559
277 76 2169
278 76 4308
279 76 4669
281 76 43
282 76 4242
283 76 4518
284 76 3567
285 76 6177
286 76 4302
287 76 3796
288 76 4478
289 76 3001
290 76 3315
291 76 15
293 76 4323
295 76 135
296 76 6923
298 76 4728
299 76 5589
300 76 4330
301 76 5845
302 76 5754
303 76 7236
304 76 1839
305 76 2733
306 76 9255
307 76 5483
308 76 2878
309 76 7761
311 76 3367
312 76 2666
313 76 3090
316 76 3710
318 76 1594
319 76 5836
320 76 2063
321 76 4075
322 76 5554
324 76 5685
325 76 4221
326 76 4982
327 76 6977
328 76 4474
329 76 2142
330 76 6464
331 76 2670
332 76 7417
333 76 4548
334 76 5520
337 76 4747
339 76 5
340 76 6708
341 76 12
342 76 4287
343 76 5052
344 76 968
346 76 10749
347 76 5510
348 76 5213
349 76 1793
350 76 5229
351 76 4057
352 76 4214
355 76 150
358 76 2586
359 76 6081
360 76 6422
361 76 5927
362 76 6224
363 76 3233
364 76 6386
365 76 4606
366 76 5855
367 76 5571
369 76 1403
370 76 3851
371 76 2584
373 76 4634
374 76 2363
375 76 2761
376 76 4073
377 76 4324
378 76 3428
379 76 4374
380 76 6779
381 76 4552
382 76 4682
383 76 5
385 76 7546
386 76 4576
387 76 2
388 76 7328
389 76 6833
390 76 9459
391 76 4770
392 76 119
393 76 4217
394 76 6825
395 76 1309
396 76 6254
397 76 4720
400 76 376
401 76 5335
404 76 3939
405 76 5744
406 76 6169
407 76 5326
408 76 3498
410 76 1860
412 76 2133
414 76 5967
415 76 6769
418 76 3175
419 76 3393
420 76 2570
422 76 5890
423 76 21
424 76 6170
425 76 1965
428 76 8
429 76 6873
430 76 2442
431 76 6931
432 76 4225
433 76 6727
435 76 7983
436 76 665
437 76 4845
439 76 2775
440 76 6275
442 76 6439
444 76 5394
445 76 4749
446 76 6870
447 76 6587
448 76 3190
449 76 14
450 76 5443
451 76 7265
452 76 2028
453 76 9978
454 76 36
456 76 26
458 76 5449
459 76 5225
460 76 4165
461 76 3721
462 76 112
463 76 7962
464 76 3073
466 76 7716
467 76 17
469 76 2850
470 76 3063
471 76 3821
473 76 4528
474 76 4909
475 76 3827
476 76 4205
477 76 2752
478 76 1657
479 76 5706
480 76 6616
481 76 2628
482 76 7954
483 76 6615
484 76 4660
485 76 194
486 76 4950
488 76 1720
489 76 5789
490 76 3541
491 76 8
492 76 6575
493 76 5709
494 76 3251
495 76 8169
496 76 583
497 76 674
498 76 4260
499 76 6112
1 77 5225
3 77 1282
4 77 3527
5 77 4737
6 77 5491
7 77 1002
8 77 1797
9 77 3616
11 77 227
12 77 1289
15 77 442
17 77 1287
20 77 3202
23 77 3349
24 77 1054
25 77 74
28 77 4120
29 77 1767
31 77 5376
32 77 162
35 77 3559
36 77 5544
37 77 6070
38 77 4275
39 77 4145
40 77 4594
41 77 2790
42 77 2651
45 77 4542
47 77 223
48 77 5149
49 77 1680
50 77 4349
51 77 4689
52 77 4947
53 77 4587
54 77 41
55 77 2983
56 77 1643
57 77 6137
59 77 235
60 77 2346
62 77 2639
63 77 3951
64 77 2818
65 77 4587
68 77 2420
69 77 1035
70 77 37
71 77 2687
73 77 6168
74 77 2722
75 77 4108
76 77 4404
78 77 2848
79 77 2837
81 77 3116
84 77 2953
85 77 3449
86 77 7300
87 77 1253
88 77 1971
89 77 1834
90 77 5016
91 77 3371
92 77 2420
93 77 3852
94 77 3570
95 77 5485
96 77 2617
97 77 58
98 77 1825
100 77 3136
101 77 5026
103 77 5
104 77 2623
105 77 5706
106 77 2467
107 77 884
108 77 3913
109 77 2705
113 77 5147
114 77 4409
115 77 3539
116 77 3552
118 77 2279
119 77 4451
120 77 2685
121 77 5031
122 77 5735
123 77 5645
124 77 3231
127 77 3412
129 77 3243
131 77 927
132 77 4733
134 77 4182
135 77 56
137 77 5909
139 77 3576
140 77 5571
141 77 41
142 77 4974
143 77 4651
144 77 5030
147 77 3068
148 77 1583
149 77 2673
151 77 4513
154 77 4115
155 77 175
156 77 3203
160 77 198
161 77 4088
162 77 248
163 77 4190
164 77 4381
165 77 1301
166 77 4628
167 77 86
168 77 678
169 77 5190
170 77 1155
171 77 3399
172 77 3085
175 77 7
178 77 2467
179 77 2698
180 77 2431
181 77 2758
182 77 5820
183 77 1335
184 77 6172
185 77 2779
186 77 4419
187 77 2907
188 77 1469
189 77 2652
190 77 5551
191 77 3758
193 77 259
194 77 1038
195 77 2118
197 77 4813
198 77 2434
199 77 4229
200 77 2366
202 77 1766
203 77 3471
204 77 3498
205 77 3466
206 77 2241
207 77 2741
208 77 3642
211 77 2714
212 77 2695
213 77 4201
214 77 3192
215 77 1453
216 77 4633
217 77 4327
218 77 1991
219 77 3776
220 77 999
222 77 3529
223 77 4512
225 77 3225
226 77 4163
228 77 3443
229 77 2758
230 77 2610
232 77 3354
234 77 61
235 77 3424
236 77 1191
238 77 2941
239 77 7476
240 77 1701
241 77 3936
242 77 3939
243 77 3398
244 77 3059
246 77 3003
247 77 2993
249 77 2908
250 77 2294
252 77 2209
254 77 1954
255 77 2009
257 77 6021
258 77 2815
260 77 3987
261 77 4845
262 77 2356
263 77 3260
264 77 3274
265 77 973
266 77 4929
267 77 2837
269 77 4812
270 77 3723
271 77 801
272 77 5342
274 77 64
276 77 258
277 77 2873
278 77 2964
279 77 4029
281 77 5
282 77 4258
283 77 2545
284 77 2970
285 77 3563
286 77 3362
287 77 4686
288 77 4629
289 77 1509
290 77 3093
293 77 4214
295 77 265
296 77 3482
298 77 1936
299 77 4835
300 77 4632
301 77 3909
302 77 4027
303 77 4538
304 77 1203
305 77 2271
306 77 3995
307 77 3148
308 77 1305
309 77 3184
311 77 2758
312 77 4090
313 77 1898
316 77 3405
317 77 6
318 77 2202
319 77 4263
320 77 2482
321 77 2269
322 77 4623
324 77 3369
325 77 3514
326 77 2921
327 77 3443
328 77 4297
329 77 2400
330 77 5429
331 77 2423
332 77 4259
333 77 5026
334 77 5086
337 77 2891
340 77 4607
342 77 4639
343 77 4742
344 77 923
346 77 5183
347 77 4275
348 77 4458
349 77 1217
350 77 2288
351 77 3373
352 77 2828
355 77 52
358 77 1853
359 77 3034
360 77 4275
361 77 2605
362 77 4289
363 77 3057
364 77 3434
365 77 2430
366 77 3247
367 77 3287
369 77 1065
370 77 3636
371 77 1424
373 77 2917
374 77 1148
375 77 2315
376 77 3287
377 77 2964
378 77 2454
379 77 2680
380 77 2982
381 77 4028
382 77 2611
385 77 2800
386 77 2616
388 77 4328
389 77 4545
390 77 3977
391 77 2644
393 77 2691
394 77 2524
395 77 66
396 77 4546
397 77 2095
400 77 153
401 77 3499
404 77 1987
405 77 3103
406 77 3325
407 77 2348
408 77 4264
410 77 613
412 77 2378
414 77 4100
415 77 4494
418 77 2328
419 77 3865
420 77 1834
422 77 3684
424 77 4297
425 77 1283
429 77 3525
430 77 780
431 77 4342
432 77 5001
433 77 4422
435 77 2913
436 77 851
437 77 5118
439 77 2283
440 77 3818
442 77 4487
444 77 5878
445 77 3429
446 77 4820
447 77 3997
448 77 2469
450 77 2142
451 77 2904
452 77 440
453 77 3294
454 77 6
458 77 2462
459 77 3821
460 77 3440
461 77 2064
463 77 3156
464 77 2151
466 77 3690
469 77 1522
470 77 2472
471 77 4038
473 77 3584
474 77 2780
475 77 2398
476 77 3458
477 77 1799
478 77 2287
479 77 5219
480 77 3987
481 77 1814
482 77 2903
483 77 7439
484 77 4475
485 77 5
486 77 3609
488 77 1184
489 77 2530
490 77 4843
492 77 2979
493 77 5326
494 77 3080
495 77 3785
496 77 79
497 77 146
498 77 4456
499 77 2543
1 78 2976
3 78 4
4 78 82
5 78 2959
6 78 2327
10 78 7
12 78 114
15 78 4
20 78 434
21 78 44
23 78 1665
24 78 16
26 78 3
28 78 287
31 78 3403
35 78 2776
36 78 3029
37 78 2900
38 78 908
39 78 1606
40 78 4852
41 78 67
45 78 2500
48 78 2448
49 78 344
50 78 29
51 78 1461
52 78 1742
53 78 1751
54 78 5
55 78 3656
56 78 46
57 78 2980
62 78 1903
63 78 3637
64 78 351
65 78 3359
68 78 10
69 78 16
71 78 2137
73 78 3010
75 78 264
76 78 1732
83 78 11
84 78 2899
85 78 263
86 78 3252
88 78 10
89 78 2096
90 78 15
91 78 90
93 78 4730
94 78 93
95 78 5009
100 78 181
104 78 374
105 78 2268
106 78 787
107 78 4
108 78 1891
109 78 2143
113 78 3381
114 78 2774
115 78 260
118 78 5
119 78 961
121 78 3256
122 78 1143
123 78 3059
124 78 1339
126 78 26
127 78 278
129 78 1525
132 78 2120
133 78 5
134 78 152
135 78 65
137 78 3262
139 78 1541
140 78 2963
142 78 3211
143 78 589
144 78 3252
145 78 5
147 78 2229
150 78 39
154 78 2337
156 78 2625
161 78 113
163 78 5
164 78 24
165 78 93
166 78 2983
167 78 35
168 78 247
169 78 704
171 78 2816
172 78 2367
178 78 7
179 78 81
180 78 2954
182 78 3289
183 78 87
184 78 3194
186 78 1885
190 78 2285
191 78 1068
194 78 17
195 78 3
197 78 2012
199 78 209
200 78 15
201 78 6
203 78 1030
204 78 2128
205 78 1335
207 78 83
208 78 1822
209 78 7
212 78 2108
213 78 205
214 78 4
216 78 48
217 78 1651
220 78 11
222 78 1886
223 78 2797
225 78 912
226 78 1897
227 78 42
228 78 2722
229 78 744
230 78 3232
231 78 5
232 78 1588
235 78 3968
238 78 771
239 78 3223
240 78 321
241 78 1643
242 78 4
243 78 3481
244 78 2818
246 78 2231
247 78 293
250 78 74
254 78 2
257 78 3954
261 78 12
262 78 18
263 78 908
264 78 1993
265 78 19
266 78 579
267 78 285
269 78 1125
270 78 2750
272 78 3979
273 78 7
278 78 2331
279 78 1763
282 78 2577
283 78 370
284 78 76
286 78 2075
287 78 1798
291 78 4
293 78 1291
296 78 1025
299 78 2359
301 78 4
302 78 1396
303 78 684
306 78 1633
307 78 438
308 78 3
309 78 973
312 78 5
313 78 328
315 78 4
316 78 263
319 78 3487
320 78 22
322 78 4119
324 78 308
325 78 1171
326 78 265
327 78 2056
328 78 32
329 78 13
330 78 4046
331 78 17
332 78 2986
333 78 3303
334 78 3152
340 78 3415
342 78 2909
343 78 2564
346 78 126
347 78 882
348 78 3376
351 78 2255
359 78 287
360 78 1565
361 78 4
362 78 737
364 78 2295
365 78 85
366 78 1831
367 78 1946
369 78 12
370 78 64
374 78 65
376 78 74
379 78 370
380 78 2160
381 78 104
385 78 2347
386 78 391
388 78 708
389 78 3378
390 78 1632
392 78 235
395 78 50
396 78 548
397 78 21
401 78 2346
405 78 1385
406 78 3107
407 78 3
408 78 4031
410 78 213
412 78 80
414 78 1420
415 78 3309
418 78 6
422 78 1099
423 78 4
424 78 1814
425 78 216
428 78 31
429 78 2880
431 78 3069
432 78 3755
433 78 2314
435 78 320
436 78 4
437 78 762
440 78 3232
442 78 2520
444 78 1972
445 78 753
446 78 2577
447 78 3193
448 78 106
449 78 16
450 78 3436
451 78 67
452 78 288
453 78 672
456 78 42
458 78 2790
459 78 2192
460 78 1143
462 78 224
463 78 1038
464 78 15
466 78 1012
470 78 100
471 78 1129
473 78 2074
474 78 1765
475 78 22
476 78 505
479 78 2806
480 78 4350
482 78 349
483 78 3391
484 78 1486
485 78 8
486 78 2670
489 78 2148
490 78 2018
492 78 111
493 78 1031
495 78 2555
497 78 55
499 78 5
1 79 10136
3 79 1064
4 79 3275
5 79 6515
6 79 6602
10 79 57
12 79 1375
13 79 90
14 79 23
15 79 6
19 79 126
20 79 5848
21 79 915
23 79 10278
24 79 1063
25 79 7
26 79 542
28 79 2176
31 79 8973
33 79 300
34 79 184
35 79 7102
36 79 6837
37 79 6191
38 79 4029
39 79 5449
40 79 6588
41 79 1777
42 79 107
43 79 114
44 79 4
45 79 6026
48 79 7383
49 79 7304
50 79 2063
51 79 5233
52 79 6004
53 79 7064
54 79 119
55 79 5804
56 79 137
57 79 4563
61 79 1
62 79 6670
63 79 5664
64 79 2301
65 79 8050
68 79 15
69 79 1030
71 79 8500
73 79 4752
75 79 2129
76 79 6599
79 79 94
83 79 803
84 79 9112
85 79 4461
86 79 10975
88 79 987
89 79 5636
90 79 272
91 79 1139
92 79 5
93 79 5319
94 79 3035
95 79 9466
97 79 114
98 79 46
100 79 4172
102 79 3
104 79 3936
105 79 8681
106 79 5161
107 79 3
108 79 4401
109 79 8363
113 79 4723
114 79 6166
115 79 4342
118 79 59
119 79 7807
121 79 10455
122 79 10330
123 79 7315
124 79 8857
125 79 286
126 79 452
127 79 4265
128 79 95
129 79 4036
132 79 6486
133 79 130
134 79 3444
135 79 2438
136 79 5
137 79 6930
139 79 5932
140 79 6864
142 79 11614
143 79 5424
144 79 10403
145 79 36
146 79 83
147 79 6512
150 79 651
151 79 26
154 79 8566
156 79 5951
158 79 325
161 79 1240
163 79 209
164 79 2072
165 79 1389
166 79 12139
167 79 790
168 79 3040
169 79 10531
170 79 5
171 79 5365
172 79 5606
173 79 337
174 79 56
179 79 1840
180 79 6951
182 79 7005
183 79 1355
184 79 12227
185 79 724
186 79 6225
190 79 6633
191 79 4664
194 79 1058
196 79 322
197 79 7383
199 79 2351
200 79 16
201 79 28
203 79 6167
204 79 4356
205 79 5762
207 79 1786
208 79 6515
209 79 271
212 79 8402
213 79 2280
214 79 83
216 79 1379
217 79 5947
218 79 158
220 79 1050
222 79 5269
223 79 5176
225 79 2393
226 79 4905
227 79 882
228 79 6199
229 79 3580
230 79 6716
231 79 840
232 79 5220
235 79 9810
238 79 3604
239 79 10766
240 79 7221
241 79 5880
242 79 28
243 79 5924
244 79 6796
246 79 7759
247 79 2616
249 79 540
250 79 3062
255 79 823
257 79 6846
261 79 237
262 79 17
263 79 2475
264 79 4364
265 79 1028
266 79 4769
267 79 4069
269 79 4455
270 79 8186
272 79 4012
273 79 336
277 79 229
278 79 4358
279 79 4720
281 79 55
282 79 7536
283 79 3911
284 79 1195
286 79 13647
287 79 6917
290 79 133
291 79 206
293 79 5823
295 79 14
296 79 6101
298 79 227
299 79 2612
301 79 24
302 79 7862
303 79 4880
306 79 6513
307 79 5891
308 79 1004
309 79 4520
312 79 606
313 79 7264
314 79 75
315 79 29
316 79 4269
319 79 5078
320 79 169
322 79 6839
324 79 3577
325 79 7621
326 79 2824
327 79 9460
328 79 2033
329 79 219
330 79 4084
331 79 8
332 79 11686
333 79 4608
334 79 7393
336 79 15
338 79 12
339 79 94
340 79 6187
341 79 331
342 79 5038
343 79 5607
345 79 12
346 79 1549
347 79 4150
348 79 6565
351 79 5753
352 79 705
358 79 62
359 79 4181
360 79 6140
361 79 144
362 79 5540
363 79 123
364 79 5492
365 79 927
366 79 4386
367 79 5828
368 79 18
369 79 1054
370 79 3279
371 79 41
373 79 537
374 79 1439
376 79 1157
378 79 5
379 79 3819
380 79 5191
381 79 1122
383 79 3
385 79 7234
386 79 3727
388 79 4972
389 79 6436
390 79 6518
392 79 3367
395 79 2399
396 79 4295
397 79 90
399 79 1
401 79 6054
404 79 883
405 79 4820
406 79 5917
407 79 55
408 79 10509
410 79 3593
412 79 3088
414 79 7982
415 79 6380
418 79 128
419 79 16
420 79 61
422 79 4653
423 79 764
424 79 6248
425 79 3348
428 79 1023
429 79 3400
431 79 5652
432 79 5710
433 79 6463
435 79 6089
436 79 5
437 79 6329
440 79 7155
442 79 4487
444 79 8219
445 79 4474
446 79 9162
447 79 7449
448 79 1906
449 79 762
450 79 5404
451 79 1218
452 79 6471
453 79 6501
456 79 848
458 79 6992
459 79 5101
460 79 7368
461 79 927
462 79 3457
463 79 4553
464 79 76
466 79 11611
470 79 1885
471 79 9022
472 79 44
473 79 5325
474 79 4845
475 79 270
476 79 3940
479 79 5200
480 79 6586
481 79 58
482 79 5961
483 79 10957
484 79 8145
485 79 193
486 79 6121
489 79 4078
490 79 8698
491 79 333
492 79 2126
493 79 4355
494 79 116
495 79 8176
496 79 6
497 79 1311
499 79 152
1 80 3948
3 80 397
4 80 2200
5 80 2218
6 80 1799
9 80 2
10 80 104
12 80 473
13 80 113
14 80 22
17 80 22
19 80 64
20 80 1062
21 80 508
23 80 2202
24 80 184
26 80 208
28 80 1491
31 80 3275
33 80 106
34 80 71
35 80 1612
36 80 2744
37 80 3067
38 80 1949
39 80 2887
40 80 2394
41 80 715
42 80 65
43 80 68
44 80 13
45 80 743
48 80 2059
49 80 689
50 80 513
51 80 2681
52 80 1096
53 80 1588
54 80 50
55 80 2056
56 80 81
57 80 2591
61 80 8
62 80 1626
63 80 2616
64 80 1655
65 80 1018
68 80 67
69 80 201
71 80 1193
73 80 2631
75 80 1448
76 80 778
79 80 71
83 80 86
84 80 2733
85 80 1523
86 80 2369
88 80 233
89 80 1305
90 80 150
91 80 487
92 80 59
93 80 1069
94 80 1452
95 80 1524
96 80 4
97 80 46
98 80 103
100 80 1046
102 80 6
104 80 2536
105 80 3529
106 80 1769
108 80 2029
109 80 1192
113 80 3061
114 80 2253
115 80 1440
116 80 3
118 80 169
119 80 1733
121 80 2455
122 80 2104
123 80 4338
124 80 2169
125 80 149
126 80 174
127 80 1473
128 80 93
129 80 1523
132 80 1134
133 80 70
134 80 746
135 80 1555
136 80 3
137 80 2945
139 80 956
140 80 2722
142 80 4286
143 80 2059
144 80 2397
145 80 15
146 80 43
147 80 1531
150 80 111
151 80 3
154 80 2189
156 80 2672
158 80 101
161 80 912
163 80 86
164 80 527
165 80 492
166 80 1938
167 80 815
168 80 1566
169 80 1873
171 80 1050
172 80 2476
173 80 213
174 80 24
178 80 4
179 80 695
180 80 3012
182 80 2898
183 80 460
184 80 1722
185 80 317
186 80 1065
187 80 5
190 80 1864
191 80 858
194 80 210
196 80 119
197 80 3066
199 80 1751
200 80 68
201 80 6
203 80 2019
204 80 1826
205 80 1488
207 80 697
208 80 2199
209 80 201
212 80 1208
213 80 1719
214 80 95
216 80 769
217 80 1351
220 80 188
222 80 1997
223 80 2765
225 80 486
226 80 1554
227 80 490
228 80 1807
229 80 951
230 80 1073
231 80 374
232 80 2604
235 80 2182
238 80 982
239 80 2355
240 80 804
241 80 1432
242 80 18
243 80 2210
244 80 2035
246 80 1767
247 80 1226
249 80 223
250 80 1856
251 80 6
255 80 303
257 80 2716
261 80 141
262 80 62
263 80 545
264 80 1521
265 80 200
266 80 543
267 80 924
269 80 1275
270 80 2586
272 80 2379
273 80 78
277 80 122
278 80 1333
279 80 2479
282 80 1634
283 80 2518
284 80 833
285 80 5
286 80 1625
287 80 683
290 80 75
291 80 215
293 80 2465
295 80 31
296 80 1044
297 80 7
298 80 73
299 80 1331
301 80 10
302 80 704
303 80 886
306 80 2231
307 80 959
308 80 359
309 80 3040
312 80 381
313 80 782
314 80 92
315 80 11
316 80 1550
319 80 1041
320 80 63
322 80 1736
324 80 2261
325 80 1722
326 80 1081
327 80 2490
328 80 507
329 80 68
330 80 2472
331 80 61
332 80 2586
333 80 2547
334 80 1494
336 80 11
338 80 6
339 80 50
340 80 3327
341 80 218
342 80 2408
343 80 1374
345 80 6
346 80 1421
347 80 1868
348 80 2055
351 80 2766
352 80 329
355 80 8
358 80 96
359 80 895
360 80 1419
361 80 361
362 80 2033
363 80 62
364 80 733
365 80 323
366 80 524
367 80 1909
368 80 17
369 80 200
370 80 2218
371 80 47
373 80 234
374 80 445
376 80 515
377 80 7
378 80 2
379 80 2483
380 80 2224
381 80 904
385 80 1799
386 80 2497
388 80 897
389 80 3236
390 80 2279
392 80 1368
394 80 10
395 80 1543
396 80 1660
397 80 148
401 80 1416
403 80 1
404 80 291
405 80 2977
406 80 996
407 80 166
408 80 2305
410 80 999
412 80 1786
414 80 691
415 80 3279
418 80 178
419 80 62
420 80 74
422 80 855
423 80 265
424 80 1960
425 80 1368
428 80 507
429 80 1371
431 80 1506
432 80 1158
433 80 1428
435 80 1705
437 80 1778
438 80 6
440 80 1695
442 80 999
444 80 1704
445 80 1430
446 80 817
447 80 1781
448 80 1213
449 80 290
450 80 2646
451 80 808
452 80 2192
453 80 1544
456 80 875
458 80 601
459 80 1359
460 80 1782
461 80 295
462 80 1299
463 80 3138
464 80 78
466 80 2596
470 80 1181
471 80 2361
472 80 28
473 80 1191
474 80 1133
475 80 318
476 80 2003
479 80 686
480 80 1146
481 80 87
482 80 1759
483 80 2411
484 80 702
485 80 70
486 80 1783
489 80 2160
490 80 1132
491 80 103
492 80 1592
493 80 1896
494 80 75
495 80 1342
497 80 347
499 80 362
2 81 54
3 81 2403
7 81 1940
8 81 2129
9 81 83
11 81 3893
24 81 3170
29 81 2090
54 81 2646
60 81 3190
61 81 1684
66 81 1780
68 81 3271
69 81 3146
74 81 1693
78 81 1550
80 81 2389
81 81 2005
82 81 2297
87 81 2092
101 81 230
103 81 2671
120 81 99
126 81 1953
128 81 1527
131 81 1998
133 81 1060
141 81 1744
148 81 2183
149 81 6
150 81 149
155 81 2140
160 81 2198
162 81 3921
175 81 2714
181 81 3
187 81 1287
188 81 1727
189 81 4
193 81 3933
194 81 3105
195 81 16
198 81 3268
200 81 3142
202 81 2045
206 81 2661
211 81 5
215 81 1733
220 81 3132
224 81 2515
234 81 1684
236 81 2167
249 81 215
252 81 2667
254 81 15
258 81 796
260 81 983
262 81 3269
265 81 3153
271 81 2956
273 81 1267
274 81 1715
276 81 3819
282 81 4
288 81 417
289 81 1795
290 81 28
300 81 426
304 81 2154
305 81 3275
308 81 2493
310 81 1337
311 81 90
314 81 1472
318 81 2647
320 81 1
321 81 66
329 81 3
331 81 3374
337 81 2038
344 81 1960
349 81 2101
350 81 489
363 81 34
367 81 7
369 81 3170
373 81 242
375 81 3283
377 81 1326
378 81 59
387 81 2263
393 81 1
394 81 4
409 81 2284
417 81 2338
421 81 1706
430 81 2962
439 81 3331
441 81 1316
454 81 2693
456 81 26
457 81 1818
467 81 1301
469 81 1767
477 81 2140
478 81 2688
487 81 2024
488 81 2062
494 81 27
498 81 4
2 82 7779
3 82 9428
5 82 6
7 82 8567
8 82 15380
9 82 6333
11 82 10012
12 82 112
21 82 1
24 82 10907
29 82 15330
33 82 1
38 82 9
42 82 248
50 82 39
51 82 8
54 82 11728
60 82 12303
61 82 5692
66 82 12671
68 82 10308
69 82 10889
74 82 17135
78 82 8925
79 82 265
80 82 22527
81 82 7055
82 82 11887
83 82 4
87 82 7395
90 82 4
91 82 4
92 82 1332
98 82 2202
101 82 13989
103 82 15094
116 82 101
120 82 3850
126 82 15827
128 82 6163
131 82 8445
133 82 9120
141 82 14407
148 82 8479
149 82 5780
150 82 6851
151 82 372
155 82 18015
158 82 6
160 82 18041
161 82 1
162 82 10058
163 82 27
164 82 29
165 82 127
169 82 7
175 82 14831
178 82 84
181 82 424
183 82 119
185 82 144
187 82 8556
188 82 14724
189 82 430
191 82 16
193 82 9927
194 82 10911
195 82 1302
196 82 3
198 82 12414
199 82 34
200 82 10345
202 82 15321
206 82 10636
209 82 34
211 82 5843
213 82 54
214 82 225
215 82 14648
219 82 465
220 82 10925
224 82 22510
225 82 4
227 82 5
234 82 14669
236 82 7769
242 82 71
247 82 10
249 82 10795
252 82 10500
254 82 1274
258 82 14921
260 82 7781
261 82 7
262 82 10644
263 82 4
265 82 10735
267 82 5
271 82 10884
273 82 6561
274 82 14615
276 82 10022
285 82 97
286 82 9
288 82 22863
289 82 14895
290 82 3476
291 82 17
298 82 100
300 82 22617
301 82 56
304 82 7398
305 82 12512
308 82 9472
310 82 17283
311 82 3888
312 82 42
314 82 6234
318 82 10719
320 82 1359
321 82 4686
328 82 30
329 82 1315
331 82 10385
337 82 6817
344 82 8669
347 82 2
349 82 7544
350 82 16164
352 82 127
358 82 2257
359 82 3
361 82 65
363 82 3612
369 82 10922
373 82 10873
374 82 245
375 82 12277
376 82 4
377 82 8675
378 82 2000
381 82 4
382 82 797
387 82 14650
391 82 787
392 82 102
393 82 5900
394 82 73
409 82 8192
417 82 8423
420 82 2248
421 82 8331
422 82 25
428 82 109
430 82 10853
439 82 12386
441 82 17466
448 82 65
454 82 14804
456 82 8109
457 82 12437
462 82 102
467 82 5200
469 82 14770
470 82 71
475 82 14
477 82 15488
478 82 10571
481 82 2237
487 82 8194
488 82 7676
491 82 1
494 82 3400
498 82 6513
499 82 58
3 83 5570
7 83 6620
8 83 9614
9 83 1623
11 83 5580
12 83 4
24 83 1922
29 83 9778
42 83 21
54 83 6433
60 83 9243
66 83 998
68 83 6027
69 83 2071
74 83 2935
78 83 6219
79 83 18
80 83 7105
81 83 7022
82 83 4089
87 83 4690
90 83 4
92 83 43
98 83 47
101 83 2846
103 83 8536
116 83 53
120 83 751
126 83 1336
128 83 118
131 83 6545
141 83 4729
148 83 7992
149 83 197
151 83 50
155 83 3793
160 83 3906
162 83 5670
165 83 3
175 83 8732
178 83 27
181 83 326
183 83 6
187 83 5141
188 83 4945
189 83 310
192 83 1
193 83 5602
194 83 1987
195 83 34
198 83 9097
200 83 6038
202 83 9775
206 83 8740
211 83 228
214 83 41
215 83 5048
219 83 142
220 83 2013
224 83 7295
234 83 4827
236 83 4785
242 83 94
249 83 2750
250 83 1
252 83 8570
254 83 55
258 83 1338
260 83 3624
261 83 5
262 83 6159
265 83 1928
271 83 6420
273 83 925
274 83 4896
276 83 5595
285 83 73
288 83 2818
289 83 4887
290 83 244
298 83 6
300 83 2867
301 83 110
304 83 4559
305 83 9185
308 83 5323
310 83 6598
311 83 745
314 83 109
318 83 8645
320 83 51
321 83 2358
329 83 43
331 83 6061
337 83 6918
344 83 6626
349 83 4549
350 83 2513
357 83 4
358 83 47
363 83 238
369 83 2014
373 83 2721
374 83 32
375 83 9279
377 83 5105
378 83 209
382 83 90
387 83 10095
391 83 77
393 83 215
394 83 1
409 83 4000
412 83 3
417 83 4089
420 83 50
421 83 1
430 83 6276
439 83 9268
441 83 6570
454 83 8534
456 83 141
457 83 999
467 83 1903
469 83 5057
475 83 2
477 83 9681
478 83 8795
481 83 46
487 83 13409
488 83 4601
494 83 252
498 83 475
1 84 15587
3 84 298
4 84 29189
5 84 13265
6 84 14369
7 84 6
8 84 173
9 84 7677
12 84 5076
13 84 402
15 84 10935
17 84 11790
18 84 9123
20 84 12229
23 84 14834
24 84 3
25 84 19270
28 84 5373
29 84 147
30 84 97
31 84 17710
32 84 4989
33 84 36
35 84 10729
36 84 8372
37 84 15516
38 84 10504
39 84 14272
40 84 10240
41 84 9154
42 84 10455
45 84 10620
46 84 4
47 84 11960
48 84 20297
49 84 13250
50 84 17041
51 84 8512
52 84 11611
53 84 14369
55 84 7907
56 84 26214
57 84 24024
58 84 112
59 84 11857
62 84 8391
63 84 11369
64 84 10713
65 84 14681
68 84 3
69 84 4
70 84 5151
71 84 10703
73 84 24886
74 84 1508
75 84 5184
76 84 13142
77 84 2190
78 84 192
79 84 10485
81 84 853
84 84 16513
85 84 13120
86 84 10830
87 84 72
88 84 13600
89 84 7342
90 84 18559
91 84 8888
92 84 6816
93 84 13588
94 84 19236
95 84 8357
96 84 9819
97 84 5025
98 84 3882
99 84 38
100 84 14464
101 84 2916
102 84 2388
104 84 11803
105 84 11627
106 84 10460
107 84 5798
108 84 15126
109 84 10577
113 84 26479
114 84 9487
115 84 13102
116 84 25139
118 84 8748
119 84 9677
120 84 7110
121 84 11748
122 84 13279
123 84 8340
124 84 10246
127 84 13049
129 84 15301
131 84 4
132 84 23152
133 84 2
134 84 11717
135 84 4247
136 84 83
137 84 16063
139 84 22372
140 84 8271
142 84 13743
143 84 11321
144 84 11856
145 84 40
146 84 15
147 84 8734
148 84 712
149 84 8805
150 84 5
151 84 8745
153 84 294
154 84 8644
156 84 12538
158 84 61
161 84 8062
163 84 10090
164 84 17225
165 84 5109
166 84 20389
167 84 5433
168 84 3510
169 84 11003
170 84 8008
171 84 30740
172 84 15286
173 84 207
176 84 3298
178 84 15985
179 84 9079
180 84 11471
181 84 6937
182 84 16321
183 84 5201
184 84 22919
185 84 8669
186 84 8479
187 84 1819
188 84 27
189 84 6857
190 84 14600
191 84 13301
194 84 8
195 84 6084
196 84 40
197 84 10890
199 84 11939
200 84 4
201 84 60
202 84 172
203 84 7440
204 84 13404
205 84 8814
206 84 2
207 84 9225
208 84 13304
209 84 20
210 84 24
211 84 8636
212 84 10809
213 84 11986
214 84 9226
215 84 20
216 84 21448
217 84 10046
218 84 6792
219 84 13828
220 84 2
222 84 11955
223 84 9673
225 84 23163
226 84 13498
228 84 9522
229 84 8702
230 84 39810
231 84 56
232 84 10331
235 84 14399
236 84 73
238 84 8579
239 84 11051
240 84 13278
241 84 9087
242 84 16011
243 84 10941
244 84 8519
246 84 11450
247 84 10971
248 84 19
249 84 2251
250 84 10687
251 84 1906
252 84 3
254 84 6067
255 84 5374
256 84 3239
257 84 16102
258 84 2208
259 84 8666
260 84 6945
261 84 18540
262 84 5
263 84 23450
264 84 10335
265 84 3
266 84 9563
267 84 13601
268 84 1253
269 84 7636
270 84 13522
271 84 10
272 84 18679
275 84 1971
277 84 7704
278 84 13140
279 84 11792
280 84 41
281 84 2663
282 84 12826
283 84 11700
284 84 22815
285 84 24914
286 84 10439
287 84 14001
288 84 6909
289 84 19
290 84 3382
292 84 1539
293 84 11087
295 84 10424
296 84 14234
298 84 12297
299 84 14929
300 84 7027
301 84 15962
302 84 11806
303 84 17781
304 84 85
306 84 15115
307 84 12279
308 84 342
309 84 13341
311 84 7151
312 84 11227
313 84 13362
315 84 38
316 84 13302
317 84 768
318 84 6
319 84 10638
320 84 6623
321 84 11163
322 84 12492
324 84 13465
325 84 9113
326 84 10855
327 84 10983
328 84 17158
329 84 6761
330 84 19004
331 84 4
332 84 9279
333 84 14246
334 84 7731
336 84 4326
337 84 898
338 84 4224
339 84 21
340 84 10472
341 84 238
342 84 15846
343 84 21707
344 84 4
345 84 4245
346 84 11417
347 84 10183
348 84 17660
349 84 72
350 84 2528
351 84 14986
352 84 8733
355 84 5064
356 84 1230
358 84 3768
359 84 13594
360 84 10082
361 84 15484
362 84 18782
363 84 3244
364 84 13447
365 84 5691
366 84 12225
367 84 28504
369 84 2
370 84 29586
371 84 3862
372 84 93
373 84 2343
374 84 7851
376 84 8848
377 84 1790
378 84 7600
379 84 11746
380 84 15075
381 84 7957
382 84 6057
383 84 6342
384 84 1550
385 84 21303
386 84 11592
388 84 17901
389 84 10534
390 84 14992
391 84 5938
392 84 66
393 84 8690
394 84 8741
395 84 4270
396 84 6253
397 84 8015
400 84 4772
401 84 13015
404 84 5487
405 84 20353
406 84 9544
407 84 8945
408 84 17313
410 84 6232
412 84 10806
414 84 12171
415 84 10466
418 84 8516
419 84 12843
420 84 3827
422 84 13606
423 84 74
424 84 7772
425 84 6897
429 84 9600
430 84 6
431 84 12675
432 84 10262
433 84 12592
435 84 16552
436 84 5783
437 84 7745
440 84 14532
442 84 17122
444 84 17210
445 84 14790
446 84 17957
447 84 15008
448 84 8243
449 84 68
450 84 9633
451 84 7464
452 84 7716
453 84 18834
456 84 6
458 84 12222
459 84 11829
460 84 9007
461 84 5411
462 84 56
463 84 13331
464 84 13364
466 84 8772
469 84 9
470 84 8031
471 84 10567
473 84 21592
474 84 36092
475 84 11935
476 84 52826
477 84 184
478 84 9
479 84 9510
480 84 14944
481 84 3822
482 84 16735
483 84 11153
484 84 11162
485 84 1246
486 84 9244
488 84 65
489 84 12981
490 84 17332
491 84 68
492 84 11531
493 84 13969
494 84 3393
495 84 10571
496 84 19138
497 84 6643
498 84 9815
499 84 15422
1 85 2654
3 85 32
4 85 2755
5 85 2824
6 85 1448
8 85 16
9 85 724
12 85 600
13 85 20
15 85 729
17 85 1610
18 85 229
20 85 3521
22 85 4
23 85 3194
25 85 1786
28 85 2401
29 85 16
30 85 7
31 85 3864
32 85 169
35 85 5786
36 85 3130
37 85 2830
38 85 1778
39 85 2294
40 85 1995
41 85 2284
42 85 390
45 85 2085
47 85 1185
48 85 3417
49 85 1493
50 85 1754
51 85 1806
52 85 2668
53 85 1564
55 85 4010
56 85 932
57 85 6149
58 85 15
59 85 1221
62 85 1792
63 85 4135
64 85 1750
65 85 4187
70 85 144
71 85 3911
73 85 6198
74 85 86
75 85 2367
76 85 2743
77 85 100
78 85 42
79 85 449
81 85 8
84 85 2259
85 85 1772
86 85 2003
88 85 1288
89 85 2743
90 85 1510
91 85 2572
92 85 679
93 85 2131
94 85 3038
95 85 3580
96 85 950
97 85 395
98 85 285
99 85 13
100 85 1578
101 85 145
102 85 3
104 85 2667
105 85 3842
106 85 2652
107 85 1055
108 85 3596
109 85 3828
113 85 4595
114 85 2194
115 85 1812
116 85 1834
118 85 2025
119 85 2599
120 85 1601
121 85 4511
122 85 3733
123 85 3019
124 85 3033
127 85 1843
129 85 815
130 85 3
132 85 3218
134 85 2252
135 85 264
136 85 6
137 85 3672
139 85 1314
140 85 3198
142 85 4440
143 85 4486
144 85 4508
146 85 3
147 85 2110
148 85 66
149 85 1033
151 85 770
153 85 51
154 85 3249
155 85 2
156 85 2178
160 85 5
161 85 1220
163 85 2883
164 85 1626
165 85 651
166 85 2995
167 85 201
168 85 163
169 85 2984
170 85 914
171 85 2750
172 85 2318
173 85 6
176 85 184
178 85 910
179 85 2300
180 85 1771
181 85 1705
182 85 3861
183 85 618
184 85 4258
185 85 1337
186 85 2084
187 85 8
189 85 1730
190 85 1404
191 85 2568
195 85 1503
197 85 1561
199 85 2911
202 85 15
203 85 1630
204 85 1498
205 85 3375
207 85 2336
208 85 2068
211 85 994
212 85 3863
213 85 2722
214 85 1541
216 85 1351
217 85 1713
218 85 2169
219 85 1446
222 85 3324
223 85 3842
225 85 2541
226 85 3491
228 85 2430
229 85 2291
230 85 2129
232 85 3264
235 85 8073
238 85 2315
239 85 2043
240 85 1573
241 85 1569
242 85 2027
243 85 1907
244 85 4158
246 85 3451
247 85 2093
249 85 174
250 85 2033
251 85 71
254 85 1561
255 85 2029
256 85 176
257 85 3361
258 85 26
259 85 301
260 85 637
261 85 1589
263 85 2412
264 85 3087
266 85 1211
267 85 2014
268 85 125
269 85 2143
270 85 3187
272 85 4736
273 85 7
275 85 83
277 85 1937
278 85 2799
279 85 2860
280 85 14
281 85 24
282 85 1647
283 85 2740
284 85 1872
285 85 1858
286 85 2808
287 85 2866
288 85 391
290 85 409
292 85 52
293 85 2880
295 85 813
296 85 1853
298 85 1748
299 85 2398
300 85 379
301 85 2069
302 85 3368
303 85 3003
306 85 2115
307 85 3550
308 85 32
309 85 3157
311 85 1654
312 85 1105
313 85 1499
316 85 1852
317 85 32
319 85 2978
320 85 612
321 85 1633
322 85 5676
324 85 4817
325 85 3726
326 85 2641
327 85 3384
328 85 1733
329 85 574
330 85 4754
332 85 2274
333 85 4071
334 85 2103
336 85 343
337 85 17
338 85 301
339 85 9
340 85 1870
341 85 4
342 85 1766
343 85 2142
345 85 369
346 85 3104
347 85 1795
348 85 3662
350 85 506
351 85 3910
352 85 1340
355 85 149
356 85 140
358 85 246
359 85 1898
360 85 1742
361 85 1952
362 85 3125
363 85 388
364 85 2456
365 85 2143
366 85 3995
367 85 2856
370 85 2749
371 85 1367
372 85 8
373 85 187
374 85 535
376 85 2551
377 85 1
378 85 1008
379 85 2798
380 85 4529
381 85 1285
382 85 1837
383 85 148
384 85 62
385 85 2919
386 85 2721
388 85 3032
389 85 1799
390 85 2160
391 85 1746
393 85 996
394 85 1997
395 85 274
396 85 2002
397 85 1030
400 85 183
401 85 3620
404 85 1990
405 85 2558
406 85 2080
407 85 1908
408 85 4259
410 85 139
412 85 1977
414 85 3365
415 85 1894
418 85 1851
419 85 1510
420 85 248
422 85 2514
423 85 7
424 85 2074
425 85 1189
427 85 9
429 85 2658
431 85 2467
432 85 4061
433 85 2043
435 85 2913
436 85 1073
437 85 3927
440 85 4487
442 85 3354
444 85 1738
445 85 2843
446 85 3340
447 85 4611
448 85 577
449 85 6
450 85 3699
451 85 1981
452 85 241
453 85 3395
458 85 3570
459 85 3399
460 85 3912
461 85 2057
463 85 3253
464 85 1853
466 85 2256
470 85 569
471 85 2151
473 85 2631
474 85 2195
475 85 1904
476 85 1786
477 85 23
479 85 3086
480 85 2877
481 85 296
482 85 3051
483 85 2055
484 85 2223
485 85 30
486 85 2390
489 85 2847
490 85 2420
492 85 2442
493 85 2412
494 85 402
495 85 2294
496 85 1851
497 85 828
498 85 1056
499 85 2061
1 86 5871
3 86 85
4 86 3720
5 86 5918
6 86 4840
8 86 63
9 86 3371
12 86 2267
13 86 52
15 86 1785
17 86 4039
18 86 3062
20 86 4058
23 86 5870
24 86 3
25 86 2229
28 86 5455
29 86 79
30 86 8
31 86 4872
32 86 728
35 86 2723
36 86 5567
37 86 3215
38 86 3747
39 86 5730
40 86 4719
41 86 2594
42 86 3671
45 86 4951
47 86 4503
48 86 5145
49 86 2795
50 86 2858
51 86 4009
52 86 4317
53 86 3691
55 86 3826
56 86 3336
57 86 5375
58 86 25
59 86 4507
62 86 6109
63 86 5496
64 86 4382
65 86 3056
69 86 3
70 86 1924
71 86 4562
73 86 5591
74 86 601
75 86 5565
76 86 5197
77 86 207
79 86 3717
81 86 391
84 86 6889
85 86 4721
86 86 2887
87 86 4
88 86 1953
89 86 2673
90 86 2483
91 86 4630
92 86 3251
93 86 4803
94 86 4333
95 86 4383
96 86 1810
97 86 1332
98 86 1658
99 86 9
100 86 2975
101 86 1010
102 86 436
104 86 5415
105 86 4554
106 86 4675
107 86 2240
108 86 3813
109 86 4534
111 86 3
113 86 4867
114 86 3943
115 86 4616
116 86 3171
118 86 1959
119 86 2769
120 86 2005
121 86 5402
122 86 4924
123 86 4198
124 86 2600
127 86 4571
129 86 2685
132 86 5379
134 86 2559
135 86 1866
136 86 37
137 86 7046
139 86 5018
140 86 5524
142 86 7826
143 86 3184
144 86 5454
145 86 12
146 86 21
147 86 4896
148 86 170
149 86 2652
151 86 3462
153 86 75
154 86 5342
156 86 5407
161 86 5539
163 86 1941
164 86 2802
165 86 2259
166 86 3292
167 86 1084
168 86 2191
169 86 4710
170 86 1881
171 86 3272
172 86 2913
173 86 64
176 86 1455
178 86 3313
179 86 2550
180 86 4082
181 86 1873
182 86 6922
183 86 2174
184 86 7919
185 86 2922
186 86 2395
187 86 303
188 86 30
189 86 1968
190 86 4994
191 86 3306
194 86 7
195 86 2699
197 86 6354
199 86 4181
201 86 13
202 86 69
203 86 4342
204 86 2750
205 86 5742
207 86 2594
208 86 4872
211 86 2600
212 86 4484
213 86 4217
214 86 5906
215 86 21
216 86 3181
217 86 5142
218 86 3008
219 86 2679
220 86 4
222 86 3238
223 86 4417
225 86 2722
226 86 3208
228 86 2593
229 86 3841
230 86 2684
232 86 3042
235 86 8078
236 86 5
238 86 3968
239 86 3017
240 86 2879
241 86 3570
242 86 1738
243 86 7223
244 86 4513
246 86 3324
247 86 5114
249 86 1608
250 86 3982
251 86 236
254 86 2664
255 86 2485
256 86 1482
257 86 5348
258 86 282
259 86 2371
260 86 2972
261 86 2446
263 86 2695
264 86 4162
265 86 3
266 86 3658
267 86 3799
268 86 731
269 86 3959
270 86 4390
272 86 6720
275 86 510
277 86 3305
278 86 3370
279 86 4429
280 86 14
281 86 338
282 86 2907
283 86 5493
284 86 2767
285 86 3132
286 86 4029
287 86 4912
288 86 1845
289 86 41
290 86 1364
292 86 331
293 86 5872
295 86 2256
296 86 3018
298 86 3237
299 86 3927
300 86 1890
301 86 1748
302 86 5435
303 86 3159
304 86 7
306 86 5244
307 86 3989
308 86 103
309 86 4206
311 86 1950
312 86 3492
313 86 2901
315 86 10
316 86 4709
317 86 169
319 86 4331
320 86 2525
321 86 2878
322 86 5016
324 86 4447
325 86 5125
326 86 2983
327 86 3867
328 86 2772
329 86 2592
330 86 6719
332 86 4015
333 86 5032
334 86 4122
336 86 399
337 86 374
338 86 404
339 86 11
340 86 6515
341 86 56
342 86 3869
343 86 5241
345 86 373
346 86 1652
347 86 3505
348 86 5404
349 86 5
350 86 2015
351 86 3710
352 86 2866
355 86 1947
356 86 713
358 86 1660
359 86 3742
360 86 5163
361 86 4623
362 86 5459
363 86 1322
364 86 4388
365 86 3384
366 86 4078
367 86 4252
369 86 7
370 86 3653
371 86 2502
372 86 23
373 86 1545
374 86 3381
376 86 4573
377 86 294
378 86 3664
379 86 5587
380 86 4690
381 86 5379
382 86 2925
383 86 372
384 86 372
385 86 5640
386 86 5615
388 86 3211
389 86 6485
390 86 5281
391 86 2944
392 86 5
393 86 2593
394 86 3558
395 86 1949
396 86 4647
397 86 3467
400 86 710
401 86 4831
404 86 2514
405 86 3727
406 86 3986
407 86 1940
408 86 5802
410 86 691
412 86 4065
414 86 5593
415 86 6564
418 86 2097
419 86 1924
420 86 1627
422 86 3412
423 86 9
424 86 4413
425 86 2323
429 86 6163
431 86 5837
432 86 4284
433 86 4545
435 86 3590
436 86 2177
437 86 3561
440 86 4354
442 86 2983
444 86 4475
445 86 3379
446 86 5315
447 86 4419
448 86 3251
449 86 17
450 86 5259
451 86 3840
452 86 1737
453 86 3542
458 86 4027
459 86 3946
460 86 5179
461 86 2505
462 86 4
463 86 4145
464 86 4034
466 86 3605
469 86 36
470 86 3423
471 86 6141
473 86 3159
474 86 4954
475 86 4497
476 86 4512
477 86 71
479 86 4443
480 86 4766
481 86 1627
482 86 3650
483 86 2901
484 86 3457
485 86 125
486 86 2647
488 86 9
489 86 3724
490 86 3852
492 86 4006
493 86 3850
494 86 1336
495 86 4484
496 86 2269
497 86 2024
498 86 3012
499 86 4566
12 87 6
24 87 5
33 87 8
44 87 5
49 87 4
55 87 10
57 87 4
62 87 4
63 87 6
68 87 9
69 87 3
71 87 5
73 87 5
76 87 5
80 87 6
86 87 4
89 87 4
92 87 2
96 87 7
106 87 11
107 87 5
108 87 7
109 87 5
116 87 7
117 87 7
133 87 3
136 87 5
137 87 6
138 87 4
139 87 3
141 87 5
142 87 3
149 87 6
150 87 15
158 87 4
165 87 7
172 87 7
176 87 16
182 87 5
183 87 4
194 87 6
196 87 2
200 87 5
208 87 6
209 87 1
211 87 8
212 87 6
220 87 5
222 87 5
224 87 3
229 87 2
234 87 3
238 87 6
239 87 10
240 87 1
241 87 5
247 87 6
251 87 4
256 87 15
262 87 6
265 87 5
274 87 7
285 87 10
287 87 7
294 87 8
313 87 7
317 87 9
324 87 10
325 87 4
331 87 7
334 87 5
348 87 4
354 87 16
366 87 6
369 87 5
393 87 5
401 87 19
436 87 6
456 87 38
458 87 5
460 87 7
483 87 7
485 87 5
489 87 6
491 87 4
1 88 12707
2 88 21070
3 88 17447
4 88 11736
5 88 19770
6 88 9709
7 88 7750
8 88 10344
9 88 9526
10 88 11756
11 88 4858
12 88 17637
13 88 25432
14 88 26362
15 88 24339
16 88 8976
17 88 11735
18 88 8094
19 88 16849
20 88 15593
21 88 10198
22 88 33857
23 88 11451
24 88 15308
25 88 8748
26 88 20169
27 88 20674
28 88 11657
29 88 10862
30 88 11066
31 88 11837
32 88 22302
33 88 12862
34 88 7001
35 88 13348
36 88 10151
37 88 16975
38 88 28083
39 88 19922
40 88 12683
41 88 17318
42 88 16536
43 88 17456
44 88 15064
45 88 14722
46 88 21650
47 88 13165
48 88 9505
49 88 25482
50 88 16971
51 88 26237
52 88 18802
53 88 9986
54 88 9660
55 88 21966
56 88 16388
57 88 16955
58 88 6836
59 88 13191
60 88 18767
61 88 20641
62 88 13197
63 88 10785
64 88 29941
65 88 16362
66 88 13287
67 88 18897
68 88 27301
69 88 15605
70 88 14131
71 88 9930
72 88 18480
73 88 17513
74 88 11614
75 88 11607
76 88 11773
77 88 32788
78 88 10265
79 88 16706
80 88 26153
81 88 15498
82 88 27832
83 88 20773
84 88 12329
85 88 27213
86 88 19517
87 88 34666
88 88 26550
89 88 30925
90 88 10415
91 88 15884
92 88 16897
93 88 14805
94 88 10406
95 88 14820
96 88 51558
97 88 18949
98 88 22469
99 88 15351
100 88 7628
101 88 12143
102 88 6998
103 88 9561
104 88 10902
105 88 15193
106 88 10710
107 88 29439
108 88 15001
109 88 10069
110 88 20979
111 88 22599
112 88 19673
113 88 14681
114 88 11784
115 88 27237
116 88 14998
117 88 15196
118 88 22376
119 88 39031
120 88 12677
121 88 23541
122 88 16228
123 88 16569
124 88 20548
125 88 19351
126 88 37414
127 88 26937
128 88 7771
129 88 23993
130 88 33742
131 88 7638
132 88 10148
133 88 8683
134 88 16913
135 88 29850
136 88 15390
137 88 17967
138 88 28441
139 88 15539
140 88 10215
141 88 7520
142 88 15961
143 88 9651
144 88 23858
145 88 27746
146 88 16316
147 88 18850
148 88 26652
149 88 14584
150 88 6825
151 88 22951
152 88 11903
153 88 10370
154 88 9873
155 88 29560
156 88 13117
157 88 12209
158 88 12807
159 88 23193
160 88 29571
161 88 6722
162 88 4881
163 88 31580
164 88 17026
165 88 17937
166 88 10224
167 88 33077
168 88 9318
169 88 26124
170 88 47912
171 88 20804
172 88 10658
173 88 20876
174 88 23506
175 88 9599
176 88 26741
177 88 10450
178 88 15029
179 88 17448
180 88 9530
181 88 22590
182 88 17827
183 88 18012
184 88 20829
185 88 36026
186 88 8226
187 88 18514
188 88 22361
189 88 22161
190 88 9589
191 88 10001
192 88 20575
193 88 4779
194 88 15894
195 88 21036
196 88 12607
197 88 7743
198 88 18668
199 88 13191
200 88 27627
201 88 27843
202 88 10574
203 88 28462
204 88 24311
205 88 20175
206 88 41264
207 88 17306
208 88 16274
209 88 6812
210 88 13546
211 88 14713
212 88 10036
213 88 13345
214 88 9936
215 88 22383
216 88 17858
217 88 18380
218 88 38056
219 88 40976
220 88 15505
221 88 13313
222 88 19761
223 88 18250
224 88 26358
225 88 12788
226 88 12369
227 88 10448
228 88 12905
229 88 10254
230 88 10186
231 88 26564
232 88 14336
233 88 12237
234 88 7321
235 88 12033
236 88 35023
237 88 8176
238 88 10035
239 88 19722
240 88 25161
241 88 14883
242 88 12394
243 88 11157
244 88 12872
245 88 18390
246 88 23988
247 88 12851
248 88 13585
249 88 25842
250 88 17393
251 88 8286
252 88 41175
253 88 13714
254 88 21238
255 88 14060
256 88 26801
257 88 12017
258 88 18429
259 88 6400
260 88 9122
261 88 10436
262 88 27802
263 88 12572
264 88 14095
265 88 15892
266 88 10423
267 88 20618
268 88 11880
269 88 18202
270 88 9711
271 88 14336
272 88 11290
273 88 14198
274 88 7494
275 88 17029
276 88 4801
277 88 32259
278 88 28114
279 88 22181
280 88 15392
281 88 16603
282 88 13959
283 88 10928
284 88 13007
285 88 14804
286 88 9268
287 88 14068
288 88 19102
289 88 22661
290 88 18853
291 88 27658
292 88 8486
293 88 11259
294 88 15047
295 88 11360
296 88 17462
297 88 11590
298 88 8431
299 88 13665
300 88 19288
301 88 12168
302 88 18803
303 88 17022
304 88 34781
305 88 18945
306 88 15052
307 88 15742
308 88 17445
309 88 19749
310 88 34936
311 88 12568
312 88 11111
313 88 25588
314 88 7866
315 88 28256
316 88 27361
317 88 24072
318 88 40906
319 88 14805
320 88 13873
321 88 20000
322 88 16986
323 88 10292
324 88 17160
325 88 17787
326 88 11699
327 88 14280
328 88 17277
329 88 13765
330 88 11440
331 88 27670
332 88 15250
333 88 17647
334 88 10899
335 88 16249
336 88 20153
337 88 15636
338 88 19726
339 88 16581
340 88 20092
341 88 20329
342 88 14006
343 88 9971
344 88 7949
345 88 19907
346 88 20641
347 88 27888
348 88 17726
349 88 34939
350 88 23290
351 88 12339
352 88 36164
353 88 8629
354 88 15111
355 88 14331
356 88 11767
357 88 20400
358 88 22759
359 88 20583
360 88 18419
361 88 15311
362 88 10107
363 88 18782
364 88 9253
365 88 14073
366 88 10302
367 88 7489
368 88 30017
369 88 15817
370 88 11734
371 88 41312
372 88 6893
373 88 26271
374 88 13618
375 88 18945
376 88 15852
377 88 18654
378 88 14154
379 88 11095
380 88 12602
381 88 6595
382 88 32981
383 88 18975
384 88 8418
385 88 10943
386 88 11022
387 88 24081
388 88 16984
389 88 20229
390 88 15207
391 88 32684
392 88 15324
393 88 14701
394 88 7497
395 88 30281
396 88 18029
397 88 9110
398 88 21849
399 88 4875
400 88 22713
401 88 14956
402 88 13596
403 88 9465
404 88 14038
405 88 12190
406 88 12813
407 88 22464
408 88 13234
409 88 31141
410 88 10729
411 88 18874
412 88 17251
413 88 18949
414 88 19147
415 88 20246
416 88 22118
417 88 31242
418 88 20693
419 88 12730
420 88 22371
421 88 30559
422 88 10063
423 88 27874
424 88 12952
425 88 15567
426 88 19138
427 88 33605
428 88 10811
429 88 9576
430 88 14430
431 88 9099
432 88 12882
433 88 12683
434 88 18597
435 88 19429
436 88 29389
437 88 19093
438 88 9764
439 88 18878
440 88 11334
441 88 35111
442 88 16099
443 88 16547
444 88 7394
445 88 25504
446 88 20594
447 88 11847
448 88 7762
449 88 28481
450 88 21458
451 88 10833
452 88 15967
453 88 9793
454 88 9733
455 88 19492
456 88 24324
457 88 13127
458 88 11397
459 88 8593
460 88 17701
461 88 14116
462 88 15120
463 88 19891
464 88 34835
465 88 42080
466 88 24074
467 88 24806
468 88 13703
469 88 22726
470 88 7948
471 88 22765
472 88 26251
473 88 27032
474 88 11177
475 88 20602
476 88 11234
477 88 10500
478 88 41058
479 88 11339
480 88 11374
481 88 22940
482 88 19773
483 88 19630
484 88 12194
485 88 12333
486 88 13003
487 88 19868
488 88 35097
489 88 18617
490 88 18407
491 88 12893
492 88 32829
493 88 16442
494 88 18754
495 88 10259
496 88 8696
497 88 10027
498 88 21676
499 88 15411
500 88 19192
1 89 4931
2 89 1848
3 89 2705
4 89 4185
5 89 3645
6 89 3824
7 89 2584
8 89 3466
9 89 4101
10 89 3113
11 89 2861
12 89 3901
13 89 3069
14 89 1857
15 89 2808
16 89 1421
17 89 2510
18 89 2172
19 89 2416
20 89 3937
21 89 2404
22 89 1480
23 89 5666
24 89 2705
25 89 2613
26 89 4133
27 89 1178
28 89 4387
29 89 3382
30 89 3376
31 89 9349
32 89 2624
33 89 2040
34 89 1923
35 89 5582
36 89 3723
37 89 5270
38 89 3063
39 89 2690
40 89 5006
41 89 2892
42 89 3803
43 89 2380
44 89 2736
45 89 5646
46 89 1322
47 89 2297
48 89 3985
49 89 5500
50 89 5083
51 89 4219
52 89 3240
53 89 5045
54 89 3205
55 89 5392
56 89 3703
57 89 5851
58 89 2762
59 89 2330
60 89 5045
61 89 5319
62 89 4518
63 89 3198
64 89 4549
65 89 4351
66 89 2250
67 89 1648
68 89 3871
69 89 2711
70 89 3284
71 89 4861
72 89 995
73 89 5776
74 89 3021
75 89 4504
76 89 2525
77 89 2198
78 89 5535
79 89 3719
80 89 2032
81 89 3516
82 89 1798
83 89 3145
84 89 4596
85 89 2698
86 89 2461
87 89 2739
88 89 3283
89 89 3529
90 89 2656
91 89 4749
92 89 4811
93 89 5844
94 89 2671
95 89 7661
96 89 1573
97 89 2095
98 89 3110
99 89 1821
100 89 3899
101 89 3013
102 89 1983
103 89 3391
104 89 5720
105 89 2955
106 89 3893
107 89 3910
108 89 3195
109 89 4857
110 89 2146
111 89 2605
112 89 4001
113 89 5199
114 89 4388
115 89 2740
116 89 2575
117 89 3236
118 89 3036
119 89 2389
120 89 2789
121 89 5106
122 89 4700
123 89 7331
124 89 4471
125 89 3331
126 89 3068
127 89 2825
128 89 1607
129 89 4798
130 89 1508
131 89 2637
132 89 3604
133 89 1921
134 89 2792
135 89 2024
136 89 1619
137 89 4415
138 89 1902
139 89 3330
140 89 3741
141 89 3323
142 89 5031
143 89 5582
144 89 5195
145 89 2188
146 89 1990
147 89 5288
148 89 1979
149 89 3469
150 89 1820
151 89 3054
152 89 1866
153 89 3187
154 89 5533
155 89 1624
156 89 5570
157 89 1871
158 89 2099
159 89 3894
160 89 1602
161 89 3143
162 89 2821
163 89 1710
164 89 4954
165 89 3941
166 89 3464
167 89 2890
168 89 3614
169 89 3779
170 89 3853
171 89 2721
172 89 3946
173 89 1320
174 89 1357
175 89 3427
176 89 2896
177 89 2895
178 89 3018
179 89 3023
180 89 6524
181 89 2880
182 89 4444
183 89 3921
184 89 6789
185 89 2020
186 89 3328
187 89 3266
188 89 3054
189 89 2868
190 89 3855
191 89 3850
192 89 2183
193 89 2780
194 89 2636
195 89 3535
196 89 2119
197 89 3698
198 89 5006
199 89 4850
200 89 3864
201 89 2213
202 89 3347
203 89 2270
204 89 3704
205 89 4805
206 89 4016
207 89 3080
208 89 4815
209 89 1690
210 89 2100
211 89 3264
212 89 4714
213 89 4755
214 89 3287
215 89 3036
216 89 3222
217 89 5978
218 89 3677
219 89 2549
220 89 2718
221 89 2020
222 89 4426
223 89 5302
224 89 2046
225 89 3750
226 89 3027
227 89 2426
228 89 2977
229 89 4304
230 89 3273
231 89 1702
232 89 5226
233 89 1851
234 89 3324
235 89 6188
236 89 2722
237 89 2431
238 89 4484
239 89 2425
240 89 5388
241 89 3578
242 89 2927
243 89 5223
244 89 4333
245 89 2691
246 89 2349
247 89 4484
248 89 2158
249 89 3364
250 89 3296
251 89 3139
252 89 4195
253 89 2194
254 89 3544
255 89 4344
256 89 2844
257 89 4770
258 89 4979
259 89 4820
260 89 3928
261 89 2791
262 89 3955
263 89 3851
264 89 2920
265 89 2712
266 89 4976
267 89 3410
268 89 4045
269 89 3010
270 89 4875
271 89 3939
272 89 5596
273 89 2524
274 89 3300
275 89 4245
276 89 2755
277 89 3775
278 89 3989
279 89 6239
280 89 1896
281 89 2548
282 89 3427
283 89 5744
284 89 3567
285 89 2543
286 89 1041
287 89 3615
288 89 3202
289 89 3072
290 89 5186
291 89 3069
292 89 1652
293 89 4833
294 89 3125
295 89 2965
296 89 5652
297 89 1796
298 89 2727
299 89 2691
300 89 3194
301 89 2958
302 89 3613
303 89 2155
304 89 2773
305 89 5026
306 89 6738
307 89 4011
308 89 2714
309 89 4583
310 89 2589
311 89 2831
312 89 3430
313 89 5507
314 89 1677
315 89 2197
316 89 2763
317 89 1739
318 89 3999
319 89 3279
320 89 4869
321 89 5137
322 89 7262
323 89 2913
324 89 2805
325 89 3255
326 89 4519
327 89 5153
328 89 5014
329 89 4803
330 89 5557
331 89 3939
332 89 6865
333 89 4025
334 89 4897
335 89 2527
336 89 2235
337 89 3508
338 89 2219
339 89 2066
340 89 4599
341 89 1300
342 89 3854
343 89 5267
344 89 2688
345 89 2109
346 89 2885
347 89 3042
348 89 4337
349 89 2679
350 89 2215
351 89 4440
352 89 1995
353 89 2061
354 89 3170
355 89 3254
356 89 4194
357 89 2165
358 89 3091
359 89 3418
360 89 6126
361 89 3870
362 89 4475
363 89 5310
364 89 4332
365 89 3476
366 89 5885
367 89 3057
368 89 1954
369 89 2718
370 89 4187
371 89 3132
372 89 2849
373 89 3394
374 89 3548
375 89 5111
376 89 4736
377 89 3257
378 89 4408
379 89 5784
380 89 5530
381 89 3124
382 89 2435
383 89 2942
384 89 1660
385 89 3720
386 89 5723
387 89 3253
388 89 2000
389 89 4545
390 89 6679
391 89 2393
392 89 2865
393 89 3341
394 89 2884
395 89 1967
396 89 3547
397 89 4323
398 89 2649
399 89 1781
400 89 2661
401 89 3790
402 89 1272
403 89 1163
404 89 4372
405 89 4651
406 89 3306
407 89 3060
408 89 7382
409 89 3422
410 89 4016
411 89 1071
412 89 3374
413 89 1710
414 89 3550
415 89 4669
416 89 2763
417 89 3366
418 89 4032
419 89 3987
420 89 3225
421 89 3198
422 89 3879
423 89 1919
424 89 4879
425 89 2719
426 89 2684
427 89 1540
428 89 1462
429 89 3138
430 89 4013
431 89 4236
432 89 3136
433 89 4337
434 89 1012
435 89 3130
436 89 3760
437 89 5455
438 89 2259
439 89 5054
440 89 4142
441 89 2646
442 89 2671
443 89 2630
444 89 2992
445 89 4466
446 89 5322
447 89 4227
448 89 4566
449 89 1862
450 89 5340
451 89 8361
452 89 1739
453 89 2699
454 89 3347
455 89 3962
456 89 2095
457 89 2281
458 89 4954
459 89 2849
460 89 3311
461 89 4263
462 89 2808
463 89 4651
464 89 2414
465 89 3686
466 89 3226
467 89 2444
468 89 1229
469 89 3040
470 89 4507
471 89 5050
472 89 2933
473 89 3206
474 89 4731
475 89 5912
476 89 2589
477 89 3463
478 89 4031
479 89 4551
480 89 10089
481 89 3321
482 89 3118
483 89 2422
484 89 6376
485 89 1500
486 89 3155
487 89 2475
488 89 2762
489 89 5366
490 89 4823
491 89 2103
492 89 2235
493 89 3228
494 89 5236
495 89 3015
496 89 2626
497 89 3716
498 89 5270
499 89 3733
500 89 2725
1 90 2189
2 90 921
3 90 2547
4 90 1568
5 90 2941
6 90 3158
7 90 2301
8 90 1351
9 90 1428
10 90 1749
11 90 1808
12 90 1964
13 90 1989
14 90 1482
15 90 1278
16 90 1270
17 90 4092
18 90 785
19 90 1670
20 90 1956
21 90 1482
22 90 1009
23 90 3141
24 90 1900
25 90 1732
26 90 1954
27 90 1469
28 90 3001
29 90 1334
30 90 2186
31 90 3430
32 90 1710
33 90 942
34 90 1562
35 90 2736
36 90 2901
37 90 2103
38 90 1925
39 90 3154
40 90 1808
41 90 3549
42 90 2050
43 90 1696
44 90 1090
45 90 5412
46 90 1189
47 90 1856
48 90 2729
49 90 3309
50 90 3410
51 90 2814
52 90 2602
53 90 2941
54 90 1827
55 90 2446
56 90 2688
57 90 2922
58 90 1637
59 90 1830
60 90 2312
61 90 1819
62 90 3162
63 90 3476
64 90 2218
65 90 1499
66 90 676
67 90 1810
68 90 2738
69 90 1943
70 90 2264
71 90 1819
72 90 1011
73 90 2962
74 90 1598
75 90 2954
76 90 2744
77 90 1456
78 90 2130
79 90 2183
80 90 1961
81 90 2656
82 90 1272
83 90 1766
84 90 4690
85 90 1989
86 90 2789
87 90 2056
88 90 1408
89 90 2132
90 90 1758
91 90 1289
92 90 973
93 90 2606
94 90 3566
95 90 2332
96 90 2086
97 90 1406
98 90 2215
99 90 1266
100 90 2628
101 90 2009
102 90 1670
103 90 2618
104 90 3111
105 90 2478
106 90 3119
107 90 1786
108 90 2835
109 90 1818
110 90 1826
111 90 683
112 90 1075
113 90 2286
114 90 2595
115 90 1867
116 90 2650
117 90 1670
118 90 2879
119 90 3105
120 90 3931
121 90 2790
122 90 5061
123 90 1808
124 90 2696
125 90 2148
126 90 1218
127 90 1957
128 90 1264
129 90 1854
130 90 943
131 90 2341
132 90 2669
133 90 2043
134 90 2065
135 90 1917
136 90 821
137 90 5551
138 90 1277
139 90 3265
140 90 2840
141 90 2056
142 90 3473
143 90 2272
144 90 2882
145 90 2294
146 90 1107
147 90 2544
148 90 2059
149 90 2276
150 90 1359
151 90 1931
152 90 926
153 90 1708
154 90 2985
155 90 1636
156 90 3456
157 90 882
158 90 923
159 90 1259
160 90 1540
161 90 2539
162 90 1881
163 90 2617
164 90 3471
165 90 1866
166 90 5263
167 90 2427
168 90 2062
169 90 2737
170 90 1960
171 90 2310
172 90 5509
173 90 1666
174 90 943
175 90 2595
176 90 2098
177 90 1504
178 90 2306
179 90 3682
180 90 3850
181 90 1564
182 90 5707
183 90 1910
184 90 6020
185 90 1921
186 90 2853
187 90 2395
188 90 2558
189 90 1470
190 90 3102
191 90 2037
192 90 2477
193 90 1875
194 90 1970
195 90 2318
196 90 952
197 90 1440
198 90 2464
199 90 3584
200 90 2781
201 90 2298
202 90 1365
203 90 2216
204 90 2877
205 90 1834
206 90 1408
207 90 3560
208 90 3806
209 90 809
210 90 1103
211 90 2295
212 90 1826
213 90 3636
214 90 2402
215 90 2527
216 90 2698
217 90 3152
218 90 2350
219 90 2047
220 90 1962
221 90 1400
222 90 2262
223 90 1799
224 90 1939
225 90 2733
226 90 1790
227 90 1521
228 90 3089
229 90 1597
230 90 2547
231 90 620
232 90 2137
233 90 870
234 90 2127
235 90 3090
236 90 2119
237 90 2054
238 90 1641
239 90 2701
240 90 3301
241 90 2616
242 90 2071
243 90 2585
244 90 2853
245 90 2013
246 90 2428
247 90 2375
248 90 1101
249 90 2485
250 90 1809
251 90 1672
252 90 1500
253 90 3378
254 90 2315
255 90 1729
256 90 2066
257 90 3322
258 90 2180
259 90 2381
260 90 3590
261 90 1785
262 90 2773
263 90 2703
264 90 3218
265 90 2013
266 90 2125
267 90 2620
268 90 1719
269 90 1345
270 90 4257
271 90 1589
272 90 3385
273 90 2029
274 90 2145
275 90 2589
276 90 1884
277 90 2553
278 90 3037
279 90 1982
280 90 1300
281 90 1173
282 90 1878
283 90 3042
284 90 2074
285 90 2629
286 90 1827
287 90 1818
288 90 2217
289 90 2562
290 90 3249
291 90 1650
292 90 2388
293 90 3676
294 90 1692
295 90 1679
296 90 2669
297 90 1469
298 90 1320
299 90 3441
300 90 2138
301 90 2139
302 90 2850
303 90 2150
304 90 2128
305 90 2392
306 90 3799
307 90 1934
308 90 2394
309 90 2269
310 90 1754
311 90 3941
312 90 2170
313 90 3225
314 90 1266
315 90 2347
316 90 1918
317 90 1674
318 90 1486
319 90 2371
320 90 1679
321 90 1804
322 90 4969
323 90 1460
324 90 2600
325 90 2292
326 90 2996
327 90 2044
328 90 3436
329 90 1684
330 90 3416
331 90 2809
332 90 2190
333 90 3076
334 90 2046
335 90 1478
336 90 1782
337 90 2564
338 90 1717
339 90 1055
340 90 999
341 90 1710
342 90 1668
343 90 2557
344 90 2243
345 90 1751
346 90 2197
347 90 1866
348 90 2086
349 90 2100
350 90 2654
351 90 1925
352 90 1919
353 90 2056
354 90 1711
355 90 2181
356 90 1767
357 90 2449
358 90 2195
359 90 2643
360 90 3199
361 90 2061
362 90 1984
363 90 3212
364 90 3461
365 90 3104
366 90 3635
367 90 2561
368 90 1704
369 90 2001
370 90 1560
371 90 1217
372 90 1694
373 90 2500
374 90 1985
375 90 2424
376 90 1310
377 90 2513
378 90 1863
379 90 3020
380 90 3431
381 90 2419
382 90 1861
383 90 2149
384 90 2386
385 90 2295
386 90 2979
387 90 1555
388 90 2185
389 90 961
390 90 3824
391 90 1800
392 90 1631
393 90 2307
394 90 2132
395 90 1992
396 90 2358
397 90 2914
398 90 1458
399 90 871
400 90 1715
401 90 3176
402 90 1744
403 90 1105
404 90 1792
405 90 1815
406 90 2899
407 90 2887
408 90 2691
409 90 2072
410 90 2162
411 90 1170
412 90 1845
413 90 1737
414 90 2922
415 90 968
416 90 1482
417 90 2112
418 90 2385
419 90 2324
420 90 2194
421 90 2354
422 90 1932
423 90 1563
424 90 3181
425 90 2737
426 90 2016
427 90 1016
428 90 1454
429 90 3720
430 90 1616
431 90 3724
432 90 3243
433 90 1876
434 90 1154
435 90 3218
436 90 1851
437 90 3137
438 90 809
439 90 2396
440 90 3027
441 90 1807
442 90 2190
443 90 1588
444 90 756
445 90 1358
446 90 760
447 90 3049
448 90 2806
449 90 1552
450 90 3130
451 90 3553
452 90 4761
453 90 1478
454 90 2536
455 90 1062
456 90 1271
457 90 757
458 90 4508
459 90 3644
460 90 2202
461 90 1668
462 90 1691
463 90 2276
464 90 1726
465 90 719
466 90 2991
467 90 1178
468 90 1660
469 90 2601
470 90 2673
471 90 2073
472 90 1447
473 90 6152
474 90 2643
475 90 1958
476 90 2142
477 90 1351
478 90 1399
479 90 2242
480 90 3250
481 90 2105
482 90 3174
483 90 2649
484 90 3512
485 90 1503
486 90 3022
487 90 1649
488 90 2106
489 90 3112
490 90 1635
491 90 947
492 90 2727
493 90 2361
494 90 3222
495 90 2919
496 90 1665
497 90 2470
498 90 2310
499 90 1971
500 90 2039
1 91 4142
2 91 1061
3 91 1628
4 91 2722
5 91 3021
6 91 3712
7 91 4088
8 91 1668
9 91 3084
10 91 1828
11 91 2104
12 91 1463
13 91 1882
14 91 1870
15 91 3498
16 91 1177
17 91 2097
18 91 1776
19 91 829
20 91 1758
21 91 2030
22 91 1802
23 91 2641
24 91 2180
25 91 1356
26 91 1560
27 91 1987
28 91 2920
29 91 1607
30 91 1511
31 91 1310
32 91 1827
33 91 877
34 91 1193
35 91 3002
36 91 2467
37 91 3643
38 91 1685
39 91 2413
40 91 2041
41 91 2063
42 91 2165
43 91 853
44 91 926
45 91 2695
46 91 1730
47 91 2232
48 91 1758
49 91 3464
50 91 1657
51 91 2485
52 91 2905
53 91 3021
54 91 2475
55 91 2394
56 91 1696
57 91 4507
58 91 2940
59 91 2229
60 91 2416
61 91 883
62 91 1994
63 91 1475
64 91 3046
65 91 2562
66 91 1133
67 91 2681
68 91 2981
69 91 2185
70 91 3503
71 91 2393
72 91 1090
73 91 4700
74 91 1202
75 91 2938
76 91 2530
77 91 1304
78 91 4219
79 91 2152
80 91 1835
81 91 1973
82 91 1253
83 91 1003
84 91 2802
85 91 2407
86 91 971
87 91 2147
88 91 1926
89 91 2101
90 91 2429
91 91 2854
92 91 1218
93 91 3488
94 91 2351
95 91 3712
96 91 1404
97 91 2120
98 91 1351
99 91 1285
100 91 1945
101 91 1445
102 91 1178
103 91 1929
104 91 2597
105 91 1999
106 91 3382
107 91 2325
108 91 2327
109 91 2435
110 91 1382
111 91 1139
112 91 1295
113 91 3775
114 91 2960
115 91 2371
116 91 2302
117 91 1723
118 91 2927
119 91 2370
120 91 2884
121 91 1940
122 91 3794
123 91 3014
124 91 3116
125 91 1273
126 91 2101
127 91 2420
128 91 2065
129 91 2898
130 91 1835
131 91 4095
132 91 1936
133 91 2149
134 91 2907
135 91 1740
136 91 1407
137 91 3980
138 91 1454
139 91 2959
140 91 2429
141 91 1955
142 91 5362
143 91 2195
144 91 1991
145 91 2331
146 91 1153
147 91 3402
148 91 2484
149 91 2825
150 91 1882
151 91 1936
152 91 948
153 91 1686
154 91 5045
155 91 2095
156 91 2710
157 91 940
158 91 874
159 91 1197
160 91 2029
161 91 2729
162 91 1996
163 91 1585
164 91 1754
165 91 1471
166 91 3354
167 91 2083
168 91 2697
169 91 2496
170 91 1848
171 91 2486
172 91 2729
173 91 890
174 91 1151
175 91 1972
176 91 2502
177 91 1739
178 91 1897
179 91 2056
180 91 2558
181 91 1972
182 91 3952
183 91 1435
184 91 4358
185 91 3304
186 91 3174
187 91 2748
188 91 1726
189 91 1908
190 91 3739
191 91 1567
192 91 2085
193 91 2050
194 91 2254
195 91 2044
196 91 851
197 91 1946
198 91 2467
199 91 2678
200 91 2875
201 91 2381
202 91 1646
203 91 4106
204 91 3791
205 91 1677
206 91 2049
207 91 1981
208 91 2065
209 91 903
210 91 1373
211 91 2782
212 91 2427
213 91 2800
214 91 2306
215 91 1674
216 91 2151
217 91 3065
218 91 1328
219 91 1960
220 91 2249
221 91 2321
222 91 3161
223 91 3252
224 91 1948
225 91 1532
226 91 2651
227 91 1977
228 91 3221
229 91 1875
230 91 3748
231 91 1094
232 91 2718
233 91 953
234 91 1942
235 91 3570
236 91 2077
237 91 785
238 91 1855
239 91 955
240 91 3475
241 91 2699
242 91 2077
243 91 2633
244 91 2324
245 91 1762
246 91 3408
247 91 3420
248 91 1394
249 91 1519
250 91 2585
251 91 2228
252 91 2116
253 91 1365
254 91 2244
255 91 2179
256 91 2763
257 91 1915
258 91 2731
259 91 2114
260 91 1640
261 91 2439
262 91 2883
263 91 1528
264 91 2415
265 91 2265
266 91 1895
267 91 2123
268 91 1999
269 91 1145
270 91 1715
271 91 2916
272 91 1351
273 91 2274
274 91 1963
275 91 1496
276 91 2131
277 91 2372
278 91 2980
279 91 3924
280 91 1275
281 91 1582
282 91 3077
283 91 2669
284 91 2550
285 91 2335
286 91 2324
287 91 2727
288 91 2792
289 91 1765
290 91 2134
291 91 1569
292 91 878
293 91 1947
294 91 1960
295 91 1002
296 91 2924
297 91 984
298 91 1333
299 91 2702
300 91 2816
301 91 2117
302 91 3177
303 91 2324
304 91 2051
305 91 2569
306 91 3572
307 91 1729
308 91 1630
309 91 3777
310 91 1882
311 91 2915
312 91 2219
313 91 3564
314 91 1999
315 91 2467
316 91 2533
317 91 1620
318 91 2094
319 91 2541
320 91 2062
321 91 2131
322 91 2693
323 91 1654
324 91 3761
325 91 2775
326 91 4567
327 91 4785
328 91 1654
329 91 2054
330 91 1409
331 91 2959
332 91 2567
333 91 4470
334 91 2756
335 91 3201
336 91 1900
337 91 2016
338 91 1923
339 91 1200
340 91 2909
341 91 850
342 91 3145
343 91 3090
344 91 4135
345 91 1937
346 91 3743
347 91 1646
348 91 3170
349 91 2091
350 91 2464
351 91 2961
352 91 3212
353 91 1075
354 91 2000
355 91 3446
356 91 2016
357 91 2167
358 91 1392
359 91 2212
360 91 3132
361 91 2306
362 91 2776
363 91 2203
364 91 2405
365 91 3728
366 91 3193
367 91 3406
368 91 1864
369 91 2183
370 91 2598
371 91 2109
372 91 3013
373 91 1499
374 91 1497
375 91 2500
376 91 2844
377 91 2844
378 91 1850
379 91 2586
380 91 2091
381 91 2656
382 91 1795
383 91 1679
384 91 1001
385 91 1434
386 91 2629
387 91 1839
388 91 2317
389 91 2812
390 91 3612
391 91 1827
392 91 2113
393 91 2781
394 91 3355
395 91 1733
396 91 2223
397 91 2403
398 91 1203
399 91 1774
400 91 1801
401 91 3436
402 91 843
403 91 1660
404 91 2224
405 91 1676
406 91 2200
407 91 2960
408 91 3295
409 91 2066
410 91 1577
411 91 1101
412 91 2651
413 91 2796
414 91 3366
415 91 2825
416 91 1210
417 91 2097
418 91 1703
419 91 2897
420 91 1461
421 91 1517
422 91 1557
423 91 1478
424 91 3298
425 91 1843
426 91 1764
427 91 1836
428 91 1898
429 91 3245
430 91 2939
431 91 2373
432 91 3569
433 91 4441
434 91 1127
435 91 2428
436 91 2455
437 91 1766
438 91 1322
439 91 2594
440 91 3239
441 91 1852
442 91 2587
443 91 3146
444 91 2480
445 91 2695
446 91 3020
447 91 3549
448 91 2650
449 91 1457
450 91 824
451 91 3058
452 91 2469
453 91 2909
454 91 1898
455 91 1214
456 91 1928
457 91 1067
458 91 3753
459 91 3133
460 91 2765
461 91 2261
462 91 2058
463 91 3708
464 91 1158
465 91 1463
466 91 2900
467 91 1375
468 91 908
469 91 1661
470 91 2625
471 91 2603
472 91 899
473 91 2581
474 91 2765
475 91 1589
476 91 2202
477 91 1571
478 91 2126
479 91 3633
480 91 4590
481 91 1412
482 91 2402
483 91 955
484 91 3386
485 91 1471
486 91 3163
487 91 1526
488 91 2116
489 91 4030
490 91 1881
491 91 915
492 91 1980
493 91 2322
494 91 2147
495 91 869
496 91 1390
497 91 1278
498 91 2666
499 91 2368
500 91 1767
1 92 7985
2 92 8377
3 92 29519
4 92 6283
5 92 5479
6 92 9912
7 92 6343
8 92 8079
9 92 6940
10 92 5635
11 92 5502
12 92 5050
13 92 4070
14 92 3841
15 92 4295
16 92 4216
17 92 10374
18 92 5492
19 92 5192
20 92 8309
21 92 4643
22 92 9005
23 92 5073
24 92 8219
25 92 6531
26 92 5423
27 92 3144
28 92 10695
29 92 8059
30 92 4131
31 92 6813
32 92 5385
33 92 3258
34 92 5375
35 92 6778
36 92 8597
37 92 10199
38 92 9220
39 92 4988
40 92 7711
41 92 12804
42 92 7652
43 92 5136
44 92 3199
45 92 11076
46 92 2638
47 92 4215
48 92 9748
49 92 6515
50 92 8057
51 92 9728
52 92 10994
53 92 8126
54 92 5384
55 92 4534
56 92 6522
57 92 12963
58 92 6054
59 92 4072
60 92 8252
61 92 11662
62 92 8489
63 92 6219
64 92 8451
65 92 9244
66 92 6044
67 92 6710
68 92 8487
69 92 8263
70 92 5070
71 92 6876
72 92 9453
73 92 13481
74 92 4210
75 92 10809
76 92 5498
77 92 6332
78 92 7298
79 92 7911
80 92 4033
81 92 10001
82 92 5213
83 92 5029
84 92 12872
85 92 7816
86 92 6038
87 92 10638
88 92 12996
89 92 6079
90 92 7520
91 92 8521
92 92 7254
93 92 9164
94 92 6252
95 92 7418
96 92 4337
97 92 5967
98 92 8279
99 92 5333
100 92 8442
101 92 6350
102 92 7000
103 92 16738
104 92 5717
105 92 12431
106 92 4856
107 92 5310
108 92 7608
109 92 7036
110 92 4662
111 92 3858
112 92 15612
113 92 10840
114 92 5992
115 92 7836
116 92 4107
117 92 6372
118 92 7859
119 92 5490
120 92 7387
121 92 12554
122 92 10374
123 92 6468
124 92 13597
125 92 8855
126 92 6860
127 92 7770
128 92 5347
129 92 10324
130 92 8874
131 92 6132
132 92 7241
133 92 4399
134 92 7820
135 92 6390
136 92 10561
137 92 11333
138 92 3852
139 92 8928
140 92 8661
141 92 11782
142 92 16379
143 92 5118
144 92 12663
145 92 4627
146 92 3222
147 92 12210
148 92 10195
149 92 5414
150 92 20940
151 92 5982
152 92 2895
153 92 9658
154 92 9672
155 92 8847
156 92 9524
157 92 3016
158 92 3237
159 92 14770
160 92 8912
161 92 11942
162 92 5439
163 92 10063
164 92 8056
165 92 4982
166 92 6587
167 92 11864
168 92 7840
169 92 6158
170 92 7314
171 92 8745
172 92 4905
173 92 8973
174 92 2411
175 92 16714
176 92 7428
177 92 4732
178 92 5465
179 92 12809
180 92 6623
181 92 9025
182 92 11458
183 92 5034
184 92 10597
185 92 8368
186 92 7280
187 92 4632
188 92 4935
189 92 9287
190 92 9938
191 92 7334
192 92 5798
193 92 5304
194 92 8161
195 92 7742
196 92 3308
197 92 14232
198 92 8398
199 92 10248
200 92 8224
201 92 4833
202 92 8143
203 92 7024
204 92 10342
205 92 5849
206 92 10085
207 92 12812
208 92 5872
209 92 3446
210 92 6747
211 92 5405
212 92 7086
213 92 10258
214 92 6568
215 92 4987
216 92 6261
217 92 7864
218 92 5063
219 92 6633
220 92 8216
221 92 4182
222 92 6323
223 92 9689
224 92 3846
225 92 9419
226 92 6846
227 92 4723
228 92 5231
229 92 7738
230 92 5889
231 92 3322
232 92 8977
233 92 3083
234 92 11599
235 92 9063
236 92 10710
237 92 14467
238 92 7765
239 92 6111
240 92 6390
241 92 12349
242 92 6798
243 92 7195
244 92 6869
245 92 8368
246 92 5587
247 92 5041
248 92 6609
249 92 14432
250 92 8163
251 92 4782
252 92 10159
253 92 7845
254 92 7619
255 92 5316
256 92 7451
257 92 6497
258 92 7104
259 92 8261
260 92 8887
261 92 7497
262 92 8293
263 92 9418
264 92 5586
265 92 8260
266 92 7088
267 92 7738
268 92 7512
269 92 9096
270 92 7494
271 92 6318
272 92 7321
273 92 6263
274 92 11705
275 92 4787
276 92 5401
277 92 9965
278 92 8121
279 92 10742
280 92 5398
281 92 7980
282 92 7585
283 92 5594
284 92 5656
285 92 4111
286 92 4205
287 92 6908
288 92 13433
289 92 4999
290 92 10785
291 92 5016
292 92 6704
293 92 5663
294 92 6354
295 92 5362
296 92 11893
297 92 3434
298 92 12183
299 92 10650
300 92 13379
301 92 6908
302 92 6536
303 92 14460
304 92 10784
305 92 8291
306 92 6550
307 92 8443
308 92 29805
309 92 7403
310 92 5503
311 92 7315
312 92 10125
313 92 6416
314 92 5471
315 92 4617
316 92 7864
317 92 5427
318 92 10058
319 92 6071
320 92 11208
321 92 6436
322 92 8918
323 92 4640
324 92 6679
325 92 12951
326 92 7194
327 92 9705
328 92 7960
329 92 11121
330 92 7502
331 92 8528
332 92 9087
333 92 4897
334 92 8515
335 92 7097
336 92 5102
337 92 10007
338 92 5118
339 92 3362
340 92 6001
341 92 9005
342 92 8203
343 92 8536
344 92 6475
345 92 5140
346 92 6150
347 92 9205
348 92 7402
349 92 10685
350 92 6078
351 92 10934
352 92 8112
353 92 3402
354 92 6339
355 92 5142
356 92 7530
357 92 5819
358 92 8291
359 92 7732
360 92 7753
361 92 10734
362 92 5240
363 92 11031
364 92 7705
365 92 4742
366 92 10828
367 92 8211
368 92 3062
369 92 8250
370 92 6286
371 92 12141
372 92 6002
373 92 14150
374 92 5017
375 92 8216
376 92 8749
377 92 4781
378 92 7557
379 92 5786
380 92 7011
381 92 12169
382 92 8329
383 92 11234
384 92 6530
385 92 11408
386 92 5811
387 92 7830
388 92 14288
389 92 5908
390 92 6402
391 92 8339
392 92 4161
393 92 5488
394 92 6857
395 92 6356
396 92 10030
397 92 7750
398 92 6973
399 92 6544
400 92 5616
401 92 11892
402 92 4654
403 92 7437
404 92 5243
405 92 7172
406 92 7676
407 92 7676
408 92 10803
409 92 12789
410 92 8545
411 92 9255
412 92 8334
413 92 6716
414 92 6895
415 92 6091
416 92 7080
417 92 12920
418 92 5778
419 92 7677
420 92 8358
421 92 6334
422 92 7480
423 92 9494
424 92 9754
425 92 6768
426 92 8477
427 92 8996
428 92 3720
429 92 11361
430 92 6437
431 92 8009
432 92 13139
433 92 8098
434 92 9225
435 92 6902
436 92 5324
437 92 6496
438 92 4464
439 92 8454
440 92 9048
441 92 5435
442 92 5538
443 92 7259
444 92 9552
445 92 7434
446 92 5639
447 92 9301
448 92 4940
449 92 9531
450 92 8402
451 92 8703
452 92 10270
453 92 9141
454 92 16884
455 92 15870
456 92 10420
457 92 5991
458 92 6998
459 92 6375
460 92 12842
461 92 5198
462 92 4245
463 92 7384
464 92 5666
465 92 3248
466 92 9158
467 92 8399
468 92 4671
469 92 4973
470 92 4988
471 92 7694
472 92 3456
473 92 10520
474 92 7743
475 92 7301
476 92 5154
477 92 8046
478 92 10102
479 92 10943
480 92 10467
481 92 8470
482 92 7066
483 92 6203
484 92 11321
485 92 6666
486 92 5297
487 92 11355
488 92 10720
489 92 5144
490 92 9252
491 92 3360
492 92 7192
493 92 6358
494 92 10983
495 92 10659
496 92 6559
497 92 12041
498 92 6048
499 92 10527
500 92 8818
3 93 2
5 93 6
8 93 9
10 93 9
16 93 6
17 93 1
18 93 6
20 93 21
28 93 12
29 93 8
30 93 10
35 93 6
37 93 12
39 93 13
45 93 3
46 93 20
51 93 4
52 93 10
53 93 3
54 93 9
63 93 6
68 93 5
75 93 18
78 93 18
80 93 6
82 93 4
83 93 5
87 93 20
88 93 3
92 93 5
93 93 3
96 93 5
100 93 9
101 93 6
102 93 4
103 93 5
106 93 29
107 93 3
108 93 5
112 93 8
116 93 5
118 93 1
126 93 5
138 93 3
141 93 4
143 93 11
147 93 6
148 93 6
149 93 5
153 93 2
156 93 3
169 93 9
170 93 1
172 93 3
174 93 3
175 93 2
176 93 4
180 93 5
186 93 15
200 93 5
202 93 2
209 93 6
211 93 4
216 93 4
218 93 6
219 93 17
221 93 6
222 93 11
223 93 4
224 93 7
225 93 5
228 93 9
229 93 20
232 93 4
234 93 7
236 93 16
237 93 6
238 93 12
241 93 18
245 93 4
246 93 14
253 93 5
256 93 3
257 93 8
260 93 5
262 93 4
263 93 4
267 93 22
269 93 13
270 93 10
274 93 2
279 93 12
282 93 4
285 93 8
286 93 10
290 93 6
294 93 4
298 93 8
304 93 10
306 93 42
307 93 15
308 93 1
317 93 2
319 93 5
324 93 13
325 93 7
327 93 5
331 93 4
333 93 4
349 93 15
351 93 6
353 93 9
354 93 5
359 93 16
363 93 6
365 93 4
367 93 4
371 93 6
374 93 50
380 93 2
383 93 12
384 93 5
390 93 41
393 93 9
394 93 5
396 93 2
398 93 4
399 93 2
402 93 7
403 93 4
405 93 4
406 93 2
407 93 6
409 93 5
416 93 3
417 93 3
421 93 7
423 93 6
425 93 13
426 93 7
428 93 3
431 93 8
432 93 8
435 93 5
436 93 3
440 93 3
442 93 5
444 93 3
445 93 3
446 93 2
447 93 8
448 93 5
449 93 4
450 93 4
454 93 6
455 93 7
456 93 6
460 93 12
465 93 5
467 93 2
468 93 9
470 93 3
474 93 7
477 93 5
482 93 6
486 93 8
488 93 23
489 93 21
494 93 5
498 93 9
500 93 4
12 94 2
165 94 2
169 94 4
183 94 5
208 94 8
214 94 5
302 94 4
320 94 1
326 94 6
329 94 5
343 94 3
414 94 6
1 95 4852
2 95 3146
3 95 4571
4 95 6222
5 95 8088
6 95 7627
7 95 6017
8 95 6543
9 95 3852
10 95 5992
11 95 3643
12 95 5526
13 95 3884
14 95 2214
15 95 5350
16 95 2115
17 95 4405
18 95 2173
19 95 3826
20 95 4203
21 95 2575
22 95 3758
23 95 6400
24 95 4486
25 95 4614
26 95 4218
27 95 2852
28 95 6257
29 95 6613
30 95 4291
31 95 7585
32 95 4875
33 95 1771
34 95 7014
35 95 5005
36 95 5957
37 95 9978
38 95 6963
39 95 6446
40 95 6589
41 95 8032
42 95 4908
43 95 3802
44 95 2785
45 95 5261
46 95 3245
47 95 4243
48 95 3658
49 95 4631
50 95 4747
51 95 4836
52 95 6281
53 95 6164
54 95 6593
55 95 8526
56 95 5869
57 95 8327
58 95 7795
59 95 4174
60 95 6085
61 95 2491
62 95 6273
63 95 5272
64 95 2850
65 95 5791
66 95 3869
67 95 3339
68 95 4278
69 95 4571
70 95 7972
71 95 6764
72 95 2120
73 95 8508
74 95 5625
75 95 6064
76 95 8982
77 95 4386
78 95 3461
79 95 5176
80 95 5992
81 95 3699
82 95 3137
83 95 5348
84 95 6521
85 95 7395
86 95 5208
87 95 2985
88 95 3877
89 95 9433
90 95 7179
91 95 5717
92 95 4242
93 95 5589
94 95 6256
95 95 5272
96 95 3555
97 95 3827
98 95 4632
99 95 2838
100 95 4729
101 95 7008
102 95 3476
103 95 6696
104 95 3346
105 95 5934
106 95 7168
107 95 4081
108 95 4777
109 95 6861
110 95 2071
111 95 3263
112 95 1756
113 95 9186
114 95 4262
115 95 7282
116 95 4736
117 95 6752
118 95 3678
119 95 6053
120 95 5839
121 95 7986
122 95 8834
123 95 6141
124 95 6820
125 95 4568
126 95 2540
127 95 7423
128 95 4790
129 95 5848
130 95 3836
131 95 5946
132 95 6000
133 95 2962
134 95 4965
135 95 7964
136 95 3446
137 95 4574
138 95 3704
139 95 7851
140 95 6047
141 95 8930
142 95 11175
143 95 7977
144 95 8016
145 95 3970
146 95 1712
147 95 6058
148 95 4879
149 95 3078
150 95 7449
151 95 4047
152 95 1218
153 95 3968
154 95 7671
155 95 2658
156 95 6007
157 95 1270
158 95 1815
159 95 4898
160 95 2543
161 95 3092
162 95 3633
163 95 6700
164 95 4655
165 95 5575
166 95 5170
167 95 3677
168 95 4736
169 95 7301
170 95 3173
171 95 4461
172 95 5967
173 95 4481
174 95 2710
175 95 6809
176 95 6575
177 95 3968
178 95 5211
179 95 8030
180 95 4432
181 95 5231
182 95 4504
183 95 5590
184 95 6377
185 95 7345
186 95 6012
187 95 8459
188 95 8902
189 95 5221
190 95 7590
191 95 4609
192 95 2483
193 95 3745
194 95 4652
195 95 2886
196 95 1787
197 95 4737
198 95 5995
199 95 2056
200 95 4481
201 95 4053
202 95 6468
203 95 8429
204 95 5601
205 95 6506
206 95 4144
207 95 8089
208 95 6289
209 95 1784
210 95 3531
211 95 3007
212 95 6654
213 95 2204
214 95 5560
215 95 8776
216 95 3923
217 95 7771
218 95 5159
219 95 4166
220 95 4688
221 95 3834
222 95 3544
223 95 4188
224 95 6016
225 95 3676
226 95 5337
227 95 2678
228 95 6883
229 95 8165
230 95 7398
231 95 1575
232 95 8223
233 95 1274
234 95 9130
235 95 7333
236 95 2935
237 95 3265
238 95 8230
239 95 5192
240 95 4601
241 95 6528
242 95 4333
243 95 8023
244 95 11134
245 95 2349
246 95 6216
247 95 10082
248 95 3672
249 95 3301
250 95 3908
251 95 3425
252 95 4228
253 95 7413
254 95 2919
255 95 4733
256 95 6532
257 95 10180
258 95 5297
259 95 4129
260 95 4377
261 95 7306
262 95 4378
263 95 3600
264 95 4725
265 95 4672
266 95 5457
267 95 6080
268 95 6605
269 95 4164
270 95 6046
271 95 6044
272 95 5048
273 95 3946
274 95 9049
275 95 5297
276 95 3719
277 95 3274
278 95 6392
279 95 4627
280 95 2866
281 95 5299
282 95 7245
283 95 3418
284 95 4388
285 95 4748
286 95 6510
287 95 5272
288 95 5253
289 95 8776
290 95 3964
291 95 4647
292 95 2897
293 95 6493
294 95 2395
295 95 3605
296 95 3722
297 95 2222
298 95 6178
299 95 5658
300 95 5301
301 95 4302
302 95 3744
303 95 5414
304 95 3069
305 95 6060
306 95 3761
307 95 4028
308 95 4684
309 95 6497
310 95 2125
311 95 5762
312 95 4285
313 95 4455
314 95 4813
315 95 3947
316 95 7265
317 95 3213
318 95 4164
319 95 5143
320 95 5428
321 95 4277
322 95 7768
323 95 3963
324 95 12167
325 95 5561
326 95 5298
327 95 8687
328 95 4642
329 95 5518
330 95 5277
331 95 4339
332 95 8591
333 95 6941
334 95 5133
335 95 4742
336 95 2325
337 95 3699
338 95 2217
339 95 1662
340 95 6843
341 95 4237
342 95 7009
343 95 5289
344 95 6114
345 95 2240
346 95 7571
347 95 6786
348 95 11930
349 95 2937
350 95 7865
351 95 11072
352 95 7360
353 95 3134
354 95 2429
355 95 7852
356 95 6592
357 95 2402
358 95 4614
359 95 6010
360 95 7810
361 95 4807
362 95 6464
363 95 3882
364 95 4488
365 95 6689
366 95 7829
367 95 5602
368 95 4077
369 95 4388
370 95 6318
371 95 3597
372 95 7763
373 95 3224
374 95 4123
375 95 6039
376 95 5549
377 95 8587
378 95 5188
379 95 3478
380 95 7096
381 95 3019
382 95 4257
383 95 5317
384 95 2727
385 95 3729
386 95 3427
387 95 4975
388 95 5509
389 95 7060
390 95 3689
391 95 4337
392 95 3873
393 95 3002
394 95 5783
395 95 8049
396 95 3471
397 95 6385
398 95 3464
399 95 2616
400 95 5117
401 95 6560
402 95 1937
403 95 3323
404 95 4850
405 95 7472
406 95 6673
407 95 3710
408 95 5810
409 95 4082
410 95 2913
411 95 2172
412 95 3920
413 95 3265
414 95 3774
415 95 7043
416 95 3554
417 95 3929
418 95 6260
419 95 4888
420 95 4549
421 95 3784
422 95 4576
423 95 3761
424 95 4768
425 95 16238
426 95 2365
427 95 3710
428 95 2777
429 95 9294
430 95 5936
431 95 11172
432 95 4929
433 95 8150
434 95 2130
435 95 7765
436 95 4115
437 95 5381
438 95 3036
439 95 6009
440 95 5940
441 95 2007
442 95 6712
443 95 4814
444 95 5027
445 95 2832
446 95 4548
447 95 6190
448 95 6176
449 95 3787
450 95 4857
451 95 5471
452 95 5433
453 95 4039
454 95 6792
455 95 1795
456 95 2595
457 95 3801
458 95 6365
459 95 4364
460 95 5508
461 95 4955
462 95 3941
463 95 6547
464 95 5351
465 95 2282
466 95 5917
467 95 5983
468 95 1972
469 95 8730
470 95 6309
471 95 6390
472 95 4278
473 95 6010
474 95 5346
475 95 5668
476 95 5811
477 95 6548
478 95 4183
479 95 6325
480 95 6147
481 95 4783
482 95 7977
483 95 5141
484 95 6529
485 95 5890
486 95 7121
487 95 4086
488 95 2983
489 95 5082
490 95 5308
491 95 1883
492 95 4497
493 95 8598
494 95 3985
495 95 8663
496 95 4629
497 95 3674
498 95 4874
499 95 4996
500 95 2456
1 96 3349
2 96 1578
3 96 3861
4 96 4279
5 96 6067
6 96 5101
7 96 4165
8 96 4836
9 96 4102
10 96 4541
11 96 3423
12 96 2924
13 96 3229
14 96 2160
15 96 2224
16 96 1987
17 96 3087
18 96 1944
19 96 2727
20 96 5656
21 96 3018
22 96 2545
23 96 4543
24 96 2301
25 96 2404
26 96 3906
27 96 1847
28 96 4448
29 96 4803
30 96 2797
31 96 5689
32 96 2785
33 96 2545
34 96 3366
35 96 4217
36 96 4654
37 96 3839
38 96 3786
39 96 2414
40 96 6992
41 96 2548
42 96 3934
43 96 2851
44 96 1870
45 96 4166
46 96 2254
47 96 2216
48 96 3561
49 96 2980
50 96 3960
51 96 3999
52 96 3749
53 96 5053
54 96 3679
55 96 3555
56 96 3107
57 96 5870
58 96 2344
59 96 2385
60 96 5711
61 96 1576
62 96 4820
63 96 4544
64 96 4935
65 96 4387
66 96 3384
67 96 1802
68 96 5980
69 96 2253
70 96 2747
71 96 3746
72 96 1315
73 96 5984
74 96 2192
75 96 4425
76 96 3884
77 96 1937
78 96 2406
79 96 4093
80 96 3320
81 96 4149
82 96 2591
83 96 4106
84 96 7331
85 96 4098
86 96 5402
87 96 3381
88 96 3408
89 96 3923
90 96 5251
91 96 3427
92 96 2862
93 96 5744
94 96 2657
95 96 3736
96 96 2888
97 96 2981
98 96 3759
99 96 2494
100 96 3205
101 96 4871
102 96 2172
103 96 2168
104 96 2583
105 96 3723
106 96 3971
107 96 2418
108 96 3552
109 96 3748
110 96 4119
111 96 1907
112 96 2670
113 96 4928
114 96 4341
115 96 4345
116 96 2894
117 96 2078
118 96 3126
119 96 2594
120 96 3898
121 96 4429
122 96 4129
123 96 6901
124 96 3942
125 96 1697
126 96 2804
127 96 4080
128 96 2896
129 96 2192
130 96 2591
131 96 4119
132 96 4968
133 96 1833
134 96 4074
135 96 3102
136 96 1297
137 96 5134
138 96 1915
139 96 4269
140 96 4656
141 96 4652
142 96 4129
143 96 4268
144 96 4828
145 96 4909
146 96 2446
147 96 4219
148 96 2206
149 96 3150
150 96 2704
151 96 3642
152 96 1120
153 96 1639
154 96 4655
155 96 3764
156 96 5535
157 96 1165
158 96 2471
159 96 1747
160 96 3673
161 96 2690
162 96 3451
163 96 4874
164 96 3884
165 96 2824
166 96 5505
167 96 4664
168 96 2712
169 96 3176
170 96 2919
171 96 4616
172 96 3902
173 96 2068
174 96 675
175 96 2203
176 96 3725
177 96 1944
178 96 2506
179 96 2464
180 96 4524
181 96 2504
182 96 5036
183 96 2820
184 96 5110
185 96 5736
186 96 4103
187 96 3834
188 96 3147
189 96 2413
190 96 5124
191 96 4226
192 96 3734
193 96 3491
194 96 2230
195 96 4345
196 96 2401
197 96 4425
198 96 5814
199 96 3711
200 96 5931
201 96 4889
202 96 4742
203 96 4809
204 96 5735
205 96 4034
206 96 3580
207 96 2528
208 96 5668
209 96 1576
210 96 1969
211 96 3130
212 96 3741
213 96 3636
214 96 6279
215 96 3121
216 96 3526
217 96 3245
218 96 4806
219 96 3661
220 96 2259
221 96 2073
222 96 4502
223 96 2626
224 96 3481
225 96 6033
226 96 2557
227 96 3293
228 96 7035
229 96 5194
230 96 5039
231 96 2044
232 96 4820
233 96 1173
234 96 4842
235 96 6036
236 96 3400
237 96 2451
238 96 5055
239 96 5364
240 96 3119
241 96 4566
242 96 1960
243 96 4335
244 96 6124
245 96 3887
246 96 4872
247 96 4962
248 96 1913
249 96 3847
250 96 2235
251 96 3704
252 96 3563
253 96 2587
254 96 4294
255 96 4192
256 96 3741
257 96 2918
258 96 3365
259 96 2723
260 96 5540
261 96 5183
262 96 5839
263 96 5898
264 96 3017
265 96 2319
266 96 4070
267 96 3324
268 96 2677
269 96 4354
270 96 3904
271 96 2445
272 96 6816
273 96 3574
274 96 4799
275 96 2927
276 96 3451
277 96 3726
278 96 4486
279 96 5209
280 96 2504
281 96 2985
282 96 5564
283 96 2611
284 96 5388
285 96 2931
286 96 2888
287 96 3483
288 96 2808
289 96 3266
290 96 3720
291 96 3005
292 96 2379
293 96 4850
294 96 3433
295 96 3037
296 96 2706
297 96 2401
298 96 2648
299 96 3229
300 96 2884
301 96 1881
302 96 4961
303 96 3304
304 96 3420
305 96 5890
306 96 3488
307 96 5557
308 96 3830
309 96 5500
310 96 3167
311 96 3950
312 96 2175
313 96 3154
314 96 2961
315 96 4997
316 96 4204
317 96 2527
318 96 3639
319 96 3552
320 96 3013
321 96 3306
322 96 5404
323 96 2056
324 96 4098
325 96 4263
326 96 4289
327 96 2857
328 96 3981
329 96 2973
330 96 6777
331 96 6055
332 96 4597
333 96 5821
334 96 4425
335 96 2375
336 96 2503
337 96 4207
338 96 2463
339 96 2487
340 96 3923
341 96 2071
342 96 7782
343 96 4183
344 96 4083
345 96 2453
346 96 2435
347 96 3784
348 96 5738
349 96 3376
350 96 4634
351 96 4303
352 96 5792
353 96 3831
354 96 3507
355 96 2712
356 96 2685
357 96 3737
358 96 3887
359 96 3322
360 96 3302
361 96 3802
362 96 3403
363 96 3709
364 96 4084
365 96 3773
366 96 3822
367 96 3580
368 96 2281
369 96 2256
370 96 4331
371 96 3359
372 96 2352
373 96 3838
374 96 4272
375 96 5823
376 96 3537
377 96 3863
378 96 3170
379 96 2556
380 96 3991
381 96 2663
382 96 3407
383 96 2443
384 96 2596
385 96 2641
386 96 2663
387 96 2732
388 96 3346
389 96 3957
390 96 3361
391 96 3379
392 96 3636
393 96 3225
394 96 4593
395 96 3219
396 96 5605
397 96 4918
398 96 2582
399 96 3707
400 96 2866
401 96 4714
402 96 1751
403 96 1628
404 96 4121
405 96 3911
406 96 7325
407 96 3180
408 96 5220
409 96 1743
410 96 2992
411 96 1285
412 96 2248
413 96 1875
414 96 5016
415 96 3736
416 96 2490
417 96 1727
418 96 2768
419 96 4542
420 96 3779
421 96 2531
422 96 4188
423 96 2446
424 96 4206
425 96 4825
426 96 3936
427 96 2569
428 96 2292
429 96 3906
430 96 2502
431 96 3981
432 96 4540
433 96 3208
434 96 1251
435 96 4186
436 96 2344
437 96 4694
438 96 2063
439 96 5755
440 96 7298
441 96 3322
442 96 5959
443 96 2285
444 96 4196
445 96 3136
446 96 3770
447 96 7420
448 96 6156
449 96 2324
450 96 3312
451 96 4311
452 96 5607
453 96 3926
454 96 2171
455 96 2632
456 96 2469
457 96 3331
458 96 3411
459 96 4191
460 96 4163
461 96 4174
462 96 3563
463 96 5252
464 96 1997
465 96 2301
466 96 5446
467 96 2093
468 96 1847
469 96 3092
470 96 6147
471 96 4238
472 96 1964
473 96 3964
474 96 4292
475 96 4685
476 96 3080
477 96 4791
478 96 3668
479 96 3706
480 96 3730
481 96 3889
482 96 4571
483 96 5380
484 96 7627
485 96 3028
486 96 6999
487 96 3465
488 96 3387
489 96 3345
490 96 5120
491 96 2551
492 96 2988
493 96 8349
494 96 3595
495 96 5785
496 96 2601
497 96 3376
498 96 3334
499 96 3869
500 96 3919
17 97 4
27 97 3
34 97 7
41 97 7
54 97 6
62 97 7
68 97 5
78 97 4
87 97 19
98 97 5
128 97 3
136 97 2
153 97 2
179 97 3
186 97 3
187 97 11
200 97 3
207 97 7
209 97 7
210 97 5
235 97 10
236 97 15
248 97 5
255 97 3
262 97 2
273 97 5
284 97 3
304 97 16
314 97 5
320 97 6
322 97 6
324 97 6
329 97 6
331 97 7
349 97 13
358 97 4
366 97 4
371 97 4
377 97 5
382 97 2
391 97 6
401 97 3
404 97 13
420 97 1
452 97 7
461 97 4
472 97 3
479 97 7
481 97 4
488 97 14
1 98 426
2 98 685
3 98 946
4 98 728
5 98 1828
6 98 1763
7 98 972
8 98 1182
9 98 1685
10 98 873
11 98 1350
12 98 1027
13 98 903
14 98 653
15 98 1168
16 98 574
17 98 593
18 98 1185
19 98 931
20 98 948
21 98 460
22 98 778
23 98 2016
24 98 1420
25 98 1141
26 98 1448
27 98 602
28 98 1705
29 98 1183
30 98 865
31 98 1226
32 98 925
33 98 1003
34 98 872
35 98 1819
36 98 1909
37 98 3019
38 98 1228
39 98 1152
40 98 676
41 98 1398
42 98 1104
43 98 917
44 98 653
45 98 919
46 98 744
47 98 687
48 98 1534
49 98 843
50 98 386
51 98 769
52 98 881
53 98 1535
54 98 1425
55 98 1305
56 98 1384
57 98 2310
58 98 1213
59 98 635
60 98 869
61 98 1441
62 98 933
63 98 1688
64 98 1407
65 98 1303
66 98 619
67 98 980
68 98 757
69 98 1433
70 98 1649
71 98 742
72 98 1089
73 98 2494
74 98 572
75 98 1773
76 98 1405
77 98 517
78 98 1607
79 98 1124
80 98 979
81 98 1456
82 98 1089
83 98 368
84 98 1016
85 98 1429
86 98 1854
87 98 1827
88 98 1890
89 98 1426
90 98 939
91 98 1750
92 98 465
93 98 2274
94 98 2346
95 98 1427
96 98 1303
97 98 1408
98 98 1850
99 98 710
100 98 1335
101 98 2132
102 98 904
103 98 1162
104 98 1837
105 98 858
106 98 1568
107 98 942
108 98 1274
109 98 709
110 98 826
111 98 759
112 98 506
113 98 1222
114 98 1167
115 98 1376
116 98 804
117 98 1040
118 98 1137
119 98 1653
120 98 532
121 98 1301
122 98 842
123 98 1628
124 98 944
125 98 806
126 98 713
127 98 1429
128 98 1485
129 98 1018
130 98 850
131 98 962
132 98 1968
133 98 936
134 98 1328
135 98 810
136 98 1170
137 98 2628
138 98 675
139 98 1971
140 98 1906
141 98 1634
142 98 1803
143 98 1710
144 98 1277
145 98 644
146 98 619
147 98 2216
148 98 1030
149 98 2107
150 98 482
151 98 1215
152 98 534
153 98 340
154 98 1012
155 98 1149
156 98 1799
157 98 528
158 98 1009
159 98 894
160 98 1197
161 98 1565
162 98 1351
163 98 818
164 98 420
165 98 983
166 98 2663
167 98 970
168 98 684
169 98 1499
170 98 1120
171 98 1728
172 98 2069
173 98 714
174 98 510
175 98 1101
176 98 1098
177 98 834
178 98 881
179 98 1369
180 98 558
181 98 1799
182 98 2621
183 98 976
184 98 1099
185 98 1210
186 98 1087
187 98 1172
188 98 1555
189 98 1889
190 98 1728
191 98 3003
192 98 904
193 98 1275
194 98 1508
195 98 1906
196 98 1014
197 98 751
198 98 884
199 98 1005
200 98 737
201 98 637
202 98 1149
203 98 1585
204 98 1126
205 98 1056
206 98 1170
207 98 1342
208 98 2339
209 98 461
210 98 754
211 98 2057
212 98 705
213 98 1024
214 98 1480
215 98 1520
216 98 1469
217 98 2111
218 98 1499
219 98 1549
220 98 1447
221 98 1774
222 98 1276
223 98 2497
224 98 1006
225 98 2178
226 98 1563
227 98 463
228 98 1265
229 98 904
230 98 699
231 98 556
232 98 1969
233 98 536
234 98 1689
235 98 557
236 98 1797
237 98 594
238 98 915
239 98 1899
240 98 931
241 98 732
242 98 324
243 98 1370
244 98 526
245 98 487
246 98 2108
247 98 1189
248 98 737
249 98 1620
250 98 1240
251 98 138
252 98 1125
253 98 1132
254 98 1849
255 98 401
256 98 1102
257 98 978
258 98 1582
259 98 1494
260 98 905
261 98 994
262 98 711
263 98 2244
264 98 1214
265 98 1408
266 98 972
267 98 736
268 98 517
269 98 1318
270 98 1101
271 98 1488
272 98 2724
273 98 873
274 98 1680
275 98 1155
276 98 1322
277 98 1934
278 98 886
279 98 1519
280 98 784
281 98 484
282 98 445
283 98 1726
284 98 2153
285 98 794
286 98 2060
287 98 2122
288 98 1779
289 98 1560
290 98 274
291 98 559
292 98 671
293 98 772
294 98 1277
295 98 787
296 98 808
297 98 805
298 98 580
299 98 1255
300 98 1747
301 98 334
302 98 1062
303 98 1794
304 98 1786
305 98 879
306 98 1005
307 98 941
308 98 1040
309 98 1513
310 98 582
311 98 475
312 98 2117
313 98 860
314 98 1516
315 98 591
316 98 1362
317 98 1055
318 98 1127
319 98 1526
320 98 897
321 98 1581
322 98 866
323 98 814
324 98 2850
325 98 786
326 98 437
327 98 2246
328 98 372
329 98 1000
330 98 2751
331 98 758
332 98 2715
333 98 2648
334 98 3062
335 98 1312
336 98 951
337 98 1437
338 98 901
339 98 599
340 98 993
341 98 713
342 98 821
343 98 1704
344 98 986
345 98 923
346 98 1341
347 98 1284
348 98 1914
349 98 1775
350 98 568
351 98 1060
352 98 1198
353 98 694
354 98 1330
355 98 1720
356 98 521
357 98 928
358 98 1847
359 98 724
360 98 2186
361 98 1342
362 98 1013
363 98 272
364 98 888
365 98 720
366 98 1248
367 98 2113
368 98 848
369 98 1365
370 98 717
371 98 271
372 98 1201
373 98 1502
374 98 1720
375 98 873
376 98 1673
377 98 1188
378 98 936
379 98 1728
380 98 885
381 98 1585
382 98 701
383 98 1306
384 98 714
385 98 1017
386 98 1733
387 98 697
388 98 1899
389 98 980
390 98 1012
391 98 676
392 98 887
393 98 2054
394 98 1461
395 98 786
396 98 3159
397 98 1864
398 98 252
399 98 401
400 98 1000
401 98 969
402 98 247
403 98 1396
404 98 429
405 98 1544
406 98 1278
407 98 1119
408 98 1014
409 98 610
410 98 1217
411 98 1146
412 98 1282
413 98 1060
414 98 1043
415 98 967
416 98 234
417 98 598
418 98 602
419 98 1394
420 98 1946
421 98 1043
422 98 2998
423 98 977
424 98 774
425 98 1966
426 98 477
427 98 749
428 98 328
429 98 2389
430 98 1593
431 98 1014
432 98 1487
433 98 1452
434 98 1135
435 98 1940
436 98 986
437 98 1915
438 98 763
439 98 871
440 98 965
441 98 575
442 98 1102
443 98 1263
444 98 1462
445 98 1583
446 98 1423
447 98 1020
448 98 1559
449 98 967
450 98 1482
451 98 1859
452 98 2332
453 98 2027
454 98 1162
455 98 495
456 98 650
457 98 568
458 98 2697
459 98 1273
460 98 842
461 98 418
462 98 943
463 98 1597
464 98 729
465 98 829
466 98 1450
467 98 1337
468 98 270
469 98 1635
470 98 1450
471 98 1107
472 98 810
473 98 1419
474 98 1348
475 98 2028
476 98 695
477 98 1156
478 98 1149
479 98 1515
480 98 1210
481 98 1860
482 98 2037
483 98 1826
484 98 1919
485 98 1066
486 98 1226
487 98 765
488 98 1818
489 98 766
490 98 1469
491 98 1027
492 98 1251
493 98 1401
494 98 272
495 98 1049
496 98 1106
497 98 786
498 98 884
499 98 1360
500 98 541
1 99 2644
2 99 1116
3 99 1836
4 99 1258
5 99 2853
6 99 1382
7 99 2764
8 99 1452
9 99 2080
10 99 1190
11 99 1222
12 99 2061
13 99 1235
14 99 1031
15 99 1152
16 99 889
17 99 969
18 99 1380
19 99 1514
20 99 2080
21 99 878
22 99 2057
23 99 1790
24 99 1543
25 99 1808
26 99 1137
27 99 776
28 99 1951
29 99 1375
30 99 1323
31 99 1978
32 99 1160
33 99 952
34 99 1228
35 99 413
36 99 1602
37 99 1454
38 99 1350
39 99 3269
40 99 2278
41 99 857
42 99 2227
43 99 1547
44 99 721
45 99 1561
46 99 697
47 99 365
48 99 2137
49 99 2338
50 99 733
51 99 1945
52 99 1904
53 99 2834
54 99 1234
55 99 863
56 99 1023
57 99 4935
58 99 988
59 99 388
60 99 1919
61 99 1633
62 99 2989
63 99 2849
64 99 1319
65 99 1950
66 99 1559
67 99 1301
68 99 2355
69 99 1555
70 99 1525
71 99 2222
72 99 650
73 99 4861
74 99 1132
75 99 1992
76 99 2367
77 99 1795
78 99 1785
79 99 2142
80 99 2180
81 99 2309
82 99 858
83 99 1416
84 99 2074
85 99 1566
86 99 550
87 99 1750
88 99 1022
89 99 1356
90 99 1506
91 99 2433
92 99 974
93 99 1868
94 99 1452
95 99 1884
96 99 1603
97 99 1255
98 99 1125
99 99 1303
100 99 1312
101 99 1442
102 99 1081
103 99 1588
104 99 1265
105 99 2489
106 99 3119
107 99 1605
108 99 2169
109 99 2157
110 99 1054
111 99 982
112 99 1056
113 99 2759
114 99 902
115 99 1561
116 99 987
117 99 1311
118 99 1303
119 99 803
120 99 1417
121 99 2016
122 99 1945
123 99 1370
124 99 2174
125 99 1510
126 99 1356
127 99 1529
128 99 994
129 99 1462
130 99 2050
131 99 2646
132 99 2030
133 99 2360
134 99 1879
135 99 1637
136 99 867
137 99 1446
138 99 1201
139 99 1642
140 99 1593
141 99 1784
142 99 2379
143 99 1737
144 99 2102
145 99 1212
146 99 663
147 99 1717
148 99 1928
149 99 1801
150 99 1347
151 99 627
152 99 842
153 99 1413
154 99 2226
155 99 1719
156 99 1711
157 99 783
158 99 1004
159 99 751
160 99 1765
161 99 2599
162 99 1206
163 99 1305
164 99 724
165 99 2079
166 99 1361
167 99 944
168 99 2165
169 99 2553
170 99 1487
171 99 1735
172 99 1269
173 99 868
174 99 994
175 99 1501
176 99 1198
177 99 1122
178 99 1318
179 99 875
180 99 2731
181 99 1311
182 99 1503
183 99 2099
184 99 1685
185 99 2856
186 99 1234
187 99 1597
188 99 2280
189 99 1363
190 99 1388
191 99 2400
192 99 1257
193 99 1197
194 99 1539
195 99 2092
196 99 1020
197 99 2332
198 99 1853
199 99 2600
200 99 2222
201 99 1187
202 99 1447
203 99 1870
204 99 2120
205 99 1282
206 99 2444
207 99 905
208 99 1221
209 99 1022
210 99 1998
211 99 1805
212 99 2154
213 99 2688
214 99 2955
215 99 2290
216 99 1781
217 99 2851
218 99 1757
219 99 1451
220 99 1513
221 99 1029
222 99 2119
223 99 5315
224 99 2228
225 99 864
226 99 2570
227 99 908
228 99 1304
229 99 3088
230 99 1958
231 99 674
232 99 1915
233 99 825
234 99 1793
235 99 2521
236 99 1833
237 99 1095
238 99 3144
239 99 573
240 99 2274
241 99 1583
242 99 2520
243 99 2012
244 99 2349
245 99 1180
246 99 2005
247 99 1357
248 99 2061
249 99 1236
250 99 1665
251 99 2341
252 99 2342
253 99 1359
254 99 2070
255 99 1167
256 99 1174
257 99 3398
258 99 1055
259 99 1571
260 99 3046
261 99 1517
262 99 2302
263 99 849
264 99 1860
265 99 1567
266 99 2573
267 99 3006
268 99 1602
269 99 1887
270 99 2616
271 99 771
272 99 2732
273 99 1467
274 99 1754
275 99 1253
276 99 1207
277 99 2261
278 99 2581
279 99 1503
280 99 1273
281 99 1432
282 99 1889
283 99 1282
284 99 2873
285 99 967
286 99 2612
287 99 1653
288 99 1426
289 99 2287
290 99 1418
291 99 1662
292 99 1840
293 99 1519
294 99 1516
295 99 1410
296 99 2555
297 99 1061
298 99 1675
299 99 2766
300 99 1394
301 99 2537
302 99 2515
303 99 2917
304 99 1756
305 99 1865
306 99 2154
307 99 2090
308 99 1860
309 99 1292
310 99 716
311 99 1453
312 99 1758
313 99 2371
314 99 942
315 99 1155
316 99 1568
317 99 1330
318 99 2452
319 99 2720
320 99 2373
321 99 1625
322 99 1013
323 99 1120
324 99 1758
325 99 3133
326 99 1864
327 99 1212
328 99 759
329 99 2262
330 99 2833
331 99 2220
332 99 2296
333 99 2096
334 99 3879
335 99 1182
336 99 1156
337 99 2208
338 99 1259
339 99 673
340 99 2678
341 99 896
342 99 1437
343 99 2558
344 99 2716
345 99 1235
346 99 3055
347 99 1326
348 99 1740
349 99 1718
350 99 2231
351 99 2338
352 99 2844
353 99 961
354 99 1495
355 99 1494
356 99 1708
357 99 1154
358 99 1176
359 99 3144
360 99 2876
361 99 1815
362 99 2633
363 99 1374
364 99 1264
365 99 2714
366 99 1307
367 99 1139
368 99 1365
369 99 1531
370 99 1227
371 99 1407
372 99 1002
373 99 1286
374 99 2239
375 99 1730
376 99 2401
377 99 1545
378 99 908
379 99 1256
380 99 3115
381 99 2605
382 99 2123
383 99 1009
384 99 1923
385 99 2121
386 99 1225
387 99 1559
388 99 2910
389 99 2730
390 99 2115
391 99 2171
392 99 837
393 99 1773
394 99 1733
395 99 1642
396 99 2232
397 99 1626
398 99 1107
399 99 1421
400 99 1141
401 99 979
402 99 514
403 99 1402
404 99 1150
405 99 2306
406 99 707
407 99 1306
408 99 2623
409 99 1239
410 99 1522
411 99 701
412 99 1623
413 99 1307
414 99 2523
415 99 2694
416 99 1112
417 99 1201
418 99 708
419 99 724
420 99 1139
421 99 1286
422 99 2360
423 99 1130
424 99 1887
425 99 2009
426 99 1253
427 99 2071
428 99 984
429 99 1509
430 99 768
431 99 2730
432 99 3659
433 99 1558
434 99 706
435 99 1398
436 99 1710
437 99 2504
438 99 618
439 99 1893
440 99 1598
441 99 735
442 99 2610
443 99 1223
444 99 1089
445 99 840
446 99 1602
447 99 1634
448 99 2010
449 99 1142
450 99 587
451 99 1375
452 99 2701
453 99 1818
454 99 1539
455 99 1065
456 99 1387
457 99 1501
458 99 1766
459 99 1968
460 99 3085
461 99 1217
462 99 833
463 99 1282
464 99 1262
465 99 1149
466 99 2680
467 99 843
468 99 504
469 99 2319
470 99 1995
471 99 2286
472 99 1073
473 99 1427
474 99 2404
475 99 1830
476 99 1916
477 99 1410
478 99 2376
479 99 2197
480 99 2287
481 99 1100
482 99 1413
483 99 549
484 99 3424
485 99 929
486 99 1319
487 99 1505
488 99 1764
489 99 1539
490 99 1623
491 99 1014
492 99 845
493 99 3039
494 99 1334
495 99 2328
496 99 1760
497 99 1377
498 99 937
499 99 1840
500 99 1273
1 100 6
2 100 4
3 100 44
4 100 98
5 100 37
6 100 78
7 100 50
8 100 94
9 100 12
10 100 30
11 100 25
12 100 100
13 100 29
14 100 11
15 100 76
16 100 10
17 100 23
18 100 25
19 100 17
20 100 42
21 100 18
22 100 13
23 100 23
24 100 70
25 100 11
26 100 67
27 100 32
28 100 33
29 100 71
30 100 22
31 100 20
32 100 7
33 100 7
34 100 22
35 100 55
36 100 14
37 100 30
38 100 19
39 100 13
40 100 105
41 100 97
42 100 17
43 100 10
44 100 12
45 100 118
46 100 46
47 100 58
48 100 100
49 100 30
50 100 29
51 100 47
52 100 88
53 100 70
54 100 24
55 100 28
56 100 3
57 100 15
58 100 25
59 100 56
60 100 4
61 100 22
62 100 48
63 100 35
64 100 103
65 100 49
66 100 4
67 100 50
68 100 42
69 100 79
70 100 28
71 100 90
72 100 5
73 100 23
74 100 46
75 100 36
76 100 3
77 100 6
78 100 15
79 100 17
80 100 20
81 100 13
82 100 8
83 100 36
84 100 4
85 100 53
86 100 17
87 100 15
88 100 86
89 100 7
90 100 65
91 100 80
92 100 3
93 100 19
94 100 40
95 100 16
96 100 87
97 100 53
98 100 27
99 100 10
100 100 26
101 100 6
102 100 15
103 100 66
104 100 66
105 100 72
106 100 38
107 100 17
108 100 70
109 100 83
110 100 29
111 100 27
112 100 15
113 100 37
114 100 34
115 100 58
116 100 4
117 100 8
118 100 41
119 100 6
120 100 60
121 100 98
122 100 6
123 100 129
124 100 40
125 100 32
126 100 6
127 100 66
128 100 77
129 100 25
130 100 7
131 100 57
132 100 62
133 100 42
134 100 9
135 100 14
136 100 17
137 100 138
138 100 33
139 100 54
140 100 17
141 100 38
142 100 102
143 100 5
144 100 112
145 100 26
146 100 22
147 100 93
148 100 68
149 100 45
150 100 6
151 100 11
152 100 6
153 100 48
154 100 86
155 100 20
156 100 97
157 100 5
158 100 12
159 100 5
160 100 28
161 100 35
162 100 27
163 100 44
164 100 33
165 100 88
166 100 46
167 100 13
168 100 32
169 100 24
170 100 3
171 100 71
172 100 78
174 100 14
175 100 65
176 100 22
177 100 10
178 100 40
179 100 62
180 100 49
181 100 7
182 100 154
183 100 80
184 100 52
185 100 43
186 100 7
187 100 30
188 100 28
189 100 8
190 100 81
191 100 13
192 100 40
193 100 21
194 100 79
195 100 64
196 100 7
197 100 146
198 100 8
199 100 77
200 100 53
201 100 41
202 100 75
203 100 5
204 100 73
205 100 7
206 100 1
207 100 59
208 100 39
209 100 20
210 100 26
211 100 30
212 100 69
213 100 90
214 100 77
215 100 29
216 100 5
217 100 18
218 100 44
219 100 65
220 100 80
221 100 44
222 100 32
223 100 98
224 100 15
225 100 70
226 100 76
227 100 25
228 100 31
229 100 40
230 100 89
231 100 2
232 100 108
233 100 11
234 100 33
235 100 12
236 100 16
237 100 21
238 100 30
239 100 15
240 100 31
241 100 35
242 100 61
243 100 101
244 100 10
245 100 29
246 100 49
247 100 161
248 100 25
249 100 57
250 100 8
251 100 16
252 100 5
253 100 33
254 100 82
255 100 29
256 100 10
257 100 7
258 100 34
260 100 7
261 100 74
262 100 56
263 100 69
264 100 63
265 100 86
266 100 18
267 100 2
269 100 18
270 100 65
271 100 30
272 100 80
273 100 4
274 100 28
275 100 10
276 100 27
277 100 47
278 100 5
279 100 16
280 100 13
281 100 25
282 100 61
283 100 43
284 100 4
285 100 8
286 100 134
287 100 69
288 100 51
289 100 36
290 100 20
291 100 6
292 100 56
293 100 157
294 100 9
295 100 3
296 100 76
297 100 36
298 100 23
299 100 54
300 100 48
301 100 48
302 100 69
303 100 12
304 100 26
305 100 5
306 100 50
307 100 57
308 100 46
309 100 6
310 100 60
311 100 45
312 100 14
313 100 34
314 100 64
315 100 41
316 100 52
318 100 5
319 100 8
320 100 11
321 100 30
322 100 57
323 100 14
324 100 67
325 100 20
326 100 105
327 100 15
328 100 34
329 100 15
330 100 69
331 100 37
332 100 86
333 100 8
334 100 52
335 100 8
336 100 9
337 100 20
338 100 12
339 100 32
340 100 18
342 100 26
343 100 4
344 100 53
345 100 9
346 100 93
347 100 10
348 100 67
349 100 19
350 100 14
351 100 44
352 100 57
353 100 31
354 100 12
355 100 28
357 100 44
358 100 27
359 100 3
360 100 18
361 100 15
362 100 38
363 100 13
364 100 17
365 100 27
366 100 21
367 100 8
368 100 5
369 100 85
370 100 103
371 100 36
372 100 23
373 100 51
374 100 17
375 100 3
376 100 77
377 100 34
378 100 31
379 100 53
380 100 14
381 100 40
382 100 68
383 100 25
384 100 55
385 100 143
386 100 59
387 100 9
388 100 9
389 100 13
390 100 63
391 100 54
392 100 77
393 100 34
394 100 4
395 100 19
396 100 14
397 100 115
398 100 9
399 100 21
400 100 5
401 100 51
402 100 18
403 100 62
404 100 31
405 100 6
406 100 15
407 100 57
408 100 3
409 100 32
410 100 6
411 100 9
412 100 5
413 100 50
414 100 50
415 100 13
416 100 12
417 100 39
418 100 51
419 100 12
420 100 38
421 100 26
422 100 16
424 100 58
425 100 5
426 100 21
427 100 8
428 100 9
429 100 20
430 100 36
431 100 8
432 100 48
433 100 40
434 100 4
435 100 52
436 100 12
437 100 59
438 100 18
439 100 6
440 100 290
441 100 67
442 100 48
443 100 17
444 100 55
445 100 14
446 100 9
447 100 340
448 100 16
450 100 63
451 100 25
452 100 64
453 100 42
454 100 53
455 100 15
456 100 50
457 100 2
458 100 16
459 100 114
460 100 21
461 100 32
462 100 84
463 100 7
464 100 21
465 100 10
466 100 41
467 100 48
468 100 19
469 100 25
470 100 15
471 100 8
472 100 36
473 100 19
474 100 10
475 100 37
476 100 5
477 100 106
478 100 6
479 100 34
480 100 3
481 100 37
482 100 74
483 100 20
484 100 40
485 100 10
486 100 47
487 100 22
488 100 6
489 100 40
490 100 36
491 100 10
492 100 14
493 100 42
494 100 17
496 100 17
497 100 68
498 100 12
499 100 12
500 100 25
1 101 1131
2 101 1362
3 101 1589
4 101 1598
5 101 2512
6 101 1069
7 101 810
8 101 805
9 101 1314
10 101 740
11 101 622
12 101 1178
13 101 1357
14 101 549
15 101 636
16 101 447
17 101 1128
18 101 550
19 101 413
20 101 912
21 101 910
22 101 603
23 101 1542
24 101 2017
25 101 798
26 101 1174
27 101 784
28 101 1098
29 101 781
30 101 874
31 101 1699
32 101 674
33 101 741
34 101 389
35 101 1512
36 101 1737
37 101 1730
38 101 1842
39 101 2355
40 101 375
41 101 1414
42 101 428
43 101 418
44 101 521
45 101 1372
46 101 739
47 101 762
48 101 1556
49 101 3035
50 101 2078
51 101 1396
52 101 2164
53 101 2519
54 101 462
55 101 2282
56 101 950
57 101 2097
58 101 628
59 101 716
60 101 1022
61 101 1420
62 101 1432
63 101 2673
64 101 1505
65 101 349
66 101 646
67 101 808
68 101 1558
69 101 2076
70 101 818
71 101 1476
72 101 986
73 101 2069
74 101 691
75 101 1162
76 101 1267
77 101 542
78 101 509
79 101 481
80 101 436
81 101 895
82 101 263
83 101 271
84 101 1454
85 101 1021
86 101 2151
87 101 366
88 101 1426
89 101 1203
90 101 805
91 101 1041
92 101 1000
93 101 800
94 101 1056
95 101 1658
96 101 669
97 101 1481
98 101 254
99 101 1146
100 101 1356
101 101 1208
102 101 828
103 101 990
104 101 836
105 101 2162
106 101 2109
107 101 777
108 101 1887
109 101 1571
110 101 641
111 101 615
112 101 1103
113 101 1729
114 101 1702
115 101 973
116 101 647
117 101 827
118 101 587
119 101 1286
120 101 1798
121 101 1988
122 101 2027
123 101 1241
124 101 1143
125 101 687
126 101 860
127 101 1048
128 101 1376
129 101 1768
130 101 616
131 101 887
132 101 638
133 101 545
134 101 1012
135 101 1084
136 101 620
137 101 619
138 101 339
139 101 1206
140 101 1779
141 101 683
142 101 1141
143 101 661
144 101 1924
145 101 909
146 101 578
147 101 1297
148 101 840
149 101 883
150 101 1069
151 101 817
152 101 606
153 101 672
154 101 2192
155 101 1067
156 101 642
157 101 614
158 101 785
159 101 749
160 101 961
161 101 1408
162 101 615
163 101 870
164 101 2123
165 101 1224
166 101 734
167 101 1337
168 101 594
169 101 2213
170 101 1186
171 101 864
172 101 1715
173 101 292
174 101 709
175 101 895
176 101 792
177 101 1120
178 101 686
179 101 1488
180 101 598
181 101 1119
182 101 681
183 101 1232
184 101 1895
185 101 2001
186 101 1071
187 101 1411
188 101 883
189 101 1094
190 101 1157
191 101 2194
192 101 1672
193 101 550
194 101 1980
195 101 1154
196 101 779
197 101 825
198 101 971
199 101 1435
200 101 1463
201 101 931
202 101 795
203 101 1555
204 101 433
205 101 1746
206 101 1317
207 101 1479
208 101 843
209 101 812
210 101 527
211 101 880
212 101 1531
213 101 1433
214 101 768
215 101 920
216 101 2058
217 101 1072
218 101 922
219 101 1718
220 101 2017
221 101 636
222 101 658
223 101 949
224 101 391
225 101 741
226 101 835
227 101 871
228 101 2584
229 101 428
230 101 616
231 101 283
232 101 845
233 101 609
234 101 706
235 101 929
236 101 404
237 101 797
238 101 439
239 101 2149
240 101 3025
241 101 998
242 101 1243
243 101 1342
244 101 1762
245 101 914
246 101 749
247 101 1520
248 101 533
249 101 1092
250 101 1182
251 101 902
252 101 1268
253 101 952
254 101 1093
255 101 1152
256 101 863
257 101 3445
258 101 924
259 101 1273
260 101 1271
261 101 821
262 101 1586
263 101 711
264 101 1414
265 101 2043
266 101 469
267 101 3198
268 101 1147
269 101 1019
270 101 1313
271 101 924
272 101 1032
273 101 1501
274 101 792
275 101 942
276 101 562
277 101 248
278 101 1006
279 101 964
280 101 1192
281 101 823
282 101 1830
283 101 814
284 101 2328
285 101 595
286 101 2203
287 101 681
288 101 738
289 101 874
290 101 459
291 101 646
292 101 241
293 101 300
294 101 1249
295 101 507
296 101 2199
297 101 421
298 101 717
299 101 843
300 101 804
301 101 1233
302 101 446
303 101 1234
304 101 359
305 101 974
306 101 1156
307 101 955
308 101 1562
309 101 2130
310 101 932
311 101 1761
312 101 900
313 101 2994
314 101 1344
315 101 944
316 101 975
317 101 694
318 101 1297
319 101 1594
320 101 1035
321 101 1889
322 101 1209
323 101 1208
324 101 1951
325 101 1426
326 101 1657
327 101 1068
328 101 2152
329 101 985
330 101 1046
331 101 1492
332 101 1164
333 101 971
334 101 2125
335 101 715
336 101 825
337 101 898
338 101 803
339 101 578
340 101 543
341 101 279
342 101 1085
343 101 1546
344 101 945
345 101 824
346 101 1143
347 101 1940
348 101 1928
349 101 362
350 101 1121
351 101 651
352 101 1984
353 101 784
354 101 1277
355 101 851
356 101 1162
357 101 1571
358 101 300
359 101 3249
360 101 1070
361 101 406
362 101 1137
363 101 538
364 101 953
365 101 902
366 101 2128
367 101 968
368 101 619
369 101 2051
370 101 1716
371 101 1174
372 101 613
373 101 1020
374 101 622
375 101 988
376 101 1027
377 101 1377
378 101 1160
379 101 802
380 101 2431
381 101 1379
382 101 736
383 101 872
384 101 262
385 101 1691
386 101 818
387 101 1447
388 101 1177
389 101 527
390 101 1180
391 101 706
392 101 1182
393 101 914
394 101 523
395 101 1103
396 101 1222
397 101 1491
398 101 1055
399 101 729
400 101 655
401 101 1019
402 101 812
403 101 467
404 101 1204
405 101 1586
406 101 1088
407 101 585
408 101 518
409 101 226
410 101 1629
411 101 938
412 101 1141
413 101 833
414 101 439
415 101 545
416 101 1034
417 101 240
418 101 428
419 101 1479
420 101 326
421 101 915
422 101 2271
423 101 1433
424 101 830
425 101 928
426 101 941
427 101 589
428 101 1082
429 101 2284
430 101 945
431 101 1182
432 101 1798
433 101 1216
434 101 977
435 101 1931
436 101 709
437 101 1164
438 101 880
439 101 1006
440 101 1600
441 101 937
442 101 699
443 101 765
444 101 1515
445 101 1145
446 101 1278
447 101 1645
448 101 801
449 101 1462
450 101 1049
451 101 993
452 101 1488
453 101 1229
454 101 982
455 101 1063
456 101 807
457 101 700
458 101 643
459 101 2503
460 101 1355
461 101 1136
462 101 1151
463 101 2201
464 101 1442
465 101 299
466 101 973
467 101 971
468 101 838
469 101 881
470 101 818
471 101 978
472 101 946
473 101 1139
474 101 1096
475 101 1019
476 101 1851
477 101 823
478 101 1329
479 101 568
480 101 1704
481 101 256
482 101 1990
483 101 2239
484 101 1448
485 101 1077
486 101 2574
487 101 1032
488 101 378
489 101 2029
490 101 840
491 101 792
492 101 1292
493 101 1179
494 101 486
495 101 1567
496 101 892
497 101 667
498 101 1853
499 101 420
500 101 904
1 102 16997
2 102 22806
3 102 37031
4 102 11535
5 102 11051
6 102 13937
7 102 8132
8 102 11616
9 102 17976
10 102 31633
11 102 30262
12 102 64139
13 102 8060
14 102 21271
15 102 11019
16 102 6104
17 102 36205
18 102 26851
19 102 23453
20 102 9339
21 102 17492
22 102 15088
23 102 12603
24 102 31279
25 102 13102
26 102 15515
27 102 18517
28 102 17734
29 102 11754
30 102 19056
31 102 13137
32 102 21097
33 102 21349
34 102 26351
35 102 14892
36 102 13805
37 102 9492
38 102 16098
39 102 14490
40 102 14775
41 102 15478
42 102 16481
43 102 23394
44 102 6312
45 102 16110
46 102 5297
47 102 18101
48 102 15342
49 102 16013
50 102 26775
51 102 27717
52 102 8932
53 102 8785
54 102 20473
55 102 12446
56 102 9484
57 102 18098
58 102 32567
59 102 18164
60 102 10340
61 102 30429
62 102 8607
63 102 23928
64 102 16565
65 102 11694
66 102 22892
67 102 12368
68 102 15032
69 102 31281
70 102 12585
71 102 16496
72 102 8606
73 102 18280
74 102 7323
75 102 17583
76 102 9513
77 102 25053
78 102 18669
79 102 16508
80 102 6709
81 102 18036
82 102 51379
83 102 8323
84 102 18851
85 102 11336
86 102 14112
87 102 7867
88 102 9395
89 102 12742
90 102 15232
91 102 9289
92 102 45643
93 102 16869
94 102 10669
95 102 15422
96 102 10296
97 102 43627
98 102 8357
99 102 11847
100 102 22307
101 102 12102
102 102 13657
103 102 13019
104 102 9723
105 102 13848
106 102 31604
107 102 12347
108 102 13020
109 102 16470
110 102 30998
111 102 8401
112 102 6325
113 102 18093
114 102 10278
115 102 11360
116 102 15830
117 102 9139
118 102 19912
119 102 16574
120 102 37637
121 102 17039
122 102 15157
123 102 13967
124 102 25873
125 102 18178
126 102 14154
127 102 11368
128 102 21670
129 102 10483
130 102 15235
131 102 8152
132 102 7809
133 102 8175
134 102 16069
135 102 20116
136 102 7110
137 102 14867
138 102 11721
139 102 26079
140 102 13977
141 102 19240
142 102 20747
143 102 14248
144 102 17139
145 102 14463
146 102 20907
147 102 34078
148 102 35810
149 102 23544
150 102 8226
151 102 18478
152 102 23763
153 102 16783
154 102 11274
155 102 14159
156 102 11599
157 102 24293
158 102 21292
159 102 13107
160 102 14546
161 102 23121
162 102 30517
163 102 12083
164 102 26948
165 102 64284
166 102 15894
167 102 15252
168 102 9818
169 102 10209
170 102 26874
171 102 25605
172 102 7547
173 102 26229
174 102 16801
175 102 12849
176 102 18720
177 102 11016
178 102 12280
179 102 15551
180 102 11067
181 102 17472
182 102 15153
183 102 64488
184 102 16075
185 102 13707
186 102 33716
187 102 16807
188 102 6690
189 102 17221
190 102 13798
191 102 8575
192 102 21897
193 102 30464
194 102 31442
195 102 40479
196 102 21185
197 102 10992
198 102 10504
199 102 17304
200 102 15312
201 102 14478
202 102 11749
203 102 20471
204 102 21299
205 102 9205
206 102 18732
207 102 15696
208 102 12109
209 102 26159
210 102 16282
211 102 23665
212 102 16591
213 102 17554
214 102 16807
215 102 6671
216 102 16530
217 102 19478
218 102 14071
219 102 14605
220 102 31384
221 102 21290
222 102 13992
223 102 8817
224 102 6730
225 102 14669
226 102 27302
227 102 17638
228 102 13909
229 102 14217
230 102 15398
231 102 33932
232 102 10398
233 102 24040
234 102 19280
235 102 11744
236 102 7784
237 102 9740
238 102 14293
239 102 13816
240 102 16220
241 102 17009
242 102 21920
243 102 9760
244 102 12352
245 102 37161
246 102 13971
247 102 9842
248 102 16304
249 102 16548
250 102 15101
251 102 24303
252 102 18812
253 102 15757
254 102 40737
255 102 24310
256 102 18826
257 102 17812
258 102 13985
259 102 16704
260 102 14438
261 102 14945
262 102 15236
263 102 14772
264 102 23026
265 102 31467
266 102 17994
267 102 11092
268 102 18196
269 102 18004
270 102 15220
271 102 16695
272 102 20079
273 102 12844
274 102 19451
275 102 11880
276 102 30412
277 102 28701
278 102 9981
279 102 19386
280 102 11835
281 102 21607
282 102 15378
283 102 9444
284 102 21314
285 102 15722
286 102 30762
287 102 22676
288 102 22640
289 102 6731
290 102 28001
291 102 39005
292 102 34448
293 102 17829
294 102 8780
295 102 31983
296 102 14918
297 102 7373
298 102 57457
299 102 15173
300 102 22739
301 102 21757
302 102 7690
303 102 16165
304 102 7622
305 102 10413
306 102 9394
307 102 9311
308 102 37253
309 102 25271
310 102 9982
311 102 37784
312 102 12624
313 102 16500
314 102 21642
315 102 14239
316 102 11241
317 102 20773
318 102 18965
319 102 13299
320 102 29703
321 102 33905
322 102 18595
323 102 11014
324 102 20804
325 102 14670
326 102 12547
327 102 9698
328 102 27106
329 102 29868
330 102 20490
331 102 15300
332 102 15939
333 102 9944
334 102 27600
335 102 13181
336 102 44029
337 102 18415
338 102 49503
339 102 21223
340 102 11431
341 102 27125
342 102 12890
343 102 16943
344 102 8011
345 102 50546
346 102 12339
347 102 16146
348 102 13700
349 102 7935
350 102 12770
351 102 23042
352 102 13884
353 102 22333
354 102 8895
355 102 12691
356 102 18081
357 102 22145
358 102 8358
359 102 11197
360 102 19414
361 102 10813
362 102 11687
363 102 27876
364 102 15275
365 102 27307
366 102 12845
367 102 10137
368 102 6955
369 102 31536
370 102 11702
371 102 6199
372 102 33070
373 102 16802
374 102 7888
375 102 10525
376 102 9063
377 102 16817
378 102 15934
379 102 9680
380 102 13919
381 102 23182
382 102 15030
383 102 27036
384 102 34340
385 102 13026
386 102 9571
387 102 20112
388 102 15976
389 102 11298
390 102 9186
391 102 15347
392 102 12785
393 102 23546
394 102 7658
395 102 20193
396 102 11992
397 102 11603
398 102 7955
399 102 5341
400 102 20987
401 102 12944
402 102 18461
403 102 9975
404 102 24008
405 102 10566
406 102 15259
407 102 20297
408 102 18335
409 102 22990
410 102 8625
411 102 8773
412 102 14977
413 102 12251
414 102 7785
415 102 11420
416 102 7942
417 102 23064
418 102 23429
419 102 32367
420 102 8371
421 102 18896
422 102 8682
423 102 13617
424 102 17205
425 102 23645
426 102 37896
427 102 14867
428 102 26351
429 102 16083
430 102 16797
431 102 11573
432 102 13795
433 102 7574
434 102 8765
435 102 13921
436 102 12261
437 102 14527
438 102 9992
439 102 10648
440 102 23022
441 102 9874
442 102 31155
443 102 12984
444 102 13353
445 102 15420
446 102 10483
447 102 23508
448 102 21795
449 102 13650
450 102 12902
451 102 9634
452 102 11602
453 102 9226
454 102 12873
455 102 6281
456 102 29135
457 102 22978
458 102 14495
459 102 10544
460 102 14667
461 102 24079
462 102 12997
463 102 24879
464 102 19444
465 102 5618
466 102 25084
467 102 53846
468 102 18640
469 102 6879
470 102 21598
471 102 20750
472 102 14076
473 102 16988
474 102 12520
475 102 7399
476 102 15615
477 102 11922
478 102 18934
479 102 18530
480 102 14593
481 102 8594
482 102 14018
483 102 14110
484 102 15583
485 102 12144
486 102 13712
487 102 12116
488 102 7885
489 102 12504
490 102 12425
491 102 21564
492 102 26416
493 102 23786
494 102 28096
495 102 10204
496 102 13044
497 102 37580
498 102 32250
499 102 10629
500 102 37483
1 103 2176
2 103 1472
3 103 1522
4 103 3089
5 103 5614
6 103 2967
7 103 1997
8 103 2240
9 103 3300
10 103 1681
11 103 2722
12 103 1862
13 103 1137
14 103 1280
15 103 1850
16 103 842
17 103 1714
18 103 1912
19 103 2044
20 103 3974
21 103 1612
22 103 1175
23 103 2577
24 103 1860
25 103 2438
26 103 2883
27 103 1371
28 103 4188
29 103 2297
30 103 2526
31 103 2298
32 103 1714
33 103 1373
34 103 2227
35 103 2972
36 103 3416
37 103 3676
38 103 2577
39 103 3389
40 103 3451
41 103 2487
42 103 3126
43 103 1994
44 103 720
45 103 3012
46 103 1871
47 103 3209
48 103 2063
49 103 4147
50 103 2578
51 103 3608
52 103 3734
53 103 3238
54 103 2080
55 103 2352
56 103 2579
57 103 5423
58 103 2065
59 103 3247
60 103 2303
61 103 1905
62 103 1864
63 103 2973
64 103 2284
65 103 2397
66 103 3619
67 103 2623
68 103 2603
69 103 1883
70 103 2844
71 103 2801
72 103 1145
73 103 5624
74 103 2251
75 103 4398
76 103 3737
77 103 1545
78 103 1650
79 103 3064
80 103 1481
81 103 3759
82 103 1537
83 103 1661
84 103 4995
85 103 3000
86 103 3241
87 103 2732
88 103 3384
89 103 2953
90 103 2709
91 103 2988
92 103 2707
93 103 2322
94 103 3516
95 103 1788
96 103 1280
97 103 1874
98 103 1933
99 103 1353
100 103 2411
101 103 2607
102 103 1661
103 103 1516
104 103 2480
105 103 4905
106 103 827
107 103 1735
108 103 2887
109 103 2853
110 103 2216
111 103 2738
112 103 861
113 103 3582
114 103 1577
115 103 3209
116 103 1239
117 103 2387
118 103 2177
119 103 2670
120 103 2978
121 103 4074
122 103 3360
123 103 2735
124 103 2874
125 103 1399
126 103 1169
127 103 3084
128 103 2807
129 103 3137
130 103 1165
131 103 2068
132 103 3549
133 103 1412
134 103 2949
135 103 2002
136 103 902
137 103 4595
138 103 1103
139 103 4609
140 103 3524
141 103 2356
142 103 3842
143 103 2417
144 103 4004
145 103 1254
146 103 955
147 103 1934
148 103 2439
149 103 2260
150 103 2574
151 103 2805
152 103 733
153 103 2975
154 103 3515
155 103 2644
156 103 1723
157 103 765
158 103 1404
159 103 2915
160 103 2666
161 103 2365
162 103 2687
163 103 1824
164 103 2664
165 103 1778
166 103 3734
167 103 2503
168 103 1373
169 103 2338
170 103 2273
171 103 2467
172 103 3090
173 103 1543
174 103 2095
175 103 1416
176 103 2717
177 103 2420
178 103 1227
179 103 2579
180 103 2153
181 103 2890
182 103 4528
183 103 1816
184 103 3637
185 103 1983
186 103 4083
187 103 1963
188 103 2200
189 103 2977
190 103 3164
191 103 3993
192 103 1915
193 103 2703
194 103 1833
195 103 2044
196 103 1503
197 103 3518
198 103 2390
199 103 2462
200 103 2581
201 103 1161
202 103 2276
203 103 2239
204 103 4837
205 103 2294
206 103 1252
207 103 2591
208 103 3058
209 103 1314
210 103 1619
211 103 2310
212 103 2688
213 103 2402
214 103 2534
215 103 2209
216 103 2581
217 103 3583
218 103 2784
219 103 2085
220 103 1906
221 103 1543
222 103 2831
223 103 2023
224 103 1450
225 103 3897
226 103 4127
227 103 1659
228 103 2208
229 103 2190
230 103 2968
231 103 821
232 103 3370
233 103 778
234 103 2351
235 103 2567
236 103 2756
237 103 1436
238 103 2219
239 103 3222
240 103 4129
241 103 2205
242 103 2610
243 103 2449
244 103 4194
245 103 1407
246 103 3690
247 103 1620
248 103 1611
249 103 2847
250 103 3250
251 103 1933
252 103 1240
253 103 1502
254 103 2013
255 103 4160
256 103 2731
257 103 5661
258 103 1959
259 103 1768
260 103 2812
261 103 2770
262 103 2591
263 103 3758
264 103 2246
265 103 1846
266 103 4070
267 103 4314
268 103 2656
269 103 2736
270 103 3845
271 103 2998
272 103 2579
273 103 2438
274 103 2382
275 103 2505
276 103 2682
277 103 2835
278 103 3237
279 103 2771
280 103 1319
281 103 2617
282 103 2766
283 103 2589
284 103 2882
285 103 1305
286 103 1515
287 103 4608
288 103 1828
289 103 2263
290 103 2154
291 103 2023
292 103 1917
293 103 2485
294 103 1381
295 103 1008
296 103 2813
297 103 908
298 103 2473
299 103 2957
300 103 1884
301 103 2658
302 103 3618
303 103 2634
304 103 2814
305 103 2297
306 103 3656
307 103 4036
308 103 1586
309 103 4772
310 103 2917
311 103 3000
312 103 1756
313 103 4014
314 103 2733
315 103 1277
316 103 3056
317 103 2227
318 103 1167
319 103 1452
320 103 4077
321 103 2024
322 103 4796
323 103 2546
324 103 2552
325 103 3639
326 103 3979
327 103 3204
328 103 2531
329 103 4224
330 103 2689
331 103 2579
332 103 2671
333 103 3498
334 103 4342
335 103 1613
336 103 1585
337 103 3796
338 103 1601
339 103 968
340 103 7677
341 103 1476
342 103 2788
343 103 3199
344 103 2017
345 103 1638
346 103 3190
347 103 2660
348 103 2331
349 103 2809
350 103 3589
351 103 2624
352 103 1917
353 103 1492
354 103 1375
355 103 2871
356 103 2659
357 103 1848
358 103 1880
359 103 4123
360 103 3553
361 103 1434
362 103 3762
363 103 2243
364 103 2292
365 103 2245
366 103 3661
367 103 1148
368 103 1419
369 103 1791
370 103 3231
371 103 2064
372 103 2119
373 103 2881
374 103 2541
375 103 2304
376 103 3066
377 103 2160
378 103 2256
379 103 2428
380 103 2315
381 103 2293
382 103 2609
383 103 1914
384 103 1774
385 103 2810
386 103 2494
387 103 1704
388 103 2605
389 103 7456
390 103 3769
391 103 2681
392 103 2941
393 103 2276
394 103 1545
395 103 1971
396 103 2758
397 103 1935
398 103 1930
399 103 1992
400 103 1861
401 103 1331
402 103 1474
403 103 2256
404 103 4157
405 103 3036
406 103 3817
407 103 2206
408 103 4900
409 103 2013
410 103 3535
411 103 1252
412 103 3184
413 103 2758
414 103 3600
415 103 7617
416 103 1969
417 103 1987
418 103 2040
419 103 1312
420 103 1775
421 103 3065
422 103 3951
423 103 1146
424 103 2861
425 103 2590
426 103 1410
427 103 1237
428 103 1435
429 103 3363
430 103 3104
431 103 3048
432 103 3548
433 103 2093
434 103 1257
435 103 2524
436 103 1693
437 103 2834
438 103 2107
439 103 2268
440 103 3611
441 103 3130
442 103 2835
443 103 1577
444 103 1410
445 103 3464
446 103 3074
447 103 3783
448 103 2923
449 103 1281
450 103 2272
451 103 2606
452 103 4567
453 103 4543
454 103 1494
455 103 868
456 103 2362
457 103 3611
458 103 2635
459 103 3374
460 103 3750
461 103 4054
462 103 2885
463 103 4772
464 103 2136
465 103 1215
466 103 4036
467 103 1911
468 103 1476
469 103 2208
470 103 3169
471 103 4772
472 103 956
473 103 2705
474 103 2163
475 103 1654
476 103 1503
477 103 2232
478 103 1180
479 103 4093
480 103 2626
481 103 1779
482 103 2584
483 103 3243
484 103 3332
485 103 2056
486 103 2136
487 103 2077
488 103 2691
489 103 3236
490 103 3076
491 103 1485
492 103 2659
493 103 1749
494 103 2241
495 103 1937
496 103 2516
497 103 1159
498 103 2076
499 103 1491
500 103 1437
1 104 4104
2 104 1808
3 104 3095
4 104 2938
5 104 3501
6 104 5286
7 104 1425
8 104 2854
9 104 3010
10 104 3230
11 104 2316
12 104 2471
13 104 1616
14 104 1488
15 104 2039
16 104 2032
17 104 2374
18 104 1340
19 104 1178
20 104 5727
21 104 1579
22 104 2514
23 104 3280
24 104 3460
25 104 2077
26 104 3762
27 104 1022
28 104 2644
29 104 2909
30 104 2232
31 104 2031
32 104 1953
33 104 1497
34 104 2785
35 104 6678
36 104 2822
37 104 5941
38 104 1886
39 104 3646
40 104 3333
41 104 1618
42 104 1785
43 104 1137
44 104 1063
45 104 2129
46 104 2044
47 104 1618
48 104 3561
49 104 3256
50 104 1939
51 104 5236
52 104 3205
53 104 3381
54 104 3699
55 104 2746
56 104 1975
57 104 6092
58 104 2017
59 104 1608
60 104 3876
61 104 3147
62 104 2654
63 104 2086
64 104 2509
65 104 4366
66 104 2203
67 104 1672
68 104 1976
69 104 3434
70 104 3181
71 104 3075
72 104 1081
73 104 6055
74 104 2038
75 104 2549
76 104 2293
77 104 1579
78 104 2145
79 104 1699
80 104 1967
81 104 2737
82 104 1512
83 104 2088
84 104 3361
85 104 2267
86 104 2821
87 104 1836
88 104 1993
89 104 3511
90 104 3403
91 104 2996
92 104 2828
93 104 4164
94 104 804
95 104 3180
96 104 1776
97 104 2579
98 104 2770
99 104 2368
100 104 2208
101 104 2983
102 104 3476
103 104 2302
104 104 3179
105 104 4096
106 104 2993
107 104 2166
108 104 5373
109 104 3043
110 104 1878
111 104 1715
112 104 1571
113 104 4208
114 104 4345
115 104 2194
116 104 3071
117 104 2169
118 104 3887
119 104 2261
120 104 2320
121 104 2949
122 104 2982
123 104 4013
124 104 2786
125 104 1649
126 104 2269
127 104 2329
128 104 2454
129 104 3471
130 104 2467
131 104 1517
132 104 3451
133 104 1849
134 104 2642
135 104 2364
136 104 2047
137 104 4578
138 104 2154
139 104 3120
140 104 2805
141 104 2725
142 104 4437
143 104 4155
144 104 3004
145 104 2310
146 104 1967
147 104 3429
148 104 3393
149 104 2186
150 104 1631
151 104 3607
152 104 1320
153 104 1312
154 104 3833
155 104 3101
156 104 3371
157 104 1367
158 104 1497
159 104 1869
160 104 3018
161 104 2865
162 104 2269
163 104 2258
164 104 1975
165 104 2369
166 104 2742
167 104 2942
168 104 3239
169 104 3494
170 104 3141
171 104 3147
172 104 2867
173 104 1870
174 104 1855
175 104 2328
176 104 2787
177 104 2648
178 104 3039
179 104 1578
180 104 2327
181 104 3354
182 104 4514
183 104 2492
184 104 5726
185 104 2874
186 104 3852
187 104 2704
188 104 2302
189 104 3427
190 104 5322
191 104 3721
192 104 1780
193 104 2423
194 104 3395
195 104 2561
196 104 1579
197 104 3227
198 104 3804
199 104 3628
200 104 1952
201 104 2309
202 104 2863
203 104 3594
204 104 4857
205 104 5056
206 104 4006
207 104 1562
208 104 4263
209 104 824
210 104 3450
211 104 2245
212 104 3148
213 104 3592
214 104 4171
215 104 2288
216 104 3307
217 104 4182
218 104 3678
219 104 3600
220 104 3295
221 104 1135
222 104 2312
223 104 3145
224 104 1994
225 104 3293
226 104 1219
227 104 1615
228 104 3434
229 104 2631
230 104 3153
231 104 1333
232 104 3008
233 104 1334
234 104 2708
235 104 4245
236 104 1889
237 104 1779
238 104 2583
239 104 2814
240 104 3151
241 104 4486
242 104 2804
243 104 4221
244 104 1574
245 104 1051
246 104 3819
247 104 2739
248 104 3460
249 104 3022
250 104 4038
251 104 2568
252 104 4000
253 104 3454
254 104 2557
255 104 2227
256 104 2827
257 104 4287
258 104 3907
259 104 2345
260 104 2551
261 104 3408
262 104 1978
263 104 3198
264 104 3643
265 104 3448
266 104 2943
267 104 3056
268 104 2195
269 104 1863
270 104 2718
271 104 2881
272 104 4764
273 104 3576
274 104 2687
275 104 1963
276 104 2328
277 104 2582
278 104 6107
279 104 2985
280 104 2363
281 104 3055
282 104 6294
283 104 3162
284 104 2501
285 104 3262
286 104 4438
287 104 3966
288 104 1259
289 104 2297
290 104 2618
291 104 2131
292 104 1591
293 104 5529
294 104 1850
295 104 2488
296 104 2493
297 104 1011
298 104 2823
299 104 3760
300 104 1229
301 104 2890
302 104 3320
303 104 4081
304 104 1907
305 104 3833
306 104 2230
307 104 5720
308 104 3082
309 104 4534
310 104 1981
311 104 2284
312 104 3798
313 104 3295
314 104 2515
315 104 2251
316 104 2245
317 104 1952
318 104 4029
319 104 2480
320 104 2274
321 104 4936
322 104 3930
323 104 2731
324 104 2651
325 104 3550
326 104 3885
327 104 3506
328 104 2085
329 104 2226
330 104 4745
331 104 1949
332 104 3740
333 104 2168
334 104 4692
335 104 1725
336 104 2626
337 104 2714
338 104 2691
339 104 1938
340 104 2849
341 104 1812
342 104 3279
343 104 4583
344 104 1537
345 104 2680
346 104 3770
347 104 1938
348 104 3436
349 104 1892
350 104 3431
351 104 3599
352 104 2720
353 104 1473
354 104 1931
355 104 3204
356 104 2165
357 104 1663
358 104 2744
359 104 3113
360 104 4092
361 104 3999
362 104 2777
363 104 2559
364 104 4478
365 104 4108
366 104 2940
367 104 4216
368 104 2131
369 104 3423
370 104 2839
371 104 2788
372 104 2023
373 104 3100
374 104 2128
375 104 3805
376 104 3068
377 104 2589
378 104 3716
379 104 3182
380 104 4938
381 104 2798
382 104 3670
383 104 2282
384 104 1601
385 104 3091
386 104 3164
387 104 3185
388 104 4274
389 104 2824
390 104 2258
391 104 3850
392 104 1559
393 104 2247
394 104 2818
395 104 2375
396 104 3693
397 104 2863
398 104 2089
399 104 1227
400 104 1959
401 104 4129
402 104 1375
403 104 1332
404 104 2278
405 104 3622
406 104 5760
407 104 3934
408 104 3287
409 104 2038
410 104 4167
411 104 1097
412 104 4133
413 104 1668
414 104 3311
415 104 2880
416 104 2123
417 104 1920
418 104 2457
419 104 2341
420 104 2690
421 104 2117
422 104 3817
423 104 2479
424 104 6120
425 104 3329
426 104 1052
427 104 2576
428 104 1834
429 104 3737
430 104 2770
431 104 843
432 104 2724
433 104 3045
434 104 1109
435 104 2976
436 104 2245
437 104 3890
438 104 1463
439 104 3917
440 104 4862
441 104 1932
442 104 2964
443 104 1697
444 104 2365
445 104 2654
446 104 2602
447 104 4929
448 104 2758
449 104 2400
450 104 3902
451 104 3462
452 104 2903
453 104 4574
454 104 2299
455 104 1514
456 104 2832
457 104 2202
458 104 3128
459 104 3510
460 104 3518
461 104 2219
462 104 1668
463 104 4521
464 104 1653
465 104 3218
466 104 1995
467 104 2933
468 104 1352
469 104 2315
470 104 2721
471 104 2807
472 104 1999
473 104 5301
474 104 2252
475 104 2751
476 104 2606
477 104 2898
478 104 3992
479 104 3346
480 104 1867
481 104 2745
482 104 3145
483 104 2822
484 104 3822
485 104 2484
486 104 3471
487 104 1426
488 104 1907
489 104 3408
490 104 2919
491 104 1494
492 104 1931
493 104 3798
494 104 2621
495 104 3705
496 104 2096
497 104 2895
498 104 3158
499 104 3963
500 104 1145
1 105 5489
2 105 2668
3 105 6263
4 105 8240
5 105 5193
6 105 4995
7 105 5584
8 105 3538
9 105 2788
10 105 3549
11 105 3794
12 105 3554
13 105 2723
14 105 3567
15 105 4181
16 105 2994
17 105 5181
18 105 4371
19 105 3447
20 105 4628
21 105 3601
22 105 2314
23 105 7030
24 105 3601
25 105 2838
26 105 4618
27 105 1454
28 105 4695
29 105 3611
30 105 5294
31 105 11461
32 105 3482
33 105 1896
34 105 4292
35 105 4247
36 105 7172
37 105 4998
38 105 4248
39 105 4080
40 105 9297
41 105 5523
42 105 4479
43 105 3611
44 105 1843
45 105 3448
46 105 2572
47 105 7474
48 105 6776
49 105 9215
50 105 4046
51 105 6039
52 105 9537
53 105 8107
54 105 3276
55 105 5900
56 105 11363
57 105 6082
58 105 2317
59 105 7451
60 105 4119
61 105 3805
62 105 4887
63 105 3258
64 105 5684
65 105 7282
66 105 6517
67 105 3105
68 105 3104
69 105 3483
70 105 3900
71 105 4163
72 105 3506
73 105 6377
74 105 4293
75 105 4768
76 105 5524
77 105 3688
78 105 3829
79 105 4485
80 105 4693
81 105 8047
82 105 3918
83 105 2913
84 105 10158
85 105 7521
86 105 5812
87 105 4880
88 105 6517
89 105 6567
90 105 3206
91 105 6445
92 105 3805
93 105 5316
94 105 3261
95 105 4733
96 105 5167
97 105 3238
98 105 3053
99 105 4028
100 105 4653
101 105 7421
102 105 4169
103 105 5421
104 105 5977
105 105 7366
106 105 3586
107 105 5255
108 105 4331
109 105 4206
110 105 2954
111 105 2825
112 105 2647
113 105 7333
114 105 5855
115 105 7447
116 105 5444
117 105 4284
118 105 4650
119 105 4163
120 105 3487
121 105 8953
122 105 7373
123 105 4748
124 105 3449
125 105 3451
126 105 6235
127 105 7473
128 105 2956
129 105 4328
130 105 2219
131 105 5556
132 105 9160
133 105 2702
134 105 10368
135 105 5752
136 105 2716
137 105 10388
138 105 6487
139 105 7033
140 105 6946
141 105 3746
142 105 5790
143 105 5004
144 105 9291
145 105 5081
146 105 2867
147 105 2857
148 105 5794
149 105 4263
150 105 3445
151 105 5854
152 105 2103
153 105 2079
154 105 4921
155 105 5574
156 105 5683
157 105 2087
158 105 1916
159 105 3519
160 105 5582
161 105 3874
162 105 3808
163 105 3798
164 105 3878
165 105 3470
166 105 6142
167 105 3681
168 105 3656
169 105 5145
170 105 3068
171 105 4559
172 105 5470
173 105 1860
174 105 1555
175 105 5279
176 105 4026
177 105 3855
178 105 5084
179 105 5474
180 105 5989
181 105 3265
182 105 10327
183 105 3539
184 105 11923
185 105 3474
186 105 4244
187 105 6153
188 105 5677
189 105 3124
190 105 4918
191 105 4803
192 105 4862
193 105 3768
194 105 3492
195 105 3685
196 105 2018
197 105 5676
198 105 4210
199 105 4400
200 105 3091
201 105 5111
202 105 3410
203 105 5598
204 105 3998
205 105 5476
206 105 5175
207 105 5467
208 105 10161
209 105 2254
210 105 5168
211 105 4360
212 105 4149
213 105 4267
214 105 3805
215 105 5791
216 105 6399
217 105 5936
218 105 2850
219 105 3544
220 105 3523
221 105 7571
222 105 8875
223 105 6048
224 105 4660
225 105 6180
226 105 6066
227 105 3721
228 105 4398
229 105 4069
230 105 6814
231 105 2311
232 105 3905
233 105 2127
234 105 3847
235 105 6141
236 105 5006
237 105 4526
238 105 4125
239 105 5782
240 105 9218
241 105 7224
242 105 3152
243 105 8229
244 105 5888
245 105 4202
246 105 4922
247 105 8246
248 105 5197
249 105 2869
250 105 6786
251 105 7507
252 105 5219
253 105 4925
254 105 3819
255 105 6812
256 105 3983
257 105 7481
258 105 7607
259 105 3539
260 105 5136
261 105 3199
262 105 3172
263 105 6145
264 105 8497
265 105 3428
266 105 6671
267 105 6495
268 105 2797
269 105 5374
270 105 4767
271 105 4582
272 105 7534
273 105 5619
274 105 3703
275 105 1861
276 105 3771
277 105 5084
278 105 5650
279 105 9092
280 105 4188
281 105 5735
282 105 5609
283 105 5992
284 105 4961
285 105 5551
286 105 3398
287 105 6927
288 105 4695
289 105 5544
290 105 3853
291 105 2476
292 105 8388
293 105 5499
294 105 3407
295 105 3347
296 105 6722
297 105 1810
298 105 5628
299 105 4363
300 105 4748
301 105 3121
302 105 4278
303 105 8114
304 105 4874
305 105 4245
306 105 4741
307 105 4819
308 105 6119
309 105 6109
310 105 6969
311 105 3492
312 105 4183
313 105 9152
314 105 3022
315 105 5239
316 105 7573
317 105 3405
318 105 5249
319 105 4942
320 105 4362
321 105 3436
322 105 7100
323 105 3917
324 105 5817
325 105 6958
326 105 5890
327 105 7862
328 105 3885
329 105 4300
330 105 7740
331 105 3136
332 105 5435
333 105 7306
334 105 8435
335 105 2551
336 105 4746
337 105 8003
338 105 4551
339 105 2878
340 105 7418
341 105 1935
342 105 6867
343 105 4144
344 105 5459
345 105 4908
346 105 6738
347 105 4217
348 105 5265
349 105 4838
350 105 5800
351 105 4874
352 105 3469
353 105 1993
354 105 3515
355 105 3964
356 105 2916
357 105 4962
358 105 2900
359 105 6301
360 105 5770
361 105 3746
362 105 5474
363 105 3736
364 105 8755
365 105 7920
366 105 7282
367 105 6591
368 105 4595
369 105 3559
370 105 8466
371 105 4457
372 105 2337
373 105 2846
374 105 7995
375 105 4276
376 105 6300
377 105 6146
378 105 7589
379 105 5957
380 105 5831
381 105 3923
382 105 3613
383 105 4804
384 105 8526
385 105 4212
386 105 5909
387 105 5813
388 105 8076
389 105 7304
390 105 4754
391 105 3548
392 105 3417
393 105 4438
394 105 3822
395 105 5992
396 105 4565
397 105 4057
398 105 3203
399 105 2670
400 105 3530
401 105 5580
402 105 1657
403 105 3830
404 105 7044
405 105 6981
406 105 5503
407 105 4801
408 105 6805
409 105 5129
410 105 5250
411 105 3529
412 105 6666
413 105 3084
414 105 4482
415 105 7375
416 105 3355
417 105 5232
418 105 4638
419 105 3640
420 105 2998
421 105 4508
422 105 4860
423 105 3544
424 105 5529
425 105 4373
426 105 4228
427 105 2237
428 105 3840
429 105 3083
430 105 4612
431 105 6974
432 105 7136
433 105 7906
434 105 3561
435 105 7168
436 105 5336
437 105 5211
438 105 1965
439 105 4149
440 105 6240
441 105 6917
442 105 9162
443 105 2577
444 105 8737
445 105 3262
446 105 5430
447 105 6640
448 105 3845
449 105 3557
450 105 5671
451 105 6476
452 105 4741
453 105 4887
454 105 5334
455 105 2689
456 105 2961
457 105 6632
458 105 4815
459 105 4868
460 105 6949
461 105 6801
462 105 3370
463 105 6215
464 105 4839
465 105 3053
466 105 5145
467 105 3282
468 105 1619
469 105 5741
470 105 3788
471 105 6006
472 105 2831
473 105 6163
474 105 3660
475 105 8890
476 105 4720
477 105 3553
478 105 5253
479 105 5780
480 105 8746
481 105 2950
482 105 7108
483 105 5679
484 105 3997
485 105 3980
486 105 4460
487 105 6546
488 105 4876
489 105 4967
490 105 7146
491 105 2083
492 105 2487
493 105 4454
494 105 3852
495 105 5715
496 105 2922
497 105 3359
498 105 6472
499 105 3719
500 105 4307
1 106 9
2 106 2
4 106 17
5 106 7
11 106 4
12 106 4
13 106 10
14 106 3
15 106 15
16 106 10
19 106 7
20 106 4
21 106 7
23 106 8
24 106 38
25 106 7
26 106 5
30 106 5
31 106 25
33 106 4
34 106 4
36 106 4
39 106 17
40 106 8
41 106 6
42 106 9
43 106 5
44 106 6
46 106 3
48 106 7
49 106 1
50 106 4
51 106 3
52 106 6
53 106 23
57 106 6
58 106 5
61 106 9
63 106 10
64 106 12
67 106 2
68 106 11
69 106 29
71 106 34
72 106 3
73 106 7
74 106 12
76 106 4
77 106 5
78 106 4
79 106 10
81 106 37
83 106 5
85 106 12
86 106 8
88 106 16
89 106 3
90 106 5
91 106 8
92 106 4
94 106 11
97 106 16
100 106 15
102 106 2
104 106 3
105 106 12
106 106 5
108 106 6
109 106 39
111 106 2
113 106 5
114 106 9
115 106 12
116 106 9
117 106 5
120 106 5
121 106 15
122 106 8
123 106 5
125 106 8
127 106 17
128 106 5
129 106 7
134 106 7
136 106 6
137 106 13
138 106 8
139 106 4
140 106 4
141 106 5
143 106 4
144 106 11
145 106 9
146 106 2
149 106 14
151 106 7
152 106 2
153 106 1
158 106 11
159 106 9
162 106 5
163 106 8
164 106 2
165 106 2
166 106 2
167 106 5
168 106 12
169 106 7
172 106 14
176 106 14
178 106 21
179 106 6
182 106 16
183 106 2
184 106 26
186 106 8
188 106 11
192 106 11
193 106 5
194 106 32
196 106 7
197 106 6
200 106 13
201 106 13
205 106 32
207 106 8
208 106 12
210 106 2
211 106 16
212 106 45
214 106 3
215 106 15
218 106 5
219 106 17
220 106 20
227 106 4
228 106 54
233 106 1
234 106 1
235 106 63
239 106 3
240 106 8
241 106 6
243 106 6
244 106 6
245 106 5
247 106 5
248 106 5
250 106 3
251 106 6
253 106 3
255 106 5
256 106 10
258 106 6
260 106 3
261 106 4
262 106 18
264 106 9
265 106 32
266 106 20
267 106 2
268 106 4
269 106 2
271 106 3
272 106 29
273 106 3
274 106 4
275 106 3
276 106 5
278 106 4
279 106 18
281 106 4
282 106 9
283 106 7
285 106 1
287 106 28
289 106 15
290 106 3
291 106 6
293 106 9
294 106 4
295 106 12
296 106 15
299 106 10
303 106 5
307 106 5
310 106 10
311 106 3
312 106 28
313 106 7
314 106 2
315 106 14
316 106 20
320 106 5
322 106 7
324 106 3
325 106 9
326 106 5
328 106 6
329 106 7
330 106 30
331 106 23
333 106 5
334 106 8
335 106 1
336 106 2
337 106 30
338 106 2
339 106 7
342 106 9
343 106 6
345 106 2
348 106 2
350 106 12
351 106 3
353 106 11
354 106 5
356 106 5
357 106 17
359 106 6
363 106 7
364 106 6
365 106 5
366 106 4
367 106 8
368 106 4
369 106 32
370 106 16
372 106 3
376 106 6
378 106 28
379 106 7
380 106 44
383 106 2
386 106 6
387 106 7
388 106 7
393 106 15
396 106 6
397 106 5
403 106 6
404 106 5
408 106 8
410 106 6
411 106 4
412 106 3
413 106 2
418 106 20
419 106 4
421 106 2
423 106 21
426 106 9
428 106 2
429 106 5
430 106 7
432 106 7
433 106 21
434 106 2
435 106 7
441 106 9
442 106 4
443 106 4
446 106 12
449 106 26
450 106 40
451 106 18
453 106 15
458 106 16
459 106 9
460 106 8
461 106 3
469 106 14
471 106 17
472 106 26
473 106 6
474 106 17
475 106 1
479 106 48
480 106 57
482 106 4
483 106 6
484 106 3
486 106 48
487 106 10
491 106 9
492 106 14
494 106 6
495 106 6
496 106 2
498 106 5
500 106 10
