%%MatrixMarket matrix coordinate integer general
500 106 37603
1 1 2934
2 1 1351
3 1 2214
4 1 2891
5 1 2509
6 1 4101
7 1 2926
8 1 2209
9 1 2314
10 1 1691
11 1 2050
12 1 1519
13 1 2217
14 1 1598
15 1 2192
16 1 459
17 1 2613
18 1 1577
19 1 1828
20 1 1953
21 1 1206
22 1 2169
23 1 1812
24 1 3627
25 1 1941
26 1 2128
27 1 697
28 1 2241
29 1 2197
30 1 1665
31 1 3259
32 1 805
33 1 821
34 1 2137
35 1 2272
36 1 3025
37 1 2486
38 1 2753
39 1 3797
40 1 3025
41 1 1950
42 1 3525
43 1 1876
44 1 648
45 1 1812
46 1 954
47 1 1523
48 1 2041
49 1 1458
50 1 1729
51 1 3454
52 1 2527
53 1 3952
54 1 2284
55 1 4205
56 1 1693
57 1 3780
58 1 1886
59 1 1563
60 1 2429
61 1 2334
62 1 2883
63 1 2258
64 1 783
65 1 2904
66 1 1334
67 1 879
68 1 1728
69 1 3637
70 1 1833
71 1 1780
72 1 983
73 1 3878
74 1 1110
75 1 2378
76 1 2430
77 1 1898
78 1 3956
79 1 3438
80 1 1879
81 1 3585
82 1 2089
83 1 1127
84 1 2626
85 1 2230
86 1 5436
87 1 1283
88 1 1627
89 1 2365
90 1 2584
91 1 3314
92 1 1918
93 1 1727
94 1 2097
95 1 2952
96 1 1885
97 1 2424
98 1 2773
99 1 2223
100 1 2356
101 1 2751
102 1 1107
103 1 1779
104 1 1594
105 1 2596
106 1 2664
107 1 1492
108 1 2239
109 1 1760
110 1 1806
111 1 1348
112 1 2050
113 1 3628
114 1 3102
115 1 2275
116 1 1476
117 1 2405
118 1 2907
119 1 2450
120 1 1949
121 1 3474
122 1 2621
123 1 4810
124 1 2299
125 1 2502
126 1 2596
127 1 2222
128 1 1372
129 1 3007
130 1 2099
131 1 2964
132 1 932
133 1 1031
134 1 3705
135 1 2413
136 1 965
137 1 2799
138 1 1628
139 1 3028
140 1 2925
141 1 1661
142 1 2088
143 1 3307
144 1 3527
145 1 1618
146 1 2016
147 1 2149
148 1 2515
149 1 2688
150 1 2299
151 1 1784
152 1 686
153 1 1068
154 1 2623
155 1 1237
156 1 4296
157 1 654
158 1 836
159 1 1274
160 1 1365
161 1 2202
162 1 2039
163 1 2914
164 1 1781
165 1 1587
166 1 1594
167 1 1629
168 1 2590
169 1 3200
170 1 942
171 1 2199
172 1 2570
173 1 1453
174 1 954
175 1 1847
176 1 2283
177 1 2139
178 1 3195
179 1 1940
180 1 3450
181 1 755
182 1 2828
183 1 1597
184 1 5263
185 1 2101
186 1 2250
187 1 2651
188 1 2842
189 1 663
190 1 3969
191 1 2245
192 1 1582
193 1 2096
194 1 3662
195 1 1725
196 1 817
197 1 1979
198 1 2367
199 1 2209
200 1 1745
201 1 1502
202 1 2194
203 1 1765
204 1 2557
205 1 2544
206 1 1051
207 1 1897
208 1 2737
209 1 1182
210 1 2839
211 1 2717
212 1 1792
213 1 2201
214 1 2685
215 1 2902
216 1 2387
217 1 3360
218 1 1916
219 1 1172
220 1 3685
221 1 1729
222 1 2341
223 1 2799
224 1 1961
225 1 3313
226 1 2980
227 1 1325
228 1 2270
229 1 2185
230 1 1771
231 1 1322
232 1 1891
233 1 677
234 1 1678
235 1 3459
236 1 1234
237 1 1310
238 1 2162
239 1 5426
240 1 1485
241 1 2500
242 1 1763
243 1 3781
244 1 5841
245 1 2260
246 1 3698
247 1 1902
248 1 2844
249 1 1300
250 1 2466
251 1 1747
252 1 1048
253 1 1816
254 1 1706
255 1 2047
256 1 2282
257 1 2796
258 1 1792
259 1 2460
260 1 2100
261 1 2519
262 1 1775
263 1 3272
264 1 3173
265 1 3752
266 1 3953
267 1 2515
268 1 1696
269 1 2475
270 1 3126
271 1 3427
272 1 4929
273 1 3297
274 1 1552
275 1 1764
276 1 1983
277 1 2113
278 1 2668
279 1 4970
280 1 2285
281 1 1514
282 1 3793
283 1 1545
284 1 2175
285 1 1521
286 1 3060
287 1 3379
288 1 2291
289 1 2782
290 1 1844
291 1 891
292 1 1157
293 1 2225
294 1 2510
295 1 2262
296 1 3436
297 1 1016
298 1 2193
299 1 2444
300 1 2216
301 1 1728
302 1 1499
303 1 1644
304 1 1236
305 1 2417
306 1 2468
307 1 1892
308 1 2180
309 1 3652
310 1 1618
311 1 1915
312 1 2162
313 1 1517
314 1 1387
315 1 1550
316 1 2215
317 1 1835
318 1 1042
319 1 4288
320 1 1604
321 1 1690
322 1 2327
323 1 2192
324 1 2879
325 1 1580
326 1 2809
327 1 3751
328 1 1762
329 1 1623
330 1 5036
331 1 1828
332 1 2655
333 1 2376
334 1 3482
335 1 1219
336 1 1663
337 1 3574
338 1 1655
339 1 1961
340 1 4476
341 1 1446
342 1 3453
343 1 1706
344 1 2914
345 1 1609
346 1 1868
347 1 2770
348 1 2234
349 1 1287
350 1 1581
351 1 2063
352 1 2043
353 1 1379
354 1 2718
355 1 1953
356 1 1873
357 1 1475
358 1 2804
359 1 2488
360 1 3328
361 1 2158
362 1 1921
363 1 1841
364 1 1856
365 1 2456
366 1 1747
367 1 3257
368 1 1514
369 1 3623
370 1 2946
371 1 1776
372 1 1967
373 1 1296
374 1 1975
375 1 2417
376 1 3322
377 1 2635
378 1 2412
379 1 1567
380 1 3766
381 1 2179
382 1 3083
383 1 1654
384 1 1142
385 1 3842
386 1 1538
387 1 2916
388 1 1574
389 1 4393
390 1 2517
391 1 3095
392 1 1312
393 1 2654
394 1 3126
395 1 2447
396 1 3328
397 1 2661
398 1 1176
399 1 1891
400 1 817
401 1 3396
402 1 1756
403 1 884
404 1 2086
405 1 2173
406 1 2869
407 1 2853
408 1 3000
409 1 2453
410 1 2406
411 1 904
412 1 2466
413 1 890
414 1 1531
415 1 4306
416 1 1159
417 1 2506
418 1 2755
419 1 2003
420 1 2778
421 1 2094
422 1 2265
423 1 1946
424 1 1788
425 1 2756
426 1 2256
427 1 2182
428 1 1427
429 1 3414
430 1 3633
431 1 2055
432 1 1920
433 1 1534
434 1 947
435 1 3816
436 1 1414
437 1 3047
438 1 1223
439 1 2458
440 1 4687
441 1 1647
442 1 1427
443 1 1307
444 1 3012
445 1 1842
446 1 2414
447 1 4742
448 1 1930
449 1 1873
450 1 3471
451 1 2497
452 1 3163
453 1 2834
454 1 1767
455 1 1966
456 1 1633
457 1 1285
458 1 1816
459 1 1159
460 1 1537
461 1 1998
462 1 1303
463 1 3642
464 1 2876
465 1 1077
466 1 2720
467 1 1091
468 1 1831
469 1 2786
470 1 1909
471 1 4127
472 1 1107
473 1 2243
474 1 2049
475 1 3039
476 1 1646
477 1 2138
478 1 1053
479 1 2676
480 1 3299
481 1 2882
482 1 3728
483 1 5406
484 1 2650
485 1 963
486 1 2310
487 1 2347
488 1 1235
489 1 2656
490 1 4029
491 1 887
492 1 1053
493 1 1569
494 1 1886
495 1 4128
496 1 1954
497 1 1263
498 1 2295
499 1 2123
500 1 2345
1 2 2210
2 2 947
3 2 1430
4 2 2007
5 2 1636
6 2 2254
7 2 1566
8 2 2578
9 2 2788
10 2 1254
11 2 2341
12 2 1617
13 2 1381
14 2 1200
15 2 1943
16 2 1371
17 2 1426
18 2 2066
19 2 1696
20 2 1580
21 2 1667
22 2 1465
23 2 2187
24 2 1006
25 2 1424
26 2 1549
27 2 1014
28 2 1549
29 2 2575
30 2 1691
31 2 3081
32 2 1377
33 2 1062
34 2 1353
35 2 3602
36 2 2327
37 2 3481
38 2 1955
39 2 3130
40 2 2014
41 2 2729
42 2 2333
43 2 1715
44 2 1173
45 2 2320
46 2 690
47 2 2105
48 2 3352
49 2 2096
50 2 1714
51 2 1944
52 2 2477
53 2 2434
54 2 2109
55 2 2009
56 2 1687
57 2 2942
58 2 1110
59 2 2090
60 2 2247
61 2 1240
62 2 3090
63 2 2767
64 2 3355
65 2 3238
66 2 1701
67 2 1357
68 2 1558
69 2 1022
70 2 740
71 2 2795
72 2 1053
73 2 3006
74 2 2331
75 2 1565
76 2 1318
77 2 1255
78 2 1338
79 2 2346
80 2 1137
81 2 1708
82 2 1356
83 2 1235
84 2 1928
85 2 1764
86 2 1168
87 2 2124
88 2 2397
89 2 1111
90 2 1302
91 2 2068
92 2 1541
93 2 2691
94 2 2641
95 2 1042
96 2 1504
97 2 1144
98 2 1769
99 2 1294
100 2 1641
101 2 3403
102 2 994
103 2 1377
104 2 2405
105 2 2298
106 2 1930
107 2 1572
108 2 2084
109 2 2890
110 2 1788
111 2 750
112 2 1300
113 2 3915
114 2 3931
115 2 1846
116 2 1837
117 2 1500
118 2 1343
119 2 1505
120 2 1016
121 2 4084
122 2 2497
123 2 1552
124 2 2229
125 2 1015
126 2 974
127 2 1816
128 2 2934
129 2 2148
130 2 1523
131 2 1610
132 2 2899
133 2 1248
134 2 2651
135 2 1130
136 2 717
137 2 3729
138 2 1163
139 2 2258
140 2 2398
141 2 1774
142 2 1653
143 2 1405
144 2 4073
145 2 641
146 2 915
147 2 2755
148 2 2429
149 2 2127
150 2 2154
151 2 2550
152 2 512
153 2 874
154 2 907
155 2 3471
156 2 1966
157 2 578
158 2 1052
159 2 1280
160 2 3428
161 2 2015
162 2 2317
163 2 1302
164 2 1714
165 2 1639
166 2 2667
167 2 815
168 2 1236
169 2 1963
170 2 1424
171 2 1781
172 2 2056
173 2 1445
174 2 1010
175 2 1323
176 2 2810
177 2 2676
178 2 1294
179 2 2625
180 2 2062
181 2 1144
182 2 3618
183 2 1597
184 2 5042
185 2 1334
186 2 1929
187 2 3003
188 2 2469
189 2 1101
190 2 2266
191 2 2340
192 2 1083
193 2 2329
194 2 1052
195 2 2252
196 2 1111
197 2 2080
198 2 2166
199 2 2020
200 2 1487
201 2 637
202 2 2613
203 2 1236
204 2 1110
205 2 895
206 2 1932
207 2 2635
208 2 2993
209 2 814
210 2 1786
211 2 2053
212 2 2961
213 2 2096
214 2 2077
215 2 2471
216 2 679
217 2 1053
218 2 3325
219 2 2196
220 2 1056
221 2 775
222 2 2102
223 2 2231
224 2 1191
225 2 2277
226 2 1928
227 2 1699
228 2 2331
229 2 1519
230 2 3022
231 2 1197
232 2 1047
233 2 596
234 2 1861
235 2 4059
236 2 2083
237 2 1254
238 2 1518
239 2 1075
240 2 2167
241 2 1062
242 2 1461
243 2 3935
244 2 2259
245 2 1527
246 2 1223
247 2 1779
248 2 1735
249 2 1589
250 2 1958
251 2 1693
252 2 1806
253 2 1814
254 2 2226
255 2 2344
256 2 2865
257 2 2020
258 2 3219
259 2 1000
260 2 1975
261 2 1331
262 2 1500
263 2 2364
264 2 1086
265 2 1079
266 2 3052
267 2 1947
268 2 1105
269 2 1824
270 2 3800
271 2 1417
272 2 2089
273 2 490
274 2 1783
275 2 1084
276 2 2344
277 2 1342
278 2 2042
279 2 1857
280 2 1285
281 2 1344
282 2 3768
283 2 2397
284 2 1567
285 2 1866
286 2 2173
287 2 3165
288 2 1603
289 2 2461
290 2 2110
291 2 1097
292 2 1541
293 2 2648
294 2 1316
295 2 1857
296 2 3020
297 2 932
298 2 1686
299 2 1804
300 2 1613
301 2 1444
302 2 1653
303 2 2117
304 2 2125
305 2 2146
306 2 3334
307 2 1602
308 2 1471
309 2 3415
310 2 919
311 2 1062
312 2 2257
313 2 2011
314 2 3066
315 2 687
316 2 1826
317 2 1404
318 2 1805
319 2 3456
320 2 2038
321 2 2356
322 2 3961
323 2 2709
324 2 1388
325 2 2541
326 2 1996
327 2 2114
328 2 1707
329 2 1952
330 2 2148
331 2 1571
332 2 1714
333 2 1833
334 2 1378
335 2 829
336 2 1843
337 2 1693
338 2 1895
339 2 908
340 2 2597
341 2 1434
342 2 2153
343 2 2202
344 2 1572
345 2 1947
346 2 2382
347 2 1896
348 2 2672
349 2 2155
350 2 1713
351 2 3321
352 2 1271
353 2 923
354 2 1372
355 2 718
356 2 1111
357 2 1154
358 2 1846
359 2 1996
360 2 1151
361 2 2623
362 2 1208
363 2 2090
364 2 1032
365 2 2254
366 2 964
367 2 2887
368 2 1315
369 2 1007
370 2 1914
371 2 1482
372 2 1054
373 2 1631
374 2 1773
375 2 2240
376 2 2076
377 2 3077
378 2 1754
379 2 2465
380 2 2160
381 2 2085
382 2 1859
383 2 1085
384 2 1442
385 2 2814
386 2 2423
387 2 1411
388 2 2103
389 2 2581
390 2 3397
391 2 1903
392 2 1425
393 2 2097
394 2 2124
395 2 1142
396 2 1817
397 2 1183
398 2 895
399 2 1219
400 2 1327
401 2 1866
402 2 1112
403 2 585
404 2 2368
405 2 2800
406 2 2360
407 2 1304
408 2 2152
409 2 1403
410 2 1236
411 2 1085
412 2 1952
413 2 1377
414 2 1629
415 2 2561
416 2 923
417 2 1442
418 2 1879
419 2 1782
420 2 1863
421 2 1459
422 2 2269
423 2 1096
424 2 2820
425 2 1817
426 2 1639
427 2 1603
428 2 738
429 2 3366
430 2 1486
431 2 1935
432 2 1241
433 2 1296
434 2 1095
435 2 1994
436 2 1512
437 2 1276
438 2 951
439 2 2313
440 2 1288
441 2 880
442 2 2315
443 2 836
444 2 2396
445 2 1541
446 2 2027
447 2 1267
448 2 2154
449 2 1072
450 2 3800
451 2 984
452 2 1659
453 2 1486
454 2 1353
455 2 1353
456 2 1240
457 2 1687
458 2 2467
459 2 3245
460 2 2561
461 2 2263
462 2 1403
463 2 3497
464 2 862
465 2 1275
466 2 1911
467 2 1338
468 2 1150
469 2 2491
470 2 2146
471 2 1096
472 2 1479
473 2 835
474 2 1491
475 2 1721
476 2 1783
477 2 2680
478 2 1839
479 2 3217
480 2 5904
481 2 1866
482 2 2032
483 2 1040
484 2 2491
485 2 928
486 2 2330
487 2 1329
488 2 2112
489 2 1390
490 2 2273
491 2 1060
492 2 2431
493 2 4572
494 2 2097
495 2 1635
496 2 1347
497 2 1805
498 2 2423
499 2 2671
500 2 1638
1 3 1514
2 3 309
3 3 1375
4 3 715
5 3 1395
6 3 293
7 3 1264
8 3 678
9 3 635
10 3 687
11 3 935
12 3 560
13 3 385
14 3 232
15 3 803
16 3 479
17 3 834
18 3 552
19 3 713
20 3 909
21 3 244
22 3 672
23 3 350
24 3 694
25 3 722
26 3 413
27 3 700
28 3 465
29 3 679
30 3 460
31 3 1730
32 3 377
33 3 336
34 3 849
35 3 1223
36 3 543
37 3 1084
38 3 219
39 3 2163
40 3 1680
41 3 1287
42 3 749
43 3 735
44 3 973
45 3 758
46 3 918
47 3 910
48 3 578
49 3 763
50 3 977
51 3 356
52 3 747
53 3 1407
54 3 689
55 3 1337
56 3 912
57 3 846
58 3 473
59 3 873
60 3 602
61 3 352
62 3 1029
63 3 1615
64 3 538
65 3 1141
66 3 569
67 3 506
68 3 1018
69 3 697
70 3 872
71 3 922
72 3 186
73 3 845
74 3 1401
75 3 466
76 3 388
77 3 1167
78 3 792
79 3 720
80 3 645
81 3 903
82 3 522
83 3 1061
84 3 1683
85 3 665
86 3 889
87 3 553
88 3 664
89 3 365
90 3 974
91 3 641
92 3 890
93 3 301
94 3 1506
95 3 1864
96 3 585
97 3 609
98 3 1094
99 3 797
100 3 462
101 3 876
102 3 553
103 3 554
104 3 933
105 3 774
106 3 825
107 3 670
108 3 1233
109 3 886
110 3 252
111 3 409
112 3 172
113 3 673
114 3 1128
115 3 744
116 3 884
117 3 1305
118 3 1289
119 3 332
120 3 347
121 3 520
122 3 1602
123 3 789
124 3 491
125 3 947
126 3 337
127 3 712
128 3 528
129 3 1741
130 3 693
131 3 1242
132 3 632
133 3 261
134 3 633
135 3 812
136 3 296
137 3 818
138 3 1109
139 3 313
140 3 503
141 3 298
142 3 445
143 3 618
144 3 506
145 3 577
146 3 511
147 3 885
148 3 941
149 3 1380
150 3 692
151 3 677
152 3 456
153 3 807
154 3 1264
155 3 699
156 3 399
157 3 425
158 3 327
159 3 614
160 3 701
161 3 1749
162 3 981
163 3 417
164 3 986
165 3 582
166 3 593
167 3 264
168 3 1481
169 3 588
170 3 589
171 3 456
172 3 941
173 3 897
174 3 562
175 3 529
176 3 995
177 3 1091
178 3 684
179 3 1260
180 3 1584
181 3 244
182 3 859
183 3 565
184 3 833
185 3 539
186 3 548
187 3 1839
188 3 1025
189 3 224
190 3 311
191 3 1195
192 3 1205
193 3 883
194 3 671
195 3 867
196 3 307
197 3 1484
198 3 635
199 3 848
200 3 1035
201 3 603
202 3 680
203 3 810
204 3 1380
205 3 902
206 3 965
207 3 1283
208 3 1381
209 3 284
210 3 751
211 3 1293
212 3 903
213 3 860
214 3 1129
215 3 917
216 3 686
217 3 1320
218 3 1356
219 3 433
220 3 726
221 3 1067
222 3 335
223 3 1715
224 3 643
225 3 204
226 3 1711
227 3 245
228 3 746
229 3 497
230 3 400
231 3 362
232 3 1291
233 3 465
234 3 308
235 3 674
236 3 597
237 3 692
238 3 470
239 3 889
240 3 835
241 3 527
242 3 400
243 3 504
244 3 1482
245 3 674
246 3 1269
247 3 582
248 3 765
249 3 1292
250 3 680
251 3 396
252 3 1002
253 3 347
254 3 816
255 3 490
256 3 966
257 3 666
258 3 1280
259 3 1198
260 3 1172
261 3 949
262 3 1038
263 3 195
264 3 807
265 3 729
266 3 770
267 3 1073
268 3 1406
269 3 263
270 3 525
271 3 773
272 3 911
273 3 533
274 3 302
275 3 502
276 3 929
277 3 677
278 3 843
279 3 349
280 3 765
281 3 583
282 3 1824
283 3 933
284 3 692
285 3 866
286 3 917
287 3 1207
288 3 1195
289 3 1025
290 3 450
291 3 429
292 3 563
293 3 1376
294 3 1103
295 3 337
296 3 254
297 3 444
298 3 1368
299 3 1091
300 3 1224
301 3 360
302 3 667
303 3 1050
304 3 532
305 3 589
306 3 1998
307 3 924
308 3 1300
309 3 603
310 3 790
311 3 338
312 3 868
313 3 755
314 3 473
315 3 551
316 3 725
317 3 771
318 3 955
319 3 696
320 3 281
321 3 943
322 3 678
323 3 1094
324 3 651
325 3 631
326 3 866
327 3 251
328 3 982
329 3 283
330 3 1010
331 3 972
332 3 810
333 3 978
334 3 1345
335 3 817
336 3 715
337 3 950
338 3 734
339 3 490
340 3 1212
341 3 928
342 3 1216
343 3 524
344 3 1238
345 3 674
346 3 710
347 3 245
348 3 1333
349 3 595
350 3 875
351 3 1952
352 3 479
353 3 890
354 3 1163
355 3 893
356 3 1451
357 3 1166
358 3 1150
359 3 1130
360 3 1281
361 3 893
362 3 1484
363 3 478
364 3 572
365 3 1522
366 3 1101
367 3 1381
368 3 1033
369 3 748
370 3 732
371 3 1023
372 3 454
373 3 1391
374 3 696
375 3 627
376 3 670
377 3 1754
378 3 737
379 3 999
380 3 1310
381 3 1797
382 3 306
383 3 960
384 3 554
385 3 345
386 3 957
387 3 871
388 3 995
389 3 1218
390 3 1954
391 3 316
392 3 999
393 3 1341
394 3 703
395 3 854
396 3 560
397 3 1013
398 3 208
399 3 1046
400 3 372
401 3 439
402 3 1009
403 3 740
404 3 498
405 3 2051
406 3 1117
407 3 1231
408 3 792
409 3 370
410 3 959
411 3 168
412 3 666
413 3 528
414 3 676
415 3 1246
416 3 247
417 3 379
418 3 1002
419 3 760
420 3 1147
421 3 708
422 3 1159
423 3 590
424 3 766
425 3 907
426 3 754
427 3 692
428 3 873
429 3 664
430 3 770
431 3 1351
432 3 501
433 3 538
434 3 177
435 3 344
436 3 684
437 3 978
438 3 321
439 3 646
440 3 1511
441 3 756
442 3 437
443 3 891
444 3 509
445 3 1436
446 3 536
447 3 1464
448 3 835
449 3 609
450 3 1662
451 3 687
452 3 281
453 3 442
454 3 562
455 3 176
456 3 1147
457 3 607
458 3 1467
459 3 853
460 3 703
461 3 445
462 3 1048
463 3 619
464 3 1144
465 3 354
466 3 1425
467 3 242
468 3 1035
469 3 968
470 3 813
471 3 722
472 3 172
473 3 1642
474 3 1162
475 3 651
476 3 507
477 3 689
478 3 987
479 3 1047
480 3 825
481 3 1165
482 3 391
483 3 912
484 3 1669
485 3 463
486 3 702
487 3 676
488 3 561
489 3 589
490 3 697
491 3 301
492 3 666
493 3 1361
494 3 459
495 3 530
496 3 672
497 3 566
498 3 516
499 3 850
500 3 730
2 4 1
10 4 1068
12 4 11
13 4 23
14 4 627
16 4 348
19 4 1537
21 4 370
22 4 50
23 4 8
26 4 1182
27 4 689
30 4 17
32 4 11
33 4 32
34 4 1268
36 4 5
43 4 1525
44 4 477
46 4 53
48 4 5
55 4 5
57 4 19
58 4 22
61 4 5
67 4 1502
70 4 7
72 4 1407
73 4 24
77 4 5
83 4 374
85 4 13
90 4 2
96 4 7
97 4 2
99 4 34
102 4 28
107 4 6
110 4 1409
111 4 58
112 4 1062
115 4 14
117 4 1268
125 4 879
127 4 8
130 4 70
132 4 4
135 4 24
136 4 21
138 4 528
140 4 5
145 4 30
146 4 15
152 4 139
153 4 21
157 4 172
158 4 39
159 4 410
165 4 24
167 4 7
168 4 10
174 4 570
177 4 1097
183 4 11
186 4 5
192 4 1148
196 4 47
201 4 33
203 4 1
209 4 19
210 4 36
221 4 1459
227 4 361
231 4 85
233 4 152
237 4 217
242 4 4
245 4 212
248 4 43
251 4 6
253 4 634
255 4 9
261 4 5
264 4 7
280 4 35
290 4 4
291 4 148
292 4 3
294 4 1814
295 4 4
296 4 9
297 4 665
301 4 3
303 4 4
315 4 34
316 4 14
323 4 1084
326 4 5
335 4 1623
339 4 8
351 4 4
353 4 1309
354 4 1817
355 4 3
357 4 1137
363 4 4
365 4 8
367 4 7
368 4 1406
372 4 29
384 4 4
387 4 14
388 4 4
392 4 16
395 4 28
398 4 1761
399 4 642
400 4 7
402 4 144
403 4 592
404 4 7
411 4 1407
413 4 1590
416 4 1716
423 4 85
425 4 6
426 4 237
427 4 68
428 4 40
434 4 1474
436 4 11
438 4 230
443 4 1651
446 4 6
449 4 72
455 4 1061
456 4 6
461 4 5
462 4 11
465 4 1522
468 4 161
472 4 1017
484 4 8
485 4 6
491 4 45
494 4 7
500 4 204
10 5 500
13 5 3
14 5 40
16 5 45
19 5 69
22 5 98
26 5 96
27 5 93
34 5 557
43 5 69
44 5 7
46 5 73
67 5 700
72 5 154
99 5 36
102 5 4
110 5 1606
112 5 832
117 5 1182
125 5 3
130 5 104
138 5 252
145 5 4
146 5 26
152 5 23
157 5 25
159 5 176
173 5 7
176 5 21
177 5 927
192 5 1440
201 5 7
210 5 32
221 5 769
233 5 24
237 5 326
245 5 106
248 5 33
251 5 3
253 5 731
256 5 26
268 5 14
275 5 15
280 5 33
294 5 1355
297 5 81
315 5 5
323 5 1001
335 5 721
339 5 27
341 5 5
353 5 119
354 5 1404
356 5 11
357 5 1372
368 5 932
383 5 2
384 5 2
398 5 1294
399 5 5
402 5 100
403 5 3
411 5 153
413 5 694
416 5 1334
426 5 125
427 5 112
434 5 159
438 5 119
443 5 750
455 5 846
465 5 425
468 5 82
472 5 294
500 5 122
1 6 369
3 6 63
4 6 609
5 6 1226
6 6 851
8 6 44
9 6 290
10 6 773
11 6 6
12 6 226
13 6 3
14 6 169
15 6 317
17 6 303
18 6 572
19 6 411
20 6 392
22 6 129
23 6 268
25 6 778
26 6 6
28 6 294
29 6 42
30 6 68
31 6 1144
32 6 61
33 6 2
34 6 248
35 6 1148
36 6 1720
37 6 431
38 6 350
39 6 702
40 6 590
41 6 717
42 6 89
43 6 424
44 6 184
45 6 1250
46 6 39
47 6 417
48 6 1009
49 6 862
50 6 332
51 6 307
52 6 1478
53 6 1285
55 6 1359
56 6 545
57 6 1104
58 6 163
59 6 440
60 6 7
62 6 1647
63 6 1124
64 6 947
65 6 297
68 6 36
70 6 108
71 6 390
72 6 467
73 6 1093
74 6 103
75 6 260
76 6 367
77 6 120
79 6 78
81 6 71
84 6 472
85 6 257
86 6 863
87 6 1
88 6 163
89 6 937
90 6 811
91 6 387
92 6 289
93 6 805
94 6 443
95 6 556
96 6 189
97 6 102
98 6 145
99 6 471
100 6 165
101 6 198
102 6 39
104 6 681
105 6 1048
106 6 629
107 6 175
108 6 1892
109 6 423
111 6 7
112 6 319
113 6 718
114 6 1464
115 6 222
116 6 515
118 6 496
119 6 1572
120 6 394
121 6 949
122 6 1809
123 6 2403
124 6 264
127 6 244
129 6 685
130 6 137
132 6 859
134 6 261
135 6 56
136 6 3
137 6 395
138 6 133
139 6 454
140 6 1724
141 6 2
142 6 406
143 6 412
144 6 913
145 6 336
146 6 56
147 6 1070
148 6 143
149 6 390
151 6 181
152 6 136
153 6 9
154 6 290
156 6 573
157 6 160
158 6 6
161 6 221
162 6 5
163 6 591
164 6 322
165 6 240
166 6 423
167 6 54
168 6 227
169 6 365
170 6 228
171 6 2091
172 6 1292
173 6 50
176 6 183
177 6 135
178 6 199
179 6 658
180 6 1198
181 6 341
182 6 372
183 6 264
184 6 1491
185 6 307
186 6 357
187 6 134
188 6 30
189 6 384
190 6 956
191 6 442
193 6 5
195 6 524
196 6 2
197 6 1416
198 6 2
199 6 323
200 6 26
201 6 319
202 6 44
203 6 197
204 6 1770
205 6 662
206 6 32
207 6 686
208 6 674
209 6 5
210 6 803
211 6 394
212 6 410
213 6 309
214 6 81
215 6 29
216 6 291
217 6 251
218 6 512
219 6 327
222 6 814
223 6 1796
225 6 1402
226 6 975
228 6 1426
229 6 586
230 6 265
231 6 3
232 6 746
233 6 167
234 6 9
235 6 885
236 6 5
237 6 116
238 6 544
239 6 860
240 6 894
241 6 707
242 6 599
243 6 737
244 6 307
245 6 569
246 6 582
247 6 505
248 6 748
249 6 69
250 6 407
251 6 279
252 6 20
253 6 364
254 6 480
255 6 703
256 6 183
257 6 816
258 6 42
259 6 91
260 6 275
261 6 781
262 6 45
263 6 1456
264 6 1039
266 6 275
267 6 457
268 6 441
269 6 473
270 6 275
272 6 1206
274 6 4
275 6 157
276 6 5
277 6 260
278 6 585
279 6 909
280 6 460
281 6 40
282 6 367
283 6 699
284 6 395
285 6 488
286 6 1317
287 6 554
288 6 157
289 6 27
290 6 130
292 6 42
293 6 203
294 6 766
295 6 221
296 6 1731
297 6 4
298 6 261
299 6 496
300 6 151
301 6 564
302 6 1388
303 6 318
304 6 8
305 6 1
306 6 1632
307 6 342
308 6 69
309 6 1402
311 6 498
312 6 423
313 6 848
315 6 329
316 6 254
317 6 266
318 6 35
319 6 958
320 6 133
321 6 248
322 6 2528
323 6 151
324 6 1309
325 6 843
326 6 1490
327 6 458
328 6 356
329 6 122
330 6 1240
331 6 36
332 6 372
333 6 1211
334 6 582
335 6 223
336 6 206
337 6 66
338 6 178
339 6 47
340 6 1701
341 6 62
342 6 779
343 6 728
345 6 203
346 6 912
347 6 363
348 6 697
349 6 3
350 6 109
351 6 924
352 6 294
353 6 39
354 6 793
355 6 101
356 6 433
358 6 162
359 6 454
360 6 222
361 6 297
362 6 771
363 6 156
364 6 603
365 6 268
366 6 557
367 6 303
368 6 272
370 6 647
371 6 310
372 6 170
373 6 73
374 6 238
375 6 6
376 6 364
377 6 132
378 6 155
379 6 780
380 6 323
381 6 227
382 6 348
383 6 143
384 6 59
385 6 388
386 6 724
388 6 313
389 6 1791
390 6 1660
391 6 299
392 6 4
393 6 387
394 6 602
395 6 54
396 6 904
397 6 428
400 6 50
401 6 1128
402 6 140
403 6 150
404 6 673
405 6 325
406 6 202
407 6 521
408 6 529
410 6 147
411 6 419
412 6 432
414 6 1405
415 6 1716
418 6 599
419 6 513
420 6 141
422 6 483
424 6 1136
425 6 139
426 6 589
427 6 132
429 6 1505
431 6 330
432 6 740
433 6 381
434 6 442
435 6 190
436 6 168
437 6 662
438 6 294
439 6 4
440 6 546
442 6 962
443 6 230
444 6 563
445 6 597
446 6 231
447 6 528
448 6 409
450 6 1474
451 6 1298
452 6 75
453 6 1126
455 6 289
456 6 3
458 6 479
459 6 941
460 6 808
461 6 729
462 6 4
463 6 1294
464 6 1062
465 6 69
466 6 381
468 6 153
469 6 35
470 6 405
471 6 329
472 6 48
473 6 813
474 6 628
475 6 321
476 6 281
477 6 50
478 6 37
479 6 440
480 6 931
481 6 141
482 6 161
483 6 903
484 6 615
485 6 7
486 6 1389
488 6 4
489 6 832
490 6 312
491 6 3
492 6 1003
493 6 890
494 6 145
495 6 577
496 6 793
497 6 103
498 6 232
499 6 302
500 6 589
2 7 815
3 7 3
7 7 121
8 7 2
11 7 562
21 7 8
24 7 65
29 7 11
31 7 11
32 7 7
33 7 13
38 7 2
54 7 965
60 7 164
61 7 352
63 7 6
66 7 1095
68 7 38
69 7 87
74 7 3
78 7 4
80 7 1114
81 7 19
82 7 1009
87 7 102
88 7 4
89 7 2
97 7 1
98 7 6
101 7 6
103 7 1262
108 7 7
126 7 760
128 7 997
131 7 150
133 7 567
141 7 453
148 7 2
149 7 4
150 7 827
154 7 7
155 7 269
158 7 22
160 7 267
162 7 533
172 7 7
175 7 1342
188 7 96
193 7 586
194 7 100
196 7 15
198 7 152
200 7 42
202 7 7
206 7 36
209 7 7
211 7 7
215 7 95
220 7 106
224 7 1135
227 7 6
228 7 4
231 7 18
234 7 393
235 7 4
236 7 102
242 7 14
243 7 2
249 7 3
251 7 5
252 7 41
258 7 39
262 7 44
265 7 94
271 7 251
273 7 876
274 7 434
276 7 601
289 7 80
299 7 8
301 7 21
304 7 75
305 7 153
308 7 5
310 7 978
314 7 938
318 7 36
331 7 37
332 7 5
337 7 12
344 7 141
347 7 2
349 7 80
350 7 5
358 7 5
365 7 5
369 7 92
373 7 3
374 7 5
375 7 148
385 7 6
387 7 522
392 7 28
393 7 1
397 7 6
400 7 5
409 7 723
417 7 758
420 7 4
421 7 273
423 7 20
428 7 88
430 7 262
435 7 2
439 7 141
441 7 1010
449 7 21
450 7 6
451 7 6
454 7 1361
456 7 355
457 7 1206
462 7 18
467 7 756
469 7 66
472 7 3
477 7 3
478 7 50
481 7 4
482 7 9
486 7 4
487 7 1481
488 7 103
490 7 9
491 7 12
493 7 6
3 8 5
7 8 88
11 8 119
24 8 164
54 8 1188
60 8 480
66 8 519
68 8 11
69 8 154
78 8 27
80 8 1253
82 8 1138
87 8 37
103 8 809
126 8 17
128 8 457
131 8 108
133 8 37
141 8 865
148 8 10
150 8 7
155 8 5
160 8 4
162 8 97
175 8 796
188 8 11
193 8 101
194 8 172
198 8 468
200 8 14
206 8 23
215 8 17
220 8 159
224 8 1227
234 8 808
236 8 38
249 8 7
252 8 25
262 8 12
265 8 193
271 8 37
273 8 944
274 8 802
276 8 118
288 8 4
289 8 12
300 8 7
304 8 39
305 8 459
308 8 5
310 8 1280
314 8 427
318 8 28
331 8 25
344 8 111
349 8 43
369 8 166
373 8 3
375 8 493
387 8 793
409 8 1107
417 8 1131
430 8 28
439 8 476
441 8 1385
454 8 806
456 8 59
457 8 516
467 8 705
469 8 14
478 8 29
487 8 1971
488 8 34
1 9 1361
3 9 324
4 9 1114
5 9 1015
6 9 1276
7 9 490
8 9 499
9 9 192
11 9 958
12 9 261
13 9 30
15 9 287
17 9 455
18 9 500
20 9 1930
22 9 11
23 9 1925
24 9 557
25 9 339
28 9 888
29 9 472
30 9 19
31 9 492
32 9 53
33 9 3
35 9 954
36 9 937
37 9 1900
38 9 147
39 9 1194
40 9 1596
41 9 473
42 9 657
45 9 1608
46 9 4
47 9 1255
48 9 1145
49 9 602
50 9 335
51 9 431
52 9 688
53 9 1184
54 9 551
55 9 685
56 9 81
57 9 2865
58 9 62
59 9 1218
60 9 498
62 9 814
63 9 1258
64 9 844
65 9 1792
68 9 451
69 9 627
70 9 140
71 9 504
73 9 2873
74 9 125
75 9 882
76 9 732
77 9 149
78 9 153
79 9 639
80 9 162
81 9 299
84 9 1293
85 9 645
86 9 1328
87 9 977
88 9 190
89 9 1653
90 9 275
91 9 629
92 9 349
93 9 1098
94 9 310
95 9 1470
96 9 266
97 9 138
98 9 130
99 9 14
100 9 471
101 9 151
102 9 39
103 9 1272
104 9 514
105 9 1397
106 9 831
107 9 98
108 9 815
109 9 488
111 9 9
113 9 1283
114 9 1020
115 9 645
116 9 188
118 9 423
119 9 1073
120 9 538
121 9 1049
122 9 677
123 9 786
124 9 871
126 9 107
127 9 622
128 9 2
129 9 1017
130 9 10
131 9 484
132 9 338
134 9 577
135 9 104
136 9 9
137 9 215
138 9 5
139 9 1396
140 9 870
141 9 768
142 9 593
143 9 734
144 9 1053
145 9 84
146 9 10
147 9 1280
148 9 1049
149 9 461
151 9 295
152 9 4
153 9 78
154 9 1522
155 9 608
156 9 340
157 9 6
158 9 2
160 9 614
161 9 850
162 9 884
163 9 956
164 9 328
165 9 226
166 9 477
167 9 204
168 9 84
169 9 435
170 9 383
171 9 1183
172 9 530
173 9 48
175 9 1334
176 9 93
178 9 762
179 9 481
180 9 538
181 9 126
182 9 255
183 9 261
184 9 1383
185 9 728
186 9 291
187 9 173
188 9 410
189 9 131
190 9 1343
191 9 946
193 9 918
194 9 657
195 9 630
196 9 3
197 9 640
198 9 429
199 9 382
200 9 420
201 9 66
202 9 452
203 9 879
204 9 1379
205 9 1700
206 9 882
207 9 497
208 9 266
209 9 7
210 9 18
211 9 473
212 9 508
213 9 365
214 9 371
215 9 382
216 9 840
217 9 317
218 9 922
219 9 357
220 9 553
222 9 1164
223 9 937
224 9 165
225 9 742
226 9 2083
228 9 1457
229 9 242
230 9 721
232 9 743
233 9 3
234 9 770
235 9 1035
236 9 954
237 9 7
238 9 252
239 9 1356
240 9 640
241 9 684
242 9 1315
243 9 425
244 9 1719
246 9 1356
247 9 491
248 9 12
249 9 517
250 9 219
251 9 144
252 9 853
254 9 736
255 9 972
256 9 96
257 9 646
258 9 116
259 9 151
260 9 1021
261 9 259
262 9 480
263 9 742
264 9 1267
265 9 632
266 9 322
267 9 694
268 9 205
269 9 341
270 9 507
271 9 1472
272 9 1087
273 9 275
274 9 797
275 9 33
276 9 930
277 9 752
278 9 1788
279 9 628
280 9 10
281 9 101
282 9 643
283 9 504
284 9 686
285 9 228
286 9 1919
287 9 1664
288 9 142
289 9 350
290 9 19
292 9 9
293 9 865
295 9 240
296 9 1433
298 9 563
299 9 981
300 9 153
301 9 1221
302 9 516
303 9 443
304 9 993
305 9 487
306 9 1403
307 9 1880
308 9 312
309 9 949
311 9 560
312 9 525
313 9 634
314 9 4
315 9 51
316 9 616
317 9 62
318 9 904
319 9 1738
320 9 197
321 9 671
322 9 773
324 9 1020
325 9 639
326 9 1040
327 9 1133
328 9 347
329 9 171
330 9 1122
331 9 422
332 9 695
333 9 1347
334 9 1008
336 9 195
337 9 300
338 9 194
339 9 8
340 9 1598
341 9 30
342 9 917
343 9 240
344 9 470
345 9 168
346 9 1113
347 9 126
348 9 751
349 9 1005
350 9 430
351 9 810
352 9 694
355 9 121
356 9 248
358 9 105
359 9 704
360 9 295
361 9 966
362 9 688
363 9 15
364 9 1296
365 9 191
366 9 999
367 9 662
369 9 637
370 9 1136
371 9 108
372 9 57
373 9 555
374 9 201
375 9 481
376 9 634
377 9 187
378 9 325
379 9 515
380 9 2027
381 9 906
382 9 271
383 9 129
384 9 10
385 9 1346
386 9 486
387 9 797
388 9 449
389 9 1641
390 9 1378
391 9 272
392 9 6
393 9 456
394 9 786
395 9 102
396 9 591
397 9 704
400 9 64
401 9 1585
403 9 1
404 9 891
405 9 333
406 9 617
407 9 478
408 9 391
410 9 95
412 9 232
414 9 561
415 9 1568
418 9 943
419 9 894
420 9 129
422 9 959
424 9 770
425 9 210
427 9 10
428 9 4
429 9 897
430 9 1509
431 9 1008
432 9 454
433 9 729
435 9 260
436 9 121
437 9 1324
439 9 478
440 9 1422
442 9 314
444 9 1477
445 9 940
446 9 440
447 9 1450
448 9 293
450 9 631
451 9 800
452 9 437
453 9 1276
454 9 1311
456 9 22
458 9 835
459 9 1378
460 9 643
461 9 917
462 9 4
463 9 969
464 9 814
466 9 304
467 9 122
469 9 364
470 9 287
471 9 704
473 9 429
474 9 525
475 9 572
476 9 375
477 9 432
478 9 834
479 9 592
480 9 862
481 9 128
482 9 284
483 9 1289
484 9 741
485 9 13
486 9 1348
488 9 989
489 9 1411
490 9 259
491 9 3
492 9 321
493 9 1131
494 9 11
495 9 770
496 9 301
497 9 350
498 9 452
499 9 959
1 10 1394
3 10 186
4 10 1799
5 10 2444
6 10 1376
7 10 146
8 10 66
9 10 503
10 10 70
11 10 217
12 10 81
13 10 20
14 10 22
15 10 302
17 10 546
18 10 606
19 10 3
20 10 965
22 10 27
23 10 834
24 10 107
25 10 847
28 10 2001
29 10 64
30 10 149
31 10 1812
32 10 163
33 10 4
35 10 1541
36 10 693
37 10 431
38 10 363
39 10 1143
40 10 1542
41 10 650
42 10 236
43 10 5
44 10 36
45 10 1648
46 10 64
47 10 233
48 10 848
49 10 264
50 10 182
51 10 813
52 10 1184
53 10 2327
54 10 97
55 10 722
56 10 272
57 10 1646
58 10 237
59 10 237
60 10 228
62 10 802
63 10 1195
64 10 618
65 10 1894
68 10 207
69 10 95
70 10 103
71 10 1300
72 10 7
73 10 1635
74 10 259
75 10 2015
76 10 1863
77 10 55
78 10 80
79 10 217
80 10 3
81 10 117
84 10 395
85 10 978
86 10 969
87 10 180
88 10 340
89 10 1395
90 10 472
91 10 889
92 10 181
93 10 1014
94 10 626
95 10 522
96 10 287
97 10 431
98 10 171
99 10 105
100 10 224
101 10 638
102 10 49
103 10 48
104 10 634
105 10 2161
106 10 1096
107 10 864
108 10 937
109 10 1338
111 10 29
112 10 14
113 10 1855
114 10 1903
115 10 917
116 10 486
118 10 582
119 10 590
120 10 455
121 10 492
122 10 1045
123 10 1762
124 10 605
127 10 969
129 10 511
130 10 20
131 10 135
132 10 816
134 10 780
135 10 126
136 10 55
137 10 3002
138 10 130
139 10 1347
140 10 663
141 10 115
142 10 1839
143 10 853
144 10 506
145 10 280
146 10 14
147 10 640
148 10 410
149 10 501
150 10 8
151 10 516
152 10 112
153 10 69
154 10 1293
155 10 56
156 10 695
157 10 101
158 10 5
160 10 56
161 10 807
162 10 218
163 10 866
164 10 156
165 10 78
166 10 1217
167 10 198
168 10 99
169 10 565
170 10 109
171 10 988
172 10 638
173 10 22
175 10 41
176 10 223
177 10 13
178 10 856
179 10 647
180 10 1158
181 10 1024
182 10 2977
183 10 89
184 10 1120
185 10 274
186 10 1065
187 10 1355
188 10 241
189 10 1081
190 10 1410
191 10 1603
193 10 223
194 10 110
195 10 380
196 10 4
197 10 516
198 10 214
199 10 759
200 10 203
201 10 270
202 10 68
203 10 164
204 10 496
205 10 640
206 10 179
207 10 572
208 10 928
210 10 63
211 10 505
212 10 1301
213 10 739
214 10 487
215 10 239
216 10 222
217 10 961
218 10 890
219 10 1436
220 10 105
222 10 920
223 10 657
224 10 4
225 10 1330
226 10 1443
228 10 1126
229 10 482
230 10 1518
232 10 1219
233 10 120
234 10 112
235 10 1748
236 10 181
237 10 23
238 10 457
239 10 996
240 10 296
241 10 538
242 10 644
243 10 1026
244 10 1554
245 10 149
246 10 1004
247 10 289
248 10 46
249 10 182
250 10 798
251 10 632
252 10 178
253 10 49
254 10 382
255 10 707
256 10 194
257 10 2075
258 10 123
259 10 162
260 10 349
261 10 482
262 10 190
263 10 1315
264 10 341
265 10 130
266 10 1436
267 10 356
268 10 418
269 10 326
270 10 1785
271 10 190
272 10 512
274 10 118
275 10 167
276 10 221
277 10 826
278 10 839
279 10 1024
280 10 110
281 10 78
282 10 1386
283 10 632
284 10 1619
285 10 510
286 10 914
287 10 964
288 10 110
289 10 262
290 10 100
292 10 91
293 10 502
294 10 10
295 10 50
296 10 754
298 10 359
299 10 855
300 10 93
301 10 667
302 10 1243
303 10 592
304 10 203
305 10 212
306 10 1771
307 10 916
308 10 189
309 10 1145
311 10 470
312 10 119
313 10 289
315 10 284
316 10 973
317 10 182
318 10 174
319 10 2525
320 10 146
321 10 683
322 10 2326
323 10 11
324 10 509
325 10 1633
326 10 1609
327 10 430
328 10 188
329 10 140
330 10 478
331 10 171
332 10 627
333 10 1299
334 10 374
335 10 2
336 10 466
337 10 118
338 10 475
339 10 22
340 10 399
341 10 18
342 10 1252
343 10 633
344 10 128
345 10 455
346 10 888
347 10 363
348 10 608
349 10 222
350 10 129
351 10 1408
352 10 272
354 10 10
355 10 128
356 10 405
358 10 163
359 10 375
360 10 959
361 10 771
362 10 1025
363 10 104
364 10 1083
365 10 297
366 10 1101
367 10 1144
368 10 5
369 10 108
370 10 1787
371 10 878
372 10 271
373 10 164
374 10 576
375 10 198
376 10 931
377 10 1424
378 10 195
379 10 664
380 10 603
381 10 788
382 10 695
383 10 133
384 10 95
385 10 1158
386 10 644
387 10 45
388 10 597
389 10 439
390 10 1772
391 10 681
392 10 21
393 10 520
394 10 1042
395 10 114
396 10 719
397 10 1704
400 10 188
401 10 2721
402 10 76
403 10 4
404 10 686
405 10 845
406 10 1921
407 10 581
408 10 2069
410 10 135
411 10 11
412 10 766
414 10 1303
415 10 453
418 10 1339
419 10 490
420 10 148
422 10 1617
423 10 24
424 10 1454
425 10 136
426 10 152
427 10 32
429 10 1058
430 10 183
431 10 796
432 10 875
433 10 776
434 10 9
435 10 844
436 10 825
437 10 1012
438 10 42
439 10 192
440 10 882
442 10 414
443 10 8
444 10 685
445 10 1162
446 10 1376
447 10 919
448 10 267
449 10 38
450 10 1198
451 10 1169
452 10 109
453 10 365
454 10 42
455 10 19
456 10 18
458 10 634
459 10 279
460 10 1707
461 10 698
462 10 23
463 10 1165
464 10 1105
466 10 731
467 10 24
468 10 92
469 10 228
470 10 247
471 10 1223
473 10 740
474 10 592
475 10 343
476 10 827
477 10 59
478 10 175
479 10 557
480 10 1236
481 10 136
482 10 800
483 10 970
484 10 1392
485 10 38
486 10 1160
488 10 215
489 10 793
490 10 1557
491 10 5
492 10 1046
493 10 2758
494 10 128
495 10 540
496 10 838
497 10 161
498 10 806
499 10 756
500 10 151
1 11 66
2 11 601
3 11 164
4 11 90
5 11 181
6 11 136
7 11 450
8 11 320
9 11 152
10 11 255
11 11 579
12 11 123
13 11 118
14 11 301
15 11 121
16 11 292
17 11 28
18 11 243
19 11 263
20 11 61
21 11 611
22 11 530
23 11 261
24 11 269
25 11 57
26 11 919
27 11 278
28 11 123
29 11 362
30 11 120
31 11 87
32 11 171
33 11 265
34 11 244
35 11 166
36 11 7
37 11 9
38 11 144
39 11 107
40 11 91
41 11 73
42 11 139
43 11 266
44 11 238
45 11 35
46 11 294
47 11 126
48 11 39
49 11 123
50 11 64
51 11 212
52 11 32
53 11 37
54 11 152
55 11 133
56 11 185
57 11 211
58 11 548
59 11 112
60 11 398
61 11 333
62 11 81
63 11 35
64 11 115
65 11 15
66 11 276
67 11 258
68 11 734
69 11 315
70 11 160
71 11 76
72 11 733
73 11 206
74 11 255
75 11 142
77 11 179
78 11 555
79 11 136
80 11 159
81 11 424
82 11 180
83 11 362
84 11 40
85 11 122
86 11 159
87 11 212
88 11 84
89 11 167
90 11 47
91 11 100
92 11 80
93 11 92
94 11 77
95 11 120
96 11 109
97 11 168
98 11 93
99 11 369
100 11 234
101 11 166
102 11 281
103 11 481
104 11 147
105 11 59
106 11 57
107 11 224
108 11 16
109 11 86
110 11 113
111 11 201
112 11 215
113 11 40
114 11 84
115 11 106
116 11 12
117 11 224
118 11 77
119 11 99
120 11 70
121 11 22
122 11 149
123 11 60
124 11 37
125 11 821
126 11 733
127 11 134
128 11 187
129 11 161
130 11 510
131 11 433
132 11 31
133 11 145
134 11 118
135 11 192
136 11 218
137 11 277
138 11 500
139 11 65
140 11 6
141 11 677
142 11 148
143 11 90
144 11 19
145 11 272
146 11 347
147 11 26
148 11 648
149 11 158
150 11 257
151 11 37
152 11 325
153 11 293
154 11 107
155 11 992
156 11 5
157 11 336
158 11 245
159 11 285
160 11 952
161 11 149
162 11 595
163 11 8
164 11 69
165 11 119
166 11 99
167 11 165
168 11 940
169 11 269
170 11 72
171 11 56
172 11 56
173 11 76
174 11 348
175 11 473
176 11 76
177 11 197
178 11 63
179 11 82
180 11 91
181 11 204
182 11 269
183 11 122
184 11 60
185 11 85
186 11 90
187 11 245
188 11 235
189 11 194
190 11 122
191 11 15
192 11 522
193 11 552
194 11 261
195 11 131
196 11 270
197 11 138
198 11 427
199 11 12
200 11 739
201 11 252
202 11 370
203 11 208
204 11 98
205 11 3
206 11 335
207 11 76
208 11 50
209 11 78
210 11 249
211 11 160
212 11 94
213 11 9
214 11 125
215 11 238
216 11 105
217 11 36
218 11 115
219 11 64
220 11 236
221 11 311
222 11 20
223 11 19
224 11 154
225 11 93
226 11 18
227 11 643
228 11 33
229 11 54
230 11 98
231 11 281
232 11 68
233 11 375
234 11 697
235 11 103
236 11 207
237 11 251
238 11 53
239 11 146
240 11 131
241 11 55
242 11 61
243 11 16
244 11 90
245 11 157
246 11 43
247 11 129
248 11 251
249 11 130
250 11 153
251 11 234
252 11 315
253 11 351
254 11 115
255 11 59
256 11 74
257 11 82
258 11 654
259 11 76
260 11 130
261 11 43
262 11 700
263 11 100
264 11 37
265 11 263
266 11 121
267 11 110
268 11 291
269 11 41
270 11 58
271 11 937
272 11 27
273 11 255
274 11 698
275 11 135
276 11 580
277 11 115
278 11 105
279 11 36
280 11 323
281 11 363
282 11 87
283 11 138
284 11 29
285 11 13
286 11 52
287 11 114
288 11 176
289 11 199
290 11 80
291 11 455
292 11 530
293 11 122
294 11 246
295 11 103
296 11 32
297 11 81
298 11 74
299 11 131
300 11 188
301 11 55
302 11 37
303 11 108
304 11 217
305 11 394
306 11 81
307 11 67
308 11 200
309 11 6
310 11 212
311 11 101
312 11 627
313 11 129
314 11 186
315 11 251
316 11 134
317 11 80
318 11 312
319 11 114
320 11 215
321 11 51
322 11 207
323 11 210
324 11 167
325 11 90
326 11 80
327 11 114
328 11 73
329 11 214
330 11 21
331 11 720
332 11 48
333 11 18
334 11 48
335 11 736
336 11 242
337 11 422
338 11 219
339 11 378
340 11 15
341 11 102
342 11 83
343 11 16
344 11 442
345 11 228
346 11 14
347 11 130
348 11 125
349 11 195
350 11 164
351 11 32
352 11 97
353 11 626
354 11 232
355 11 127
356 11 306
357 11 540
358 11 94
359 11 112
360 11 36
361 11 76
362 11 43
363 11 103
364 11 205
365 11 5
366 11 20
367 11 150
368 11 285
369 11 256
370 11 97
371 11 11
372 11 509
373 11 126
374 11 229
375 11 393
376 11 97
377 11 240
378 11 57
379 11 132
380 11 194
381 11 143
382 11 60
383 11 282
384 11 460
385 11 35
386 11 145
387 11 804
388 11 110
389 11 15
390 11 85
391 11 72
392 11 433
393 11 154
394 11 107
395 11 240
396 11 80
397 11 207
398 11 541
399 11 302
400 11 196
401 11 5
402 11 368
403 11 138
404 11 55
405 11 133
406 11 5
407 11 53
408 11 76
409 11 310
410 11 250
411 11 752
412 11 134
413 11 243
414 11 39
415 11 14
416 11 495
417 11 302
418 11 174
419 11 78
420 11 85
421 11 781
422 11 13
423 11 611
424 11 36
425 11 593
426 11 181
427 11 542
428 11 550
429 11 9
430 11 909
431 11 13
432 11 39
433 11 85
434 11 725
435 11 113
436 11 232
437 11 9
438 11 402
439 11 391
440 11 89
441 11 228
442 11 52
443 11 792
444 11 92
445 11 54
446 11 138
447 11 106
448 11 275
449 11 583
450 11 60
451 11 30
452 11 250
453 11 53
454 11 484
455 11 215
456 11 225
457 11 243
458 11 69
459 11 37
460 11 77
461 11 67
462 11 415
463 11 5
464 11 104
465 11 114
466 11 100
467 11 232
468 11 437
469 11 247
470 11 265
471 11 135
472 11 495
473 11 73
474 11 144
475 11 57
476 11 113
477 11 393
478 11 302
479 11 145
480 11 112
481 11 103
482 11 116
483 11 131
484 11 52
485 11 272
486 11 48
487 11 317
488 11 188
489 11 81
490 11 100
491 11 297
492 11 37
493 11 163
494 11 94
495 11 58
496 11 52
497 11 99
498 11 146
499 11 59
500 11 155
1 12 232
3 12 32
4 12 338
5 12 1156
6 12 698
7 12 6
8 12 76
9 12 53
10 12 20
11 12 3
12 12 100
13 12 11
14 12 15
15 12 106
17 12 87
18 12 87
19 12 3
20 12 347
21 12 13
22 12 25
23 12 899
24 12 7
25 12 191
26 12 36
28 12 299
29 12 66
30 12 56
31 12 659
32 12 115
33 12 46
34 12 5
35 12 941
36 12 605
37 12 1296
38 12 177
39 12 376
40 12 1028
41 12 564
42 12 156
43 12 7
44 12 36
45 12 251
46 12 26
47 12 39
48 12 404
49 12 108
50 12 69
51 12 210
52 12 731
53 12 509
54 12 4
55 12 652
56 12 184
57 12 828
58 12 14
59 12 49
60 12 7
61 12 29
62 12 348
63 12 456
64 12 432
65 12 892
68 12 12
69 12 4
70 12 13
71 12 500
72 12 6
73 12 848
74 12 68
75 12 286
76 12 662
77 12 28
79 12 158
80 12 9
83 12 79
84 12 358
85 12 137
86 12 835
88 12 69
89 12 445
90 12 183
91 12 266
92 12 118
93 12 407
94 12 386
95 12 848
96 12 110
97 12 72
98 12 132
99 12 7
100 12 74
101 12 130
102 12 67
103 12 7
104 12 188
105 12 541
106 12 262
107 12 57
108 12 384
109 12 459
111 12 25
112 12 12
113 12 557
114 12 720
115 12 129
116 12 268
118 12 332
119 12 176
120 12 175
121 12 713
122 12 523
123 12 601
124 12 557
125 12 18
126 12 38
127 12 127
128 12 10
129 12 725
130 12 28
131 12 7
132 12 638
133 12 67
134 12 346
135 12 100
136 12 48
137 12 984
138 12 9
139 12 443
140 12 644
141 12 16
142 12 396
143 12 359
144 12 776
145 12 10
146 12 27
147 12 749
148 12 5
149 12 54
150 12 4
151 12 135
152 12 15
153 12 29
154 12 708
155 12 14
156 12 661
157 12 19
158 12 65
159 12 71
160 12 13
161 12 68
162 12 4
163 12 351
164 12 70
165 12 94
166 12 358
167 12 13
168 12 91
169 12 113
170 12 11
171 12 482
172 12 346
173 12 46
174 12 13
175 12 4
176 12 32
177 12 28
178 12 107
179 12 586
180 12 469
181 12 89
182 12 975
183 12 82
184 12 451
185 12 226
186 12 225
187 12 32
188 12 46
189 12 92
190 12 660
191 12 442
193 12 2
194 12 4
195 12 27
196 12 59
197 12 782
198 12 7
199 12 136
200 12 13
201 12 8
202 12 76
203 12 136
204 12 309
205 12 327
206 12 11
207 12 533
208 12 454
209 12 21
210 12 25
211 12 62
212 12 451
213 12 136
214 12 120
215 12 41
216 12 173
217 12 162
218 12 235
219 12 118
220 12 3
222 12 196
223 12 181
224 12 12
225 12 288
226 12 373
227 12 14
228 12 480
229 12 320
230 12 382
231 12 21
232 12 712
233 12 17
234 12 14
235 12 404
237 12 18
238 12 340
239 12 856
240 12 96
241 12 557
242 12 121
243 12 607
244 12 287
245 12 32
246 12 340
247 12 149
248 12 36
249 12 55
250 12 160
251 12 59
252 12 18
254 12 27
255 12 317
256 12 57
257 12 330
258 12 157
259 12 73
260 12 88
261 12 195
262 12 14
263 12 321
264 12 358
265 12 3
266 12 135
267 12 175
268 12 6
269 12 868
270 12 697
272 12 697
274 12 21
275 12 30
276 12 2
277 12 162
278 12 926
279 12 1123
280 12 6
281 12 93
282 12 335
283 12 187
284 12 162
285 12 210
286 12 451
287 12 881
288 12 67
289 12 52
290 12 153
291 12 36
292 12 11
293 12 494
294 12 16
295 12 51
296 12 443
297 12 34
298 12 59
299 12 546
300 12 74
301 12 120
302 12 270
303 12 185
305 12 8
306 12 300
307 12 311
308 12 30
309 12 560
311 12 178
312 12 121
313 12 116
314 12 14
315 12 9
316 12 142
317 12 13
318 12 15
319 12 500
320 12 83
321 12 122
322 12 291
323 12 34
324 12 694
325 12 605
326 12 293
327 12 369
328 12 62
329 12 87
330 12 703
331 12 14
332 12 352
333 12 218
334 12 1332
336 12 66
338 12 57
339 12 34
340 12 389
341 12 40
342 12 237
343 12 280
344 12 1
345 12 64
346 12 413
347 12 178
348 12 652
350 12 38
351 12 843
352 12 213
353 12 39
354 12 26
355 12 24
356 12 10
358 12 102
359 12 154
360 12 160
361 12 212
362 12 560
363 12 164
364 12 221
365 12 237
366 12 285
367 12 322
369 12 1
370 12 307
371 12 100
372 12 15
373 12 43
374 12 52
375 12 8
376 12 286
377 12 29
378 12 218
379 12 167
380 12 531
381 12 68
382 12 99
383 12 46
384 12 14
385 12 501
386 12 198
388 12 191
389 12 382
390 12 291
391 12 110
392 12 23
393 12 67
394 12 125
395 12 103
396 12 260
397 12 131
399 12 35
400 12 115
401 12 416
402 12 3
403 12 20
404 12 266
405 12 145
406 12 401
407 12 368
408 12 335
410 12 105
411 12 4
412 12 146
414 12 276
415 12 374
418 12 148
419 12 237
420 12 108
421 12 35
422 12 433
423 12 34
424 12 939
425 12 125
426 12 41
427 12 20
428 12 61
429 12 345
431 12 588
432 12 241
433 12 317
434 12 5
435 12 127
436 12 84
437 12 322
438 12 23
439 12 4
440 12 428
442 12 775
444 12 240
445 12 119
446 12 673
447 12 441
448 12 123
449 12 40
450 12 586
451 12 686
452 12 33
453 12 111
454 12 5
455 12 5
456 12 20
458 12 482
459 12 372
460 12 661
461 12 315
462 12 15
463 12 532
464 12 99
465 12 4
466 12 211
467 12 20
468 12 5
469 12 44
470 12 107
471 12 294
472 12 22
473 12 871
474 12 673
475 12 200
476 12 241
477 12 65
478 12 9
479 12 425
480 12 1164
481 12 109
482 12 135
483 12 935
484 12 253
485 12 92
486 12 511
489 12 174
490 12 246
491 12 64
492 12 394
493 12 425
494 12 193
495 12 186
496 12 214
497 12 115
498 12 71
499 12 238
500 12 28
1 13 259
3 13 12
4 13 330
5 13 1341
6 13 2225
9 13 68
12 13 173
13 13 3
14 13 9
15 13 37
17 13 54
18 13 4
19 13 42
20 13 641
21 13 14
23 13 220
24 13 41
25 13 37
26 13 69
28 13 322
30 13 4
31 13 547
32 13 37
33 13 23
34 13 3
35 13 483
36 13 406
37 13 752
38 13 248
39 13 418
40 13 758
41 13 199
42 13 119
43 13 31
44 13 21
45 13 1061
48 13 1833
49 13 172
50 13 125
51 13 100
52 13 350
53 13 1803
54 13 10
55 13 1189
56 13 155
57 13 388
58 13 7
61 13 38
62 13 502
63 13 1115
64 13 180
65 13 424
68 13 18
69 13 43
70 13 16
71 13 190
73 13 360
75 13 333
76 13 455
77 13 19
79 13 96
83 13 7
84 13 811
85 13 454
86 13 2219
87 13 1
88 13 165
89 13 588
90 13 200
91 13 202
92 13 95
93 13 228
94 13 236
95 13 1038
96 13 25
98 13 82
99 13 4
100 13 239
101 13 6
102 13 24
104 13 739
105 13 560
106 13 491
107 13 3
108 13 555
109 13 164
111 13 4
113 13 1499
114 13 465
115 13 402
116 13 104
118 13 111
119 13 279
120 13 19
121 13 534
122 13 1089
123 13 1134
124 13 319
125 13 26
126 13 92
127 13 377
128 13 15
129 13 286
132 13 460
133 13 64
134 13 398
135 13 33
136 13 33
137 13 446
138 13 4
139 13 164
140 13 381
141 13 5
142 13 1506
143 13 444
144 13 518
145 13 3
146 13 15
147 13 486
149 13 8
150 13 43
153 13 24
154 13 507
155 13 4
156 13 689
158 13 26
159 13 4
160 13 6
161 13 128
163 13 84
164 13 129
165 13 145
166 13 1279
167 13 83
168 13 111
169 13 242
170 13 26
171 13 686
172 13 228
173 13 20
174 13 15
178 13 62
179 13 234
180 13 850
181 13 60
182 13 473
183 13 181
184 13 973
185 13 127
186 13 284
188 13 10
189 13 58
190 13 2125
191 13 531
194 13 31
195 13 119
196 13 29
197 13 765
199 13 258
200 13 12
201 13 2
203 13 216
204 13 938
205 13 146
207 13 214
208 13 1392
209 13 69
210 13 7
211 13 2
212 13 165
213 13 285
214 13 214
215 13 17
216 13 251
217 13 164
218 13 187
219 13 55
220 13 44
222 13 410
223 13 429
225 13 179
226 13 733
227 13 5
228 13 315
229 13 253
230 13 845
231 13 42
232 13 913
234 13 2
235 13 896
236 13 9
237 13 8
238 13 239
239 13 2191
240 13 197
241 13 413
242 13 60
243 13 304
244 13 279
245 13 3
246 13 806
247 13 199
248 13 9
249 13 10
250 13 362
251 13 11
253 13 7
254 13 129
255 13 39
257 13 1170
258 13 35
259 13 9
260 13 38
261 13 210
262 13 21
263 13 175
264 13 491
265 13 57
266 13 341
267 13 323
269 13 425
270 13 771
272 13 989
273 13 38
274 13 5
275 13 8
277 13 54
278 13 1323
279 13 652
280 13 3
281 13 70
282 13 287
283 13 735
284 13 121
285 13 147
286 13 332
287 13 634
288 13 17
289 13 17
290 13 40
291 13 44
293 13 1163
295 13 74
296 13 329
297 13 31
298 13 46
299 13 660
300 13 23
301 13 57
302 13 424
303 13 225
304 13 4
306 13 550
307 13 620
308 13 14
309 13 380
311 13 23
312 13 109
313 13 171
314 13 10
315 13 3
316 13 423
317 13 11
319 13 784
320 13 96
322 13 739
324 13 209
325 13 218
326 13 470
327 13 731
328 13 122
329 13 88
330 13 1022
331 13 15
332 13 404
333 13 382
334 13 656
335 13 8
336 13 20
338 13 18
339 13 19
340 13 428
341 13 11
342 13 574
343 13 659
345 13 30
346 13 318
347 13 262
348 13 830
349 13 5
351 13 457
352 13 125
355 13 14
358 13 98
359 13 282
360 13 151
361 13 160
362 13 716
363 13 49
364 13 492
365 13 173
366 13 519
367 13 258
368 13 9
369 13 43
370 13 330
371 13 43
372 13 3
373 13 3
374 13 187
376 13 181
378 13 37
379 13 673
380 13 1743
381 13 111
382 13 45
383 13 1
385 13 1262
386 13 752
388 13 238
389 13 421
390 13 520
391 13 54
392 13 75
393 13 2
394 13 281
395 13 35
396 13 59
397 13 136
399 13 34
400 13 31
401 13 1449
403 13 7
404 13 58
405 13 169
406 13 955
407 13 143
408 13 1272
410 13 21
412 13 348
414 13 478
415 13 432
418 13 263
419 13 113
420 13 75
421 13 27
422 13 514
423 13 87
424 13 615
425 13 76
426 13 8
428 13 37
429 13 425
431 13 210
432 13 668
433 13 988
435 13 75
436 13 4
437 13 760
438 13 16
440 13 473
442 13 218
443 13 6
444 13 328
445 13 572
446 13 707
447 13 508
448 13 116
449 13 100
450 13 251
451 13 128
452 13 256
453 13 303
456 13 65
458 13 386
459 13 423
460 13 236
461 13 36
462 13 63
463 13 363
464 13 129
465 13 2
466 13 334
469 13 27
470 13 132
471 13 488
472 13 4
473 13 609
474 13 606
475 13 201
476 13 209
479 13 1106
480 13 552
481 13 55
482 13 89
483 13 2309
484 13 655
485 13 64
486 13 319
488 13 7
489 13 479
490 13 474
491 13 33
492 13 64
493 13 388
494 13 43
495 13 689
496 13 50
497 13 73
498 13 3
499 13 160
500 13 4
1 14 485
3 14 17
4 14 87
5 14 737
6 14 821
12 14 83
13 14 15
15 14 5
17 14 5
19 14 34
20 14 184
21 14 1
23 14 644
25 14 10
26 14 6
28 14 322
31 14 1279
32 14 3
33 14 6
35 14 1039
36 14 545
37 14 1311
38 14 435
39 14 280
40 14 298
41 14 41
42 14 45
43 14 33
45 14 506
48 14 943
49 14 431
50 14 40
51 14 99
52 14 894
53 14 870
55 14 407
56 14 7
57 14 595
62 14 302
63 14 291
64 14 94
65 14 1193
68 14 3
71 14 499
73 14 651
75 14 331
76 14 1031
79 14 21
83 14 14
84 14 992
85 14 75
86 14 389
88 14 64
89 14 298
90 14 56
91 14 13
93 14 1156
94 14 142
95 14 970
97 14 35
100 14 91
104 14 243
105 14 1621
106 14 305
108 14 111
109 14 563
113 14 2016
114 14 1120
115 14 71
116 14 4
118 14 26
119 14 165
121 14 1020
122 14 910
123 14 1461
124 14 390
125 14 17
126 14 38
127 14 74
128 14 9
129 14 281
132 14 542
133 14 6
134 14 121
135 14 122
137 14 778
139 14 1284
140 14 561
142 14 481
143 14 157
144 14 1010
145 14 2
146 14 5
147 14 476
150 14 7
153 14 2
154 14 526
156 14 323
158 14 8
161 14 185
163 14 6
164 14 37
165 14 95
166 14 837
167 14 93
168 14 14
169 14 178
170 14 11
171 14 402
172 14 387
173 14 20
174 14 1
178 14 10
179 14 56
180 14 378
182 14 737
183 14 76
184 14 552
185 14 62
186 14 276
190 14 813
191 14 334
196 14 9
197 14 686
199 14 112
200 14 5
201 14 12
203 14 126
204 14 377
205 14 395
207 14 55
208 14 573
209 14 7
212 14 526
213 14 123
214 14 3
216 14 94
217 14 101
218 14 22
222 14 701
223 14 970
225 14 187
226 14 1960
227 14 4
228 14 272
229 14 327
230 14 328
231 14 2
232 14 540
235 14 994
238 14 342
239 14 444
240 14 453
241 14 557
242 14 30
243 14 289
244 14 462
246 14 574
247 14 114
249 14 15
250 14 79
255 14 114
257 14 2109
259 14 1
261 14 61
262 14 6
263 14 213
264 14 211
266 14 273
267 14 100
269 14 167
270 14 538
272 14 1643
273 14 71
277 14 21
278 14 1577
279 14 439
282 14 1180
283 14 218
284 14 171
285 14 7
286 14 883
287 14 675
290 14 17
291 14 5
292 14 4
293 14 185
295 14 6
296 14 365
298 14 30
299 14 244
301 14 32
302 14 388
303 14 411
306 14 709
307 14 183
308 14 13
309 14 733
312 14 76
313 14 457
314 14 12
315 14 4
316 14 66
319 14 1271
320 14 6
322 14 782
324 14 63
325 14 358
326 14 313
327 14 123
328 14 42
329 14 4
330 14 1575
331 14 5
332 14 506
333 14 1064
334 14 1639
339 14 1
340 14 1027
341 14 10
342 14 1372
343 14 478
346 14 113
347 14 449
348 14 768
351 14 459
352 14 88
359 14 90
360 14 110
361 14 35
362 14 1848
363 14 12
364 14 914
365 14 4
366 14 1399
367 14 516
368 14 7
370 14 70
371 14 3
373 14 11
374 14 28
376 14 25
379 14 241
380 14 554
381 14 198
384 14 5
385 14 588
386 14 218
388 14 440
389 14 953
390 14 647
392 14 71
394 14 41
395 14 121
396 14 89
397 14 13
400 14 2
401 14 475
404 14 127
405 14 158
406 14 1504
407 14 34
408 14 491
410 14 127
412 14 73
414 14 390
415 14 965
418 14 29
419 14 1
422 14 318
423 14 4
424 14 155
425 14 78
428 14 22
429 14 292
431 14 820
432 14 675
433 14 790
435 14 159
437 14 1587
440 14 1591
442 14 526
444 14 149
445 14 152
446 14 851
447 14 1686
448 14 81
449 14 3
450 14 919
451 14 42
452 14 136
453 14 305
456 14 48
458 14 376
459 14 881
460 14 321
461 14 127
462 14 60
463 14 677
464 14 33
466 14 325
470 14 71
471 14 531
473 14 1284
474 14 969
475 14 47
476 14 172
479 14 714
480 14 1261
482 14 165
483 14 446
484 14 635
485 14 5
486 14 290
489 14 1002
490 14 311
491 14 5
492 14 96
493 14 343
494 14 11
495 14 601
496 14 12
497 14 35
499 14 52
1 15 160
4 15 30
5 15 766
6 15 601
20 15 69
21 15 13
23 15 148
24 15 7
31 15 385
35 15 410
36 15 473
37 15 240
38 15 93
39 15 390
40 15 184
44 15 4
45 15 283
48 15 178
49 15 164
51 15 132
52 15 340
53 15 382
54 15 7
55 15 279
57 15 133
62 15 231
63 15 193
64 15 41
65 15 325
69 15 1
71 15 68
73 15 158
76 15 258
83 15 3
84 15 415
85 15 4
86 15 346
89 15 220
93 15 130
95 15 401
100 15 13
104 15 10
105 15 301
106 15 20
108 15 197
109 15 70
113 15 605
114 15 301
115 15 5
119 15 70
121 15 479
122 15 605
123 15 912
124 15 181
127 15 5
129 15 149
132 15 47
135 15 20
137 15 290
139 15 282
140 15 455
142 15 169
143 15 4
144 15 477
147 15 375
154 15 230
156 15 321
163 15 3
166 15 538
168 15 19
169 15 105
171 15 166
172 15 206
180 15 965
182 15 271
184 15 516
186 15 72
190 15 581
191 15 266
194 15 4
197 15 154
199 15 6
203 15 183
204 15 345
205 15 195
208 15 336
212 15 65
213 15 3
217 15 135
220 15 8
222 15 166
223 15 739
226 15 234
227 15 19
228 15 551
229 15 59
230 15 388
232 15 198
235 15 271
238 15 57
239 15 318
240 15 184
241 15 196
243 15 500
244 15 566
246 15 164
247 15 5
257 15 313
264 15 61
265 15 2
266 15 88
267 15 3
269 15 74
270 15 343
272 15 339
277 15 3
278 15 358
279 15 310
282 15 995
283 15 17
284 15 20
286 15 256
287 15 341
293 15 246
296 15 239
298 15 3
299 15 80
302 15 165
303 15 162
306 15 88
307 15 81
309 15 136
313 15 170
316 15 4
319 15 680
322 15 392
324 15 94
325 15 355
326 15 94
327 15 135
330 15 315
332 15 344
333 15 768
334 15 256
340 15 806
342 15 503
343 15 98
346 15 4
347 15 85
348 15 514
351 15 317
359 15 10
360 15 120
362 15 1045
364 15 428
366 15 164
367 15 262
369 15 5
370 15 38
379 15 15
380 15 511
385 15 119
386 15 15
388 15 178
389 15 836
390 15 92
392 15 6
395 15 9
396 15 45
401 15 589
405 15 116
406 15 242
408 15 316
410 15 45
414 15 196
415 15 735
422 15 276
423 15 6
424 15 37
425 15 74
428 15 6
429 15 1211
431 15 186
432 15 765
433 15 390
435 15 3
437 15 280
440 15 340
442 15 293
444 15 255
445 15 66
446 15 230
447 15 358
448 15 3
449 15 3
450 15 236
458 15 595
459 15 174
460 15 329
462 15 4
463 15 120
466 15 113
470 15 7
471 15 321
473 15 265
474 15 174
476 15 11
479 15 609
480 15 431
482 15 11
483 15 332
484 15 278
486 15 580
489 15 352
490 15 373
493 15 439
495 15 234
1 16 63
4 16 3
5 16 669
6 16 184
23 16 197
31 16 589
35 16 467
36 16 402
37 16 385
39 16 129
40 16 468
45 16 214
48 16 400
49 16 59
51 16 155
52 16 156
53 16 1051
55 16 241
57 16 950
62 16 197
63 16 149
65 16 344
68 16 10
71 16 51
73 16 970
76 16 85
84 16 1015
86 16 386
89 16 84
93 16 372
95 16 306
104 16 4
105 16 518
106 16 6
108 16 2
109 16 67
113 16 328
114 16 246
121 16 327
122 16 627
123 16 313
124 16 9
129 16 27
137 16 362
139 16 140
140 16 419
142 16 298
144 16 334
147 16 271
154 16 811
156 16 211
166 16 214
171 16 84
172 16 43
180 16 222
182 16 341
184 16 639
190 16 198
191 16 16
197 16 170
200 16 5
203 16 5
204 16 201
208 16 157
212 16 52
217 16 203
223 16 489
226 16 301
228 16 321
230 16 280
232 16 193
235 16 287
239 16 387
240 16 66
241 16 248
243 16 264
244 16 407
246 16 408
257 16 303
262 16 2
269 16 8
270 16 456
272 16 353
278 16 376
279 16 57
282 16 404
283 16 6
286 16 202
287 16 153
291 16 2
293 16 205
296 16 194
299 16 32
302 16 66
313 16 45
319 16 448
322 16 1015
325 16 155
327 16 178
330 16 332
331 16 4
332 16 421
333 16 1338
334 16 569
340 16 315
342 16 295
343 16 208
348 16 189
351 16 64
360 16 195
362 16 227
364 16 206
366 16 257
367 16 133
370 16 7
379 16 3
380 16 376
385 16 53
386 16 6
389 16 326
401 16 156
405 16 85
406 16 356
408 16 763
410 16 48
414 16 57
415 16 283
422 16 23
424 16 6
425 16 100
429 16 217
431 16 994
432 16 697
433 16 546
437 16 1158
440 16 559
442 16 710
444 16 138
446 16 284
447 16 631
450 16 227
452 16 52
456 16 2
458 16 188
459 16 314
460 16 167
466 16 114
471 16 150
473 16 34
474 16 19
479 16 629
480 16 372
483 16 423
484 16 320
486 16 331
489 16 302
490 16 215
493 16 274
495 16 80
1 17 1620
2 17 127
3 17 190
4 17 658
5 17 1388
6 17 1570
7 17 15
8 17 85
9 17 602
10 17 788
11 17 66
12 17 295
13 17 792
14 17 598
15 17 368
16 17 509
17 17 1812
18 17 714
19 17 1097
20 17 922
21 17 870
22 17 537
23 17 1010
24 17 30
25 17 1898
26 17 1220
27 17 298
28 17 599
29 17 95
30 17 879
31 17 1721
32 17 784
33 17 756
34 17 1041
35 17 1118
36 17 1442
37 17 2717
38 17 850
39 17 1823
40 17 1661
41 17 669
42 17 1229
43 17 1091
44 17 306
45 17 1351
46 17 189
47 17 505
48 17 903
49 17 1229
50 17 1389
51 17 468
52 17 1480
53 17 2015
54 17 102
55 17 716
56 17 1174
57 17 2196
58 17 718
59 17 479
60 17 79
61 17 56
62 17 2329
63 17 492
64 17 1446
65 17 753
66 17 21
67 17 953
68 17 163
69 17 28
70 17 398
71 17 685
72 17 619
73 17 2186
74 17 220
75 17 579
76 17 1254
77 17 810
78 17 94
79 17 1309
80 17 42
81 17 71
82 17 55
83 17 1223
84 17 772
85 17 1490
86 17 898
87 17 79
88 17 950
89 17 1447
90 17 412
91 17 719
92 17 914
93 17 1845
94 17 1830
95 17 1240
96 17 767
97 17 1033
98 17 817
99 17 414
100 17 1938
101 17 162
102 17 459
103 17 81
104 17 1016
105 17 2064
106 17 695
107 17 671
108 17 571
109 17 695
110 17 399
111 17 307
112 17 758
113 17 1347
114 17 530
115 17 1574
116 17 875
117 17 916
118 17 758
119 17 724
120 17 506
121 17 850
122 17 784
123 17 342
124 17 1885
125 17 539
126 17 82
127 17 1516
128 17 25
129 17 1429
130 17 584
131 17 16
132 17 802
133 17 50
134 17 1547
135 17 932
136 17 736
137 17 1158
138 17 855
139 17 1252
140 17 1531
141 17 63
142 17 807
143 17 1132
144 17 811
145 17 756
146 17 906
147 17 877
148 17 141
149 17 380
150 17 254
151 17 604
152 17 694
153 17 436
154 17 2204
155 17 106
156 17 2065
157 17 682
158 17 689
159 17 1344
160 17 106
161 17 1528
162 17 70
163 17 1096
164 17 1378
165 17 266
166 17 1164
167 17 771
168 17 1773
169 17 1422
170 17 1239
171 17 2241
172 17 1919
173 17 304
174 17 600
175 17 66
176 17 1411
177 17 1588
178 17 1449
179 17 677
180 17 654
181 17 1120
182 17 1258
183 17 294
184 17 1245
185 17 1074
186 17 1730
187 17 294
188 17 41
189 17 1081
190 17 1606
191 17 1603
192 17 910
193 17 97
194 17 36
195 17 456
196 17 684
197 17 1615
198 17 57
199 17 829
200 17 163
201 17 776
202 17 102
203 17 1007
204 17 920
205 17 1782
206 17 110
207 17 669
208 17 989
209 17 550
210 17 305
211 17 401
212 17 703
213 17 797
214 17 427
215 17 48
216 17 816
217 17 1468
218 17 1620
219 17 902
220 17 21
221 17 377
222 17 749
223 17 722
224 17 41
225 17 1441
226 17 889
227 17 854
228 17 944
229 17 834
230 17 434
231 17 643
232 17 564
233 17 649
234 17 66
235 17 1939
236 17 85
237 17 494
238 17 825
239 17 860
240 17 1278
241 17 473
242 17 284
243 17 421
244 17 1215
245 17 367
246 17 1116
247 17 2522
248 17 326
249 17 786
250 17 624
251 17 799
252 17 111
253 17 717
254 17 402
255 17 789
256 17 1400
257 17 2039
258 17 127
259 17 928
260 17 166
261 17 415
262 17 167
263 17 1379
264 17 1351
265 17 28
266 17 1928
267 17 1031
268 17 942
269 17 1754
270 17 2891
271 17 67
272 17 1009
274 17 49
275 17 654
276 17 96
277 17 1196
278 17 1634
279 17 1939
280 17 388
281 17 725
282 17 2332
283 17 1054
284 17 860
285 17 839
286 17 622
287 17 1138
288 17 451
289 17 52
290 17 251
291 17 501
292 17 810
293 17 814
294 17 451
295 17 1326
296 17 523
297 17 730
298 17 996
299 17 1153
300 17 502
301 17 287
302 17 2417
303 17 582
304 17 72
305 17 75
306 17 1290
307 17 950
308 17 209
309 17 2003
310 17 67
311 17 533
312 17 698
313 17 1321
314 17 29
315 17 825
316 17 1537
317 17 999
318 17 90
319 17 1377
320 17 283
321 17 651
322 17 511
323 17 1670
324 17 351
325 17 1249
326 17 1472
327 17 969
328 17 1335
329 17 233
330 17 1018
331 17 159
332 17 1972
333 17 481
334 17 871
335 17 183
336 17 814
337 17 71
338 17 836
339 17 841
340 17 829
341 17 305
342 17 746
343 17 1744
344 17 18
345 17 838
346 17 959
347 17 827
348 17 1855
349 17 72
350 17 221
351 17 1117
352 17 1116
353 17 971
354 17 447
355 17 463
356 17 922
357 17 886
358 17 829
359 17 951
360 17 1541
361 17 1136
362 17 570
363 17 239
364 17 1294
365 17 1639
366 17 1844
367 17 1428
368 17 1248
369 17 45
370 17 650
371 17 1287
372 17 683
373 17 776
374 17 1387
375 17 83
376 17 735
377 17 281
378 17 541
379 17 992
380 17 1988
381 17 1493
382 17 1641
383 17 1038
384 17 873
385 17 1682
386 17 1060
387 17 62
388 17 667
389 17 788
390 17 1238
391 17 1710
392 17 840
393 17 394
394 17 1199
395 17 935
396 17 534
397 17 1039
398 17 750
399 17 644
400 17 736
401 17 1793
402 17 165
403 17 721
404 17 796
405 17 919
406 17 1866
407 17 771
408 17 1500
409 17 79
410 17 1051
411 17 618
412 17 600
413 17 953
414 17 2440
415 17 765
416 17 720
417 17 81
418 17 1156
419 17 1253
420 17 812
421 17 94
422 17 1650
423 17 468
424 17 731
425 17 1495
426 17 415
427 17 604
428 17 555
429 17 1013
430 17 65
431 17 1766
432 17 1237
433 17 1033
434 17 653
435 17 982
436 17 684
437 17 1590
438 17 892
439 17 77
440 17 761
441 17 70
442 17 864
443 17 148
444 17 943
445 17 1289
446 17 1249
447 17 793
448 17 1488
449 17 447
450 17 1007
451 17 761
452 17 1202
453 17 591
454 17 77
455 17 763
456 17 196
457 17 14
458 17 937
459 17 903
460 17 1225
461 17 817
462 17 864
463 17 2078
464 17 439
465 17 468
466 17 1942
467 17 63
468 17 161
469 17 35
470 17 1470
471 17 1181
472 17 812
473 17 1459
474 17 542
475 17 1296
476 17 1107
477 17 92
478 17 95
479 17 1363
480 17 1262
481 17 828
482 17 979
483 17 889
484 17 3168
485 17 523
486 17 934
487 17 63
488 17 74
489 17 1701
490 17 1275
491 17 701
492 17 1018
493 17 1245
494 17 229
495 17 1271
496 17 1803
497 17 1243
498 17 1116
499 17 1134
500 17 406
1 18 2131
2 18 1768
3 18 2610
4 18 4336
5 18 2198
6 18 2095
7 18 1364
8 18 2465
9 18 1856
10 18 1574
11 18 1138
12 18 1008
13 18 1433
14 18 1130
15 18 1848
16 18 843
17 18 1715
18 18 1253
19 18 610
20 18 2525
21 18 994
22 18 1570
23 18 2755
24 18 1506
25 18 2426
26 18 1649
27 18 1135
28 18 2294
29 18 2520
30 18 1196
31 18 2184
32 18 888
33 18 1118
34 18 1909
35 18 3620
36 18 977
37 18 4029
38 18 1988
39 18 3459
40 18 5252
41 18 2575
42 18 1852
43 18 603
44 18 649
45 18 2694
46 18 896
47 18 1863
48 18 1436
49 18 3017
50 18 2850
51 18 2752
52 18 2885
53 18 2279
54 18 2350
55 18 2165
56 18 2004
57 18 2092
58 18 2384
59 18 1822
60 18 1781
61 18 1283
62 18 2395
63 18 1739
64 18 4371
65 18 1526
66 18 1633
67 18 727
68 18 2300
69 18 1491
70 18 1293
71 18 1119
72 18 1145
73 18 2145
74 18 2424
75 18 2301
76 18 1949
77 18 2022
78 18 1644
79 18 1827
80 18 741
81 18 1733
82 18 1230
83 18 1931
84 18 3024
85 18 2145
86 18 2806
87 18 2905
88 18 1675
89 18 2206
90 18 2632
91 18 2189
92 18 1882
93 18 3609
94 18 1419
95 18 2707
96 18 1314
97 18 522
98 18 2025
99 18 980
100 18 1768
101 18 2209
102 18 1360
103 18 899
104 18 2387
105 18 1593
106 18 2008
107 18 1086
108 18 3820
109 18 1059
110 18 860
111 18 1158
112 18 1018
113 18 1837
114 18 3327
115 18 2097
116 18 1318
117 18 987
118 18 1495
119 18 2754
120 18 1295
121 18 3800
122 18 2243
123 18 4850
124 18 3073
125 18 2290
126 18 1517
127 18 2143
128 18 999
129 18 2332
130 18 1602
131 18 1434
132 18 1886
133 18 1665
134 18 1768
135 18 2229
136 18 1038
137 18 3823
138 18 1685
139 18 1684
140 18 951
141 18 1660
142 18 2090
143 18 2186
144 18 3987
145 18 838
146 18 1186
147 18 1753
148 18 878
149 18 2652
150 18 2497
151 18 2268
152 18 803
153 18 948
154 18 2146
155 18 1191
156 18 2517
157 18 823
158 18 1124
159 18 1874
160 18 1227
161 18 1984
162 18 1226
163 18 1754
164 18 2893
165 18 964
166 18 2818
167 18 2197
168 18 1386
169 18 2293
170 18 912
171 18 2351
172 18 2565
173 18 1230
174 18 861
175 18 924
176 18 2138
177 18 1640
178 18 1339
179 18 2590
180 18 2361
181 18 2219
182 18 3743
183 18 974
184 18 4382
185 18 1459
186 18 2597
187 18 3114
188 18 1960
189 18 2138
190 18 2056
191 18 1755
192 18 2058
193 18 1151
194 18 1590
195 18 2110
196 18 1138
197 18 3000
198 18 1761
199 18 2102
200 18 2330
201 18 806
202 18 2501
203 18 2359
204 18 1365
205 18 2440
206 18 1105
207 18 2638
208 18 1381
209 18 1068
210 18 1221
211 18 2652
212 18 1042
213 18 1974
214 18 1491
215 18 1975
216 18 1542
217 18 1865
218 18 2641
219 18 1441
220 18 1542
221 18 1368
222 18 2436
223 18 1300
224 18 818
225 18 2412
226 18 2290
227 18 1065
228 18 3098
229 18 2778
230 18 2707
231 18 998
232 18 2165
233 18 883
234 18 1661
235 18 2787
236 18 2791
237 18 2077
238 18 2733
239 18 2831
240 18 3041
241 18 2168
242 18 1439
243 18 3667
244 18 1777
245 18 1353
246 18 2069
247 18 2416
248 18 1214
249 18 1967
250 18 2179
251 18 1708
252 18 1180
253 18 935
254 18 2081
255 18 2430
256 18 2260
257 18 3014
258 18 1498
259 18 2454
260 18 2669
261 18 2589
262 18 2202
263 18 2472
264 18 2284
265 18 1514
266 18 2062
267 18 1867
268 18 2117
269 18 3218
270 18 1510
271 18 2463
272 18 3034
273 18 2105
274 18 1712
275 18 2734
276 18 1214
277 18 1415
278 18 1007
279 18 2665
280 18 1015
281 18 1546
282 18 1539
283 18 2403
284 18 2464
285 18 1366
286 18 1990
287 18 1625
288 18 2423
289 18 1824
290 18 1719
291 18 988
292 18 968
293 18 2860
294 18 2271
295 18 1826
296 18 3182
297 18 1165
298 18 1704
299 18 2386
300 18 2462
301 18 1510
302 18 4929
303 18 2991
304 18 2977
305 18 1739
306 18 3656
307 18 2494
308 18 2644
309 18 1931
310 18 1314
311 18 1337
312 18 3013
313 18 3008
314 18 980
315 18 800
316 18 2143
317 18 1255
318 18 1112
319 18 2363
320 18 2668
321 18 858
322 18 2948
323 18 1654
324 18 1317
325 18 1939
326 18 2100
327 18 2686
328 18 2990
329 18 2655
330 18 3140
331 18 2392
332 18 2842
333 18 1443
334 18 2394
335 18 1800
336 18 1238
337 18 1737
338 18 1253
339 18 1260
340 18 3782
341 18 1218
342 18 1757
343 18 3330
344 18 1466
345 18 1219
346 18 2701
347 18 2038
348 18 4650
349 18 2869
350 18 1373
351 18 1534
352 18 1456
353 18 1218
354 18 2327
355 18 1318
356 18 2108
357 18 2126
358 18 1945
359 18 1785
360 18 1918
361 18 2394
362 18 2147
363 18 1652
364 18 2227
365 18 944
366 18 2212
367 18 2343
368 18 1301
369 18 1542
370 18 4311
371 18 2429
372 18 2375
373 18 2076
374 18 2056
375 18 1757
376 18 2176
377 18 3239
378 18 1404
379 18 2451
380 18 3625
381 18 1891
382 18 2324
383 18 1761
384 18 981
385 18 2171
386 18 2398
387 18 1067
388 18 3073
389 18 3742
390 18 3609
391 18 2364
392 18 1051
393 18 2605
394 18 2907
395 18 2161
396 18 2179
397 18 1793
398 18 1601
399 18 1291
400 18 954
401 18 3309
402 18 1013
403 18 790
404 18 2392
405 18 1334
406 18 2032
407 18 1606
408 18 2310
409 18 1784
410 18 2003
411 18 1214
412 18 2164
413 18 741
414 18 5068
415 18 3906
416 18 1580
417 18 1819
418 18 1642
419 18 1829
420 18 1971
421 18 1627
422 18 1827
423 18 778
424 18 2829
425 18 2205
426 18 1347
427 18 1577
428 18 1065
429 18 2710
430 18 2619
431 18 2302
432 18 2818
433 18 2756
434 18 1178
435 18 2509
436 18 1117
437 18 2437
438 18 719
439 18 1812
440 18 2267
441 18 1261
442 18 1417
443 18 1887
444 18 2475
445 18 861
446 18 1305
447 18 2351
448 18 2345
449 18 813
450 18 3697
451 18 1796
452 18 1750
453 18 741
454 18 925
455 18 1051
456 18 1076
457 18 1653
458 18 2224
459 18 2522
460 18 1879
461 18 2362
462 18 1060
463 18 1967
464 18 2267
465 18 1472
466 18 3285
467 18 2498
468 18 943
469 18 1925
470 18 2404
471 18 2504
472 18 906
473 18 2553
474 18 1363
475 18 2437
476 18 1640
477 18 2541
478 18 1113
479 18 2126
480 18 1024
481 18 2001
482 18 2591
483 18 2820
484 18 2857
485 18 1968
486 18 3277
487 18 1458
488 18 2808
489 18 2823
490 18 2635
491 18 1147
492 18 1485
493 18 2752
494 18 1704
495 18 1648
496 18 2233
497 18 2032
498 18 2649
499 18 2402
500 18 1269
1 19 1667
3 19 4
4 19 495
5 19 2085
6 19 1629
10 19 10
20 19 139
23 19 2202
26 19 90
31 19 1694
33 19 8
34 19 44
35 19 3286
36 19 2798
37 19 1259
39 19 2452
40 19 1830
45 19 2450
48 19 1625
49 19 728
51 19 904
52 19 1061
53 19 2127
54 19 10
55 19 1657
57 19 2599
62 19 2729
63 19 2992
64 19 7
65 19 1773
71 19 556
73 19 2572
76 19 3122
83 19 3
84 19 2339
86 19 969
89 19 1514
93 19 2492
95 19 634
100 19 3
105 19 1429
108 19 724
109 19 550
113 19 2678
114 19 1847
119 19 54
121 19 1247
122 19 1353
123 19 1718
124 19 260
129 19 718
132 19 381
137 19 2630
139 19 1711
140 19 2755
142 19 1797
144 19 1220
145 19 6
147 19 2257
150 19 39
154 19 2719
156 19 1969
158 19 7
166 19 1169
168 19 102
169 19 722
171 19 1129
172 19 870
180 19 1290
182 19 2781
184 19 3531
186 19 69
190 19 1550
191 19 374
196 19 11
197 19 1424
201 19 4
203 19 350
204 19 2464
205 19 2159
208 19 1658
209 19 9
212 19 531
217 19 968
222 19 477
223 19 1703
226 19 1820
228 19 1121
230 19 993
232 19 1807
235 19 3058
239 19 992
240 19 786
241 19 1650
243 19 1488
244 19 2632
246 19 1388
249 19 7
257 19 2205
269 19 39
270 19 1525
272 19 1328
278 19 864
279 19 638
282 19 1270
286 19 760
287 19 2739
291 19 32
293 19 1138
296 19 2938
299 19 290
302 19 3183
303 19 475
306 19 296
307 19 167
308 19 4
309 19 407
313 19 752
315 19 5
319 19 1249
322 19 2597
325 19 1227
326 19 20
327 19 1824
330 19 1362
332 19 2574
333 19 1168
334 19 2538
340 19 1199
342 19 1921
343 19 1358
348 19 1845
351 19 632
360 19 970
362 19 1439
364 19 1722
366 19 1813
367 19 1012
370 19 498
373 19 3
380 19 2191
385 19 808
388 19 505
389 19 1260
390 19 305
392 19 52
401 19 2278
405 19 2510
406 19 709
408 19 878
410 19 1040
414 19 3184
415 19 1245
422 19 396
424 19 126
425 19 909
429 19 2246
431 19 2270
432 19 891
433 19 1294
435 19 10
437 19 1788
440 19 1341
442 19 2092
444 19 1520
445 19 114
446 19 1095
447 19 1371
450 19 2534
452 19 2139
456 19 196
458 19 1215
459 19 1961
460 19 1227
462 19 54
463 19 433
466 19 2566
471 19 2537
473 19 470
474 19 1872
479 19 2156
480 19 2163
482 19 7
483 19 1026
484 19 936
486 19 1204
489 19 1631
490 19 1990
491 19 6
493 19 902
495 19 1869
1 20 7
2 20 1250
3 20 1360
4 20 94
6 20 3
7 20 840
8 20 1394
9 20 1883
10 20 736
11 20 1690
12 20 1890
13 20 913
14 20 927
15 20 1394
16 20 470
17 20 1515
18 20 1859
19 20 1883
20 20 332
21 20 1125
22 20 1644
24 20 1449
25 20 1256
26 20 729
27 20 842
28 20 1222
29 20 1307
30 20 1642
32 20 975
33 20 752
34 20 803
35 20 2
38 20 2701
40 20 8
41 20 872
42 20 1240
43 20 1908
44 20 711
46 20 560
47 20 1067
49 20 4
50 20 1090
51 20 39
52 20 2
54 20 1046
55 20 7
56 20 1390
58 20 1244
59 20 992
60 20 1780
61 20 1292
64 20 822
66 20 1507
67 20 763
68 20 1310
69 20 1401
70 20 850
71 20 155
72 20 583
74 20 1453
75 20 1248
76 20 18
77 20 1085
78 20 899
79 20 1340
80 20 944
81 20 2380
82 20 594
83 20 904
85 20 1482
87 20 1454
88 20 1613
89 20 9
90 20 1413
91 20 2767
92 20 1147
93 20 18
94 20 2434
96 20 822
97 20 1280
98 20 884
99 20 1291
100 20 676
101 20 1550
102 20 1097
103 20 1263
104 20 368
105 20 10
106 20 936
107 20 582
108 20 88
109 20 140
110 20 1462
111 20 1089
112 20 628
115 20 1478
116 20 1343
117 20 1132
118 20 599
119 20 445
120 20 1434
124 20 330
125 20 580
126 20 1137
127 20 1545
128 20 1226
129 20 52
130 20 1577
131 20 783
132 20 154
133 20 390
134 20 1245
135 20 914
136 20 849
138 20 1373
141 20 1487
143 20 1573
145 20 932
146 20 849
148 20 1113
149 20 2079
150 20 157
151 20 1029
152 20 545
153 20 634
155 20 1295
156 20 5
157 20 516
158 20 743
159 20 1154
160 20 1327
161 20 2683
162 20 1655
163 20 1609
164 20 1073
165 20 1938
167 20 1498
168 20 770
169 20 50
170 20 1562
171 20 27
172 20 25
173 20 1241
174 20 870
175 20 1285
176 20 2529
177 20 887
178 20 746
179 20 978
181 20 1208
183 20 1905
185 20 1481
186 20 84
187 20 1153
188 20 985
189 20 1187
190 20 6
191 20 196
192 20 1196
193 20 1759
194 20 1408
195 20 1814
196 20 749
197 20 17
198 20 1710
199 20 1706
200 20 1289
201 20 919
202 20 1327
203 20 215
204 20 5
205 20 36
206 20 2049
207 20 857
209 20 398
210 20 1097
211 20 1993
212 20 158
213 20 1697
214 20 2115
215 20 1029
216 20 2758
217 20 2
218 20 1853
219 20 950
220 20 1418
221 20 1278
222 20 95
224 20 969
225 20 1303
227 20 1111
228 20 6
229 20 433
231 20 543
233 20 584
234 20 1525
235 20 5
236 20 1487
237 20 885
238 20 459
240 20 7
242 20 1568
245 20 1577
246 20 8
247 20 805
248 20 1019
249 20 1095
250 20 1747
251 20 1982
252 20 2097
253 20 1633
254 20 1788
255 20 1541
256 20 2502
258 20 1513
259 20 1275
260 20 2598
261 20 1380
262 20 1210
263 20 1383
264 20 1622
265 20 1458
266 20 649
267 20 2496
268 20 1511
269 20 848
271 20 1927
273 20 1392
274 20 1549
275 20 1257
276 20 1659
277 20 659
278 20 6
279 20 67
280 20 1323
281 20 1454
283 20 355
284 20 2197
285 20 1298
288 20 1282
289 20 987
290 20 1371
291 20 178
292 20 1066
294 20 1173
295 20 2215
297 20 845
298 20 1762
299 20 458
300 20 1221
301 20 1554
303 20 214
304 20 1492
305 20 1760
306 20 183
307 20 314
308 20 1438
309 20 136
310 20 836
311 20 1352
312 20 1671
313 20 4
314 20 1151
315 20 948
316 20 1514
317 20 963
318 20 2049
320 20 1893
321 20 3043
322 20 20
323 20 917
324 20 855
326 20 815
327 20 10
328 20 1129
329 20 2001
331 20 1241
335 20 624
336 20 904
337 20 2290
338 20 865
339 20 847
341 20 1197
343 20 3
344 20 846
345 20 910
346 20 1922
347 20 2680
349 20 1534
350 20 2605
351 20 122
352 20 1508
353 20 535
354 20 1244
355 20 918
356 20 1431
357 20 1201
358 20 784
359 20 2578
360 20 7
361 20 925
363 20 1490
365 20 1441
367 20 7
368 20 1010
369 20 1453
370 20 98
371 20 982
372 20 1257
373 20 1058
374 20 2723
375 20 1693
376 20 2806
377 20 1165
378 20 2842
379 20 368
381 20 2539
382 20 730
383 20 1392
384 20 1126
385 20 32
386 20 341
387 20 976
388 20 259
390 20 161
391 20 752
392 20 184
393 20 2140
394 20 845
395 20 950
396 20 520
397 20 789
398 20 1288
399 20 2040
400 20 1001
402 20 682
403 20 929
404 20 1510
405 20 69
407 20 573
409 20 1677
410 20 76
411 20 661
412 20 1671
413 20 775
416 20 1313
417 20 1625
418 20 929
419 20 2135
420 20 864
421 20 853
422 20 194
423 20 1156
424 20 313
425 20 27
426 20 1528
427 20 1520
428 20 620
429 20 23
430 20 1947
433 20 8
434 20 671
435 20 258
436 20 589
438 20 847
439 20 1712
441 20 825
443 20 635
444 20 21
445 20 452
448 20 2166
449 20 1064
450 20 8
451 20 1378
452 20 38
453 20 2358
454 20 1255
455 20 653
456 20 122
457 20 1512
461 20 1530
462 20 191
463 20 165
464 20 1314
465 20 1014
466 20 8
467 20 688
468 20 686
469 20 945
470 20 2172
471 20 32
472 20 1029
473 20 140
474 20 48
475 20 421
476 20 2088
477 20 1327
478 20 2185
481 20 781
482 20 244
484 20 3
485 20 450
486 20 6
487 20 2012
488 20 1556
491 20 718
492 20 1050
494 20 1442
495 20 9
496 20 1263
497 20 1409
498 20 1789
499 20 981
500 20 1667
1 21 57
2 21 376
3 21 869
4 21 448
6 21 10
7 21 1088
8 21 534
9 21 722
10 21 252
11 21 737
12 21 615
13 21 575
14 21 540
15 21 395
16 21 589
17 21 1010
18 21 1111
19 21 825
20 21 1159
21 21 678
22 21 357
23 21 4
24 21 408
25 21 232
26 21 297
27 21 344
28 21 861
29 21 518
30 21 332
32 21 1198
33 21 737
34 21 409
37 21 20
38 21 908
39 21 48
40 21 14
41 21 1675
42 21 650
43 21 892
44 21 593
46 21 73
47 21 717
49 21 271
50 21 569
51 21 14
52 21 42
54 21 554
55 21 2
56 21 706
58 21 230
59 21 730
60 21 1480
61 21 1162
63 21 133
64 21 737
65 21 9
66 21 450
67 21 420
68 21 894
69 21 401
70 21 548
71 21 292
72 21 673
74 21 472
75 21 795
76 21 16
77 21 372
78 21 360
79 21 638
80 21 580
81 21 414
82 21 504
83 21 591
85 21 710
86 21 14
87 21 269
88 21 1023
89 21 18
90 21 1094
91 21 1699
92 21 488
93 21 6
94 21 545
96 21 376
97 21 1397
98 21 749
99 21 726
100 21 589
101 21 963
102 21 203
103 21 955
104 21 910
105 21 6
106 21 1052
107 21 613
108 21 235
109 21 279
110 21 568
111 21 658
112 21 666
114 21 45
115 21 671
116 21 449
117 21 870
118 21 892
119 21 963
120 21 635
122 21 4
123 21 3
124 21 321
125 21 187
126 21 916
127 21 658
128 21 373
129 21 35
130 21 383
131 21 1055
132 21 1247
133 21 899
134 21 1038
135 21 410
136 21 432
137 21 9
138 21 415
139 21 5
141 21 197
142 21 6
143 21 670
145 21 1024
146 21 357
148 21 803
149 21 267
150 21 637
151 21 708
152 21 440
153 21 916
155 21 1240
156 21 19
157 21 432
158 21 692
159 21 1228
160 21 1277
161 21 972
162 21 714
163 21 661
164 21 566
165 21 579
166 21 44
167 21 542
168 21 730
169 21 159
170 21 857
171 21 111
172 21 157
173 21 806
174 21 455
175 21 835
176 21 1024
177 21 1713
178 21 342
179 21 1649
180 21 5
181 21 277
182 21 4
183 21 535
184 21 19
185 21 570
186 21 372
187 21 1783
188 21 966
189 21 247
190 21 3
191 21 198
192 21 180
193 21 772
194 21 443
195 21 592
196 21 689
198 21 1597
199 21 506
200 21 914
201 21 1003
202 21 522
203 21 628
204 21 6
205 21 97
206 21 622
207 21 1724
209 21 336
210 21 900
211 21 274
212 21 282
213 21 466
214 21 892
215 21 976
216 21 688
217 21 22
218 21 526
219 21 526
220 21 441
221 21 672
222 21 467
223 21 8
224 21 614
225 21 424
226 21 10
227 21 670
229 21 454
231 21 562
233 21 445
234 21 195
236 21 288
237 21 363
238 21 424
239 21 17
240 21 264
241 21 2
242 21 831
245 21 827
246 21 27
247 21 1767
248 21 963
249 21 1597
250 21 657
251 21 1071
252 21 679
253 21 676
254 21 644
255 21 284
256 21 996
257 21 5
258 21 462
259 21 522
260 21 2268
261 21 1169
262 21 974
263 21 444
264 21 859
265 21 444
266 21 1321
267 21 455
268 21 811
269 21 243
270 21 7
271 21 760
273 21 156
274 21 153
275 21 770
276 21 717
277 21 708
278 21 5
279 21 9
280 21 712
281 21 970
283 21 955
284 21 924
285 21 433
287 21 41
288 21 815
289 21 937
290 21 308
291 21 377
292 21 713
294 21 718
295 21 980
297 21 457
298 21 522
299 21 342
300 21 767
301 21 788
302 21 45
303 21 472
304 21 280
305 21 1550
306 21 513
307 21 1105
308 21 880
309 21 126
310 21 938
311 21 728
312 21 1220
313 21 276
314 21 389
315 21 1050
316 21 701
317 21 657
318 21 612
319 21 9
320 21 780
321 21 1505
322 21 9
323 21 1768
324 21 1622
325 21 18
326 21 1415
327 21 19
328 21 576
329 21 739
331 21 893
335 21 347
336 21 182
337 21 413
338 21 159
339 21 364
341 21 792
343 21 36
344 21 1083
345 21 166
346 21 671
347 21 876
348 21 10
349 21 259
350 21 527
351 21 192
352 21 536
353 21 468
354 21 691
355 21 512
356 21 845
357 21 207
358 21 737
359 21 469
360 21 13
361 21 274
363 21 336
364 21 6
365 21 529
366 21 49
367 21 128
368 21 594
369 21 454
370 21 525
371 21 478
372 21 217
373 21 1622
374 21 1149
375 21 1473
376 21 1675
377 21 1720
378 21 530
379 21 939
380 21 4
381 21 1056
382 21 556
383 21 1193
384 21 704
385 21 373
386 21 940
387 21 1006
388 21 488
390 21 531
391 21 537
392 21 620
393 21 279
394 21 187
395 21 348
396 21 310
397 21 549
398 21 356
399 21 565
400 21 1183
401 21 91
402 21 424
403 21 621
404 21 314
405 21 65
406 21 3
407 21 918
409 21 936
410 21 173
411 21 650
412 21 701
413 21 385
414 21 38
416 21 321
417 21 915
418 21 799
419 21 430
420 21 759
421 21 544
422 21 174
423 21 630
424 21 939
425 21 193
426 21 760
427 21 385
428 21 476
429 21 16
430 21 747
431 21 7
432 21 5
433 21 22
434 21 691
435 21 588
436 21 631
437 21 3
438 21 469
439 21 1568
441 21 1047
442 21 5
443 21 347
444 21 50
445 21 802
446 21 47
448 21 2041
449 21 591
450 21 12
451 21 520
452 21 129
453 21 287
454 21 876
455 21 633
456 21 731
457 21 447
458 21 10
460 21 19
461 21 324
462 21 679
463 21 140
464 21 679
465 21 122
466 21 19
467 21 537
468 21 405
469 21 986
470 21 2076
471 21 20
472 21 463
473 21 371
474 21 166
475 21 868
476 21 756
477 21 542
478 21 642
479 21 4
481 21 781
482 21 562
483 21 14
484 21 6
485 21 650
487 21 899
488 21 274
489 21 67
491 21 721
492 21 935
494 21 317
495 21 7
496 21 242
497 21 896
498 21 921
499 21 272
500 21 810
1 22 1517
3 22 1518
4 22 1485
5 22 391
6 22 926
7 22 1147
8 22 1028
9 22 730
11 22 709
12 22 319
15 22 164
17 22 1106
18 22 62
20 22 2498
23 22 1455
24 22 243
25 22 583
28 22 2697
29 22 1042
31 22 755
32 22 89
33 22 3
35 22 917
36 22 1314
37 22 636
38 22 404
39 22 933
40 22 1032
41 22 823
42 22 717
45 22 1036
47 22 1191
48 22 1020
49 22 417
50 22 1442
51 22 1470
52 22 1361
53 22 1542
54 22 216
55 22 1291
56 22 741
57 22 1128
59 22 1114
60 22 1511
62 22 667
63 22 1415
64 22 1364
65 22 953
68 22 959
69 22 272
70 22 144
71 22 1047
73 22 1195
74 22 540
75 22 2725
76 22 546
77 22 12
78 22 908
79 22 748
80 22 51
81 22 1638
84 22 1100
85 22 1498
86 22 598
87 22 888
88 22 420
89 22 1167
90 22 1686
91 22 852
92 22 1018
93 22 997
94 22 1247
95 22 1405
96 22 800
97 22 367
98 22 1772
100 22 749
101 22 841
102 22 5
103 22 378
104 22 1113
105 22 1688
106 22 729
107 22 576
108 22 1533
109 22 1069
113 22 1164
114 22 1028
115 22 1371
116 22 722
118 22 1549
119 22 722
120 22 1543
121 22 1752
122 22 670
123 22 1656
124 22 1711
127 22 1353
129 22 1607
131 22 1164
132 22 678
134 22 1218
135 22 248
137 22 510
139 22 1112
140 22 1391
141 22 602
142 22 1515
143 22 1112
144 22 1954
147 22 1021
148 22 573
149 22 666
151 22 1200
154 22 634
155 22 543
156 22 282
158 22 4
160 22 512
161 22 478
162 22 714
163 22 876
164 22 1433
165 22 329
166 22 1982
167 22 179
168 22 551
169 22 1038
170 22 1017
171 22 1026
172 22 1440
175 22 401
178 22 755
179 22 808
180 22 1345
181 22 525
182 22 510
183 22 332
184 22 1691
185 22 1116
186 22 929
187 22 926
188 22 629
189 22 567
190 22 872
191 22 1860
193 22 692
194 22 298
195 22 744
196 22 3
197 22 1496
198 22 1477
199 22 1644
200 22 1039
202 22 1066
203 22 654
204 22 1280
205 22 1517
206 22 1440
207 22 789
208 22 740
209 22 7
211 22 690
212 22 1091
213 22 1601
214 22 792
215 22 709
216 22 1832
217 22 1533
218 22 1347
219 22 1760
220 22 265
222 22 1092
223 22 1495
224 22 56
225 22 1171
226 22 1216
228 22 671
229 22 1986
230 22 718
232 22 502
234 22 610
235 22 1461
236 22 920
238 22 2014
239 22 649
240 22 412
241 22 613
242 22 1575
243 22 526
244 22 1592
246 22 1003
247 22 1367
249 22 1484
250 22 1308
251 22 4
252 22 1446
254 22 813
255 22 1141
257 22 1006
258 22 1119
259 22 44
260 22 1032
261 22 1604
262 22 1005
263 22 1240
264 22 1130
265 22 265
266 22 1276
267 22 1300
269 22 1295
270 22 1165
271 22 742
272 22 1146
274 22 636
276 22 714
277 22 1311
278 22 762
279 22 1893
281 22 98
282 22 2794
283 22 1072
284 22 1943
285 22 733
286 22 628
287 22 395
288 22 438
289 22 661
290 22 906
292 22 10
293 22 1134
295 22 482
296 22 624
298 22 608
299 22 2181
300 22 455
301 22 1607
302 22 774
303 22 1311
304 22 852
305 22 1461
306 22 776
307 22 2583
308 22 1552
309 22 1336
311 22 1560
312 22 813
313 22 401
316 22 1394
318 22 1423
319 22 1985
320 22 379
321 22 738
322 22 713
324 22 885
325 22 643
326 22 1072
327 22 2966
328 22 1440
329 22 400
330 22 1130
331 22 996
332 22 1230
333 22 1547
334 22 1085
336 22 5
337 22 1528
338 22 6
340 22 1972
342 22 2064
343 22 2645
344 22 1186
345 22 5
346 22 983
347 22 419
348 22 543
349 22 904
350 22 1069
351 22 429
352 22 1149
355 22 139
358 22 1754
359 22 1281
360 22 1555
361 22 1001
362 22 834
363 22 957
364 22 1647
365 22 1138
366 22 1416
367 22 1962
369 22 306
370 22 1484
371 22 880
373 22 1550
374 22 1365
375 22 1552
376 22 824
377 22 881
378 22 461
379 22 1114
380 22 1097
381 22 537
382 22 1335
383 22 6
384 22 9
385 22 741
386 22 1198
387 22 247
388 22 1329
389 22 1853
390 22 804
391 22 1396
393 22 667
394 22 992
395 22 289
396 22 714
397 22 471
400 22 100
401 22 1037
404 22 1143
405 22 1547
406 22 1184
407 22 1558
408 22 3169
410 22 851
412 22 1263
414 22 745
415 22 1823
418 22 648
419 22 614
420 22 1687
422 22 1920
424 22 1257
425 22 834
428 22 2
429 22 574
430 22 758
431 22 887
432 22 826
433 22 1088
435 22 733
436 22 596
437 22 1630
439 22 1570
440 22 919
442 22 793
444 22 1526
445 22 396
446 22 516
447 22 883
448 22 1072
450 22 752
451 22 1202
452 22 767
453 22 1133
454 22 435
456 22 3
458 22 1436
459 22 1660
460 22 669
461 22 1128
463 22 1342
464 22 1300
466 22 1332
467 22 28
469 22 708
470 22 1063
471 22 1122
473 22 1052
474 22 1839
475 22 633
476 22 1054
477 22 1040
478 22 1476
479 22 1635
480 22 872
481 22 1781
482 22 751
483 22 630
484 22 1698
485 22 18
486 22 669
488 22 809
489 22 2071
490 22 873
491 22 6
492 22 1559
493 22 996
494 22 830
495 22 810
496 22 570
497 22 806
498 22 1270
499 22 1062
1 23 69
5 23 397
6 23 581
23 23 265
31 23 1020
35 23 638
36 23 430
37 23 526
39 23 586
40 23 259
45 23 1117
48 23 854
49 23 37
51 23 107
52 23 215
53 23 270
55 23 195
57 23 944
62 23 996
63 23 124
65 23 370
71 23 8
73 23 949
76 23 171
84 23 546
86 23 820
89 23 58
93 23 591
95 23 393
105 23 542
108 23 3
109 23 4
113 23 931
114 23 331
121 23 662
122 23 532
123 23 497
124 23 5
129 23 18
137 23 468
139 23 503
140 23 429
142 23 333
144 23 636
147 23 180
154 23 671
156 23 460
166 23 572
169 23 13
171 23 129
172 23 57
180 23 303
182 23 496
184 23 568
190 23 630
191 23 6
197 23 317
203 23 5
204 23 131
205 23 19
208 23 502
212 23 6
217 23 90
223 23 254
226 23 303
228 23 275
230 23 278
232 23 609
235 23 372
239 23 805
240 23 50
241 23 324
243 23 540
244 23 442
246 23 326
257 23 485
270 23 499
272 23 239
278 23 579
279 23 104
282 23 245
286 23 476
287 23 292
293 23 227
296 23 309
299 23 2
302 23 82
313 23 40
319 23 411
322 23 508
325 23 124
327 23 143
330 23 232
332 23 498
333 23 1328
334 23 267
340 23 1989
342 23 332
343 23 204
348 23 346
351 23 24
360 23 118
362 23 1146
364 23 322
366 23 512
367 23 114
380 23 1081
385 23 14
389 23 2001
401 23 288
406 23 294
408 23 292
414 23 92
415 23 2001
422 23 3
423 23 3
425 23 32
429 23 148
431 23 738
432 23 1148
433 23 399
437 23 264
440 23 265
442 23 996
444 23 130
446 23 369
447 23 314
449 23 2
450 23 256
452 23 75
458 23 1099
459 23 316
460 23 155
466 23 61
471 23 119
473 23 6
474 23 40
479 23 301
480 23 499
483 23 802
484 23 658
486 23 326
489 23 737
490 23 296
493 23 390
495 23 197
1 24 263
4 24 18
5 24 261
6 24 464
20 24 17
23 24 663
26 24 5
31 24 852
35 24 618
36 24 629
37 24 377
39 24 535
40 24 314
45 24 278
48 24 199
49 24 36
51 24 127
52 24 158
53 24 406
54 24 8
55 24 266
57 24 418
62 24 365
63 24 71
65 24 192
71 24 57
73 24 356
76 24 475
84 24 972
86 24 427
89 24 237
93 24 297
95 24 409
105 24 1000
108 24 38
109 24 68
113 24 479
114 24 370
121 24 329
122 24 415
123 24 593
124 24 3
129 24 72
132 24 10
137 24 631
139 24 358
140 24 593
142 24 515
144 24 363
145 24 3
147 24 343
154 24 553
156 24 300
166 24 265
169 24 64
171 24 38
172 24 66
180 24 224
182 24 677
184 24 1578
190 24 536
197 24 341
201 24 7
203 24 1
204 24 175
205 24 272
208 24 758
209 24 4
212 24 53
217 24 156
222 24 21
223 24 602
226 24 268
228 24 600
230 24 448
232 24 1063
235 24 448
239 24 481
240 24 46
241 24 420
243 24 785
244 24 656
246 24 766
257 24 420
269 24 4
270 24 818
272 24 850
278 24 680
279 24 162
282 24 386
286 24 196
287 24 309
291 24 9
293 24 805
296 24 491
299 24 153
302 24 338
303 24 39
306 24 36
307 24 19
309 24 4
313 24 42
315 24 1
319 24 761
322 24 372
325 24 115
326 24 7
327 24 416
330 24 849
332 24 568
333 24 844
334 24 337
340 24 610
342 24 600
343 24 313
348 24 272
351 24 63
360 24 191
362 24 481
364 24 146
366 24 339
367 24 251
370 24 19
380 24 890
385 24 31
388 24 38
389 24 577
390 24 41
392 24 51
401 24 1064
405 24 107
406 24 560
408 24 324
410 24 6
414 24 327
415 24 598
424 24 16
425 24 103
428 24 7
429 24 221
431 24 675
432 24 522
433 24 235
435 24 4
437 24 258
440 24 553
442 24 510
444 24 206
446 24 430
447 24 587
450 24 482
452 24 91
456 24 5
458 24 823
459 24 361
460 24 117
462 24 36
463 24 5
466 24 112
471 24 157
473 24 59
474 24 141
479 24 606
480 24 1305
482 24 3
483 24 501
484 24 448
486 24 574
489 24 454
490 24 187
493 24 229
495 24 313
1 25 325
3 25 3
4 25 93
5 25 1892
6 25 1181
13 25 6
23 25 778
26 25 53
31 25 2184
33 25 2
35 25 1923
36 25 1586
37 25 1118
39 25 922
40 25 676
45 25 617
48 25 2085
49 25 74
51 25 273
52 25 182
53 25 1786
55 25 397
57 25 907
62 25 1033
63 25 248
65 25 2004
71 25 15
73 25 935
76 25 272
84 25 2262
86 25 1619
89 25 212
93 25 1718
95 25 1229
105 25 1706
108 25 3
109 25 12
113 25 1358
114 25 1803
121 25 952
122 25 1099
123 25 930
124 25 1
125 25 2
129 25 146
132 25 79
137 25 3133
139 25 1006
140 25 1654
142 25 1223
144 25 880
147 25 386
154 25 1227
156 25 981
158 25 4
166 25 2370
169 25 136
171 25 322
172 25 253
180 25 721
182 25 3165
184 25 2688
186 25 19
190 25 1221
191 25 86
196 25 3
197 25 1083
203 25 39
204 25 1089
205 25 274
208 25 1310
209 25 6
212 25 17
217 25 390
222 25 3
223 25 1712
226 25 530
228 25 3099
230 25 1075
232 25 1598
235 25 1453
239 25 1584
240 25 84
241 25 1604
243 25 1615
244 25 1444
246 25 1004
249 25 1
257 25 1603
270 25 1646
272 25 3919
278 25 1348
279 25 404
282 25 759
286 25 2011
287 25 495
291 25 5
293 25 493
296 25 1930
299 25 91
302 25 300
303 25 38
306 25 87
308 25 3
309 25 108
313 25 71
319 25 1466
322 25 1565
324 25 10
325 25 173
327 25 577
330 25 4097
332 25 1341
333 25 660
334 25 602
340 25 1516
342 25 1605
343 25 690
348 25 1387
351 25 62
360 25 365
362 25 912
364 25 756
366 25 858
367 25 113
370 25 83
373 25 6
380 25 1634
385 25 114
388 25 35
389 25 1611
390 25 94
392 25 21
401 25 878
405 25 132
406 25 595
408 25 974
410 25 117
414 25 323
415 25 1550
422 25 83
424 25 25
425 25 97
429 25 210
431 25 868
432 25 1741
433 25 1026
435 25 2
437 25 1515
440 25 2816
442 25 1022
444 25 136
445 25 4
446 25 369
447 25 3022
450 25 1996
452 25 162
458 25 2438
459 25 1140
460 25 200
462 25 22
463 25 87
466 25 261
471 25 267
473 25 5
474 25 129
479 25 264
480 25 2251
482 25 7
483 25 1594
484 25 776
486 25 3006
489 25 317
490 25 385
491 25 4
493 25 1513
495 25 526
1 26 2146
2 26 1043
3 26 1055
4 26 980
5 26 1233
6 26 1146
7 26 1900
8 26 1036
9 26 1577
10 26 1057
11 26 927
12 26 1166
13 26 997
14 26 788
15 26 298
16 26 586
17 26 1211
18 26 1175
19 26 912
20 26 1803
21 26 512
22 26 1105
23 26 1056
24 26 940
25 26 343
26 26 1423
27 26 325
28 26 807
29 26 994
30 26 512
31 26 2550
32 26 981
33 26 315
34 26 696
35 26 1188
36 26 1011
37 26 2177
38 26 1152
39 26 904
40 26 2211
41 26 831
42 26 1659
43 26 935
44 26 459
45 26 1285
46 26 825
47 26 699
48 26 1673
49 26 675
50 26 548
51 26 2353
52 26 1102
53 26 502
54 26 947
55 26 1025
56 26 931
57 26 3675
58 26 918
59 26 640
60 26 347
61 26 965
62 26 1542
63 26 2516
64 26 1768
65 26 1157
66 26 733
67 26 654
68 26 852
69 26 937
70 26 1229
71 26 1593
72 26 302
73 26 3690
74 26 1326
75 26 840
76 26 1723
77 26 1394
78 26 1664
79 26 1587
80 26 330
81 26 1705
82 26 1152
83 26 340
84 26 1555
85 26 799
86 26 867
87 26 240
88 26 1574
89 26 1746
90 26 788
91 26 607
92 26 1364
93 26 1738
94 26 2024
95 26 1535
96 26 653
97 26 1417
98 26 655
99 26 853
100 26 942
101 26 1785
102 26 1735
103 26 823
104 26 1284
105 26 1534
106 26 1483
107 26 1411
108 26 856
109 26 1561
110 26 1458
111 26 789
112 26 226
113 26 1380
114 26 1238
115 26 808
116 26 308
117 26 671
118 26 258
119 26 929
120 26 1249
121 26 1041
122 26 1726
123 26 1160
124 26 999
125 26 1137
126 26 1169
127 26 784
128 26 1427
129 26 2207
130 26 1049
131 26 1901
132 26 975
133 26 1152
134 26 2092
135 26 1524
136 26 605
137 26 1890
138 26 422
139 26 680
140 26 974
141 26 1040
142 26 1095
143 26 1030
144 26 1015
145 26 788
146 26 681
147 26 443
148 26 1880
149 26 2118
150 26 931
151 26 1346
152 26 540
153 26 319
154 26 1996
155 26 243
156 26 929
157 26 536
158 26 313
159 26 943
160 26 207
161 26 695
162 26 922
163 26 924
164 26 587
165 26 1176
166 26 777
167 26 1303
168 26 988
169 26 1358
170 26 859
171 26 1473
172 26 1325
173 26 250
174 26 628
175 26 722
176 26 545
177 26 855
178 26 1333
179 26 740
180 26 1074
181 26 1346
182 26 1979
183 26 1155
184 26 3745
185 26 460
186 26 777
187 26 1304
188 26 1040
189 26 1379
190 26 1199
191 26 2456
192 26 1589
193 26 979
194 26 918
195 26 2056
196 26 320
197 26 2293
198 26 352
199 26 1830
200 26 837
201 26 764
202 26 1020
203 26 1436
204 26 2092
205 26 444
206 26 460
207 26 851
208 26 780
209 26 571
210 26 550
211 26 2062
212 26 1543
213 26 1759
214 26 572
215 26 979
216 26 845
217 26 1142
218 26 1293
219 26 886
220 26 883
221 26 736
222 26 1567
223 26 2342
224 26 349
225 26 1701
226 26 1086
227 26 538
228 26 2019
229 26 344
230 26 624
231 26 361
232 26 792
233 26 528
234 26 1079
235 26 2943
236 26 231
237 26 978
238 26 365
239 26 869
240 26 685
241 26 2095
242 26 1471
243 26 1845
244 26 1928
245 26 731
246 26 1517
247 26 1383
248 26 597
249 26 1884
250 26 1359
251 26 620
252 26 452
253 26 738
254 26 2128
255 26 1564
256 26 544
257 26 1358
258 26 925
259 26 580
260 26 734
261 26 795
262 26 858
263 26 1741
264 26 1273
265 26 937
266 26 2205
267 26 1540
268 26 807
269 26 1415
270 26 826
271 26 1986
272 26 1432
273 26 1036
274 26 1106
275 26 590
276 26 955
277 26 1533
278 26 1367
279 26 1255
280 26 891
281 26 512
282 26 586
283 26 1317
284 26 1432
285 26 356
286 26 1066
287 26 1719
288 26 907
289 26 1045
290 26 1296
291 26 1304
292 26 932
293 26 658
294 26 978
295 26 1038
296 26 1737
297 26 571
298 26 797
299 26 1173
300 26 975
301 26 1317
302 26 1720
303 26 300
304 26 258
305 26 365
306 26 1871
307 26 1821
308 26 1032
309 26 702
310 26 960
311 26 1144
312 26 1029
313 26 703
314 26 1420
315 26 773
316 26 811
317 26 448
318 26 434
319 26 774
320 26 826
321 26 1690
322 26 860
323 26 885
324 26 373
325 26 1086
326 26 2370
327 26 1991
328 26 538
329 26 831
330 26 1529
331 26 809
332 26 1130
333 26 848
334 26 693
335 26 873
336 26 882
337 26 1667
338 26 868
339 26 691
340 26 907
341 26 246
342 26 1256
343 26 752
344 26 1952
345 26 908
346 26 2172
347 26 1193
348 26 1687
349 26 271
350 26 937
351 26 1047
352 26 404
353 26 328
354 26 1002
355 26 1330
356 26 794
357 26 1719
358 26 664
359 26 1536
360 26 1205
361 26 1707
362 26 2109
363 26 1210
364 26 1274
365 26 1161
366 26 1600
367 26 875
368 26 525
369 26 919
370 26 1030
371 26 1419
372 26 970
373 26 1964
374 26 1340
375 26 331
376 26 649
377 26 1276
378 26 1075
379 26 1302
380 26 799
381 26 717
382 26 1116
383 26 619
384 26 929
385 26 1606
386 26 1327
387 26 804
388 26 294
389 26 914
390 26 1845
391 26 1114
392 26 2050
393 26 2129
394 26 407
395 26 1467
396 26 1274
397 26 1419
398 26 1131
399 26 777
400 26 896
401 26 957
402 26 461
403 26 342
404 26 1534
405 26 2865
406 26 1530
407 26 262
408 26 1585
409 26 519
410 26 951
411 26 288
412 26 1359
413 26 704
414 26 1762
415 26 890
416 26 1119
417 26 507
418 26 414
419 26 846
420 26 652
421 26 685
422 26 2495
423 26 900
424 26 1977
425 26 1689
426 26 835
427 26 1149
428 26 1281
429 26 1509
430 26 1986
431 26 1315
432 26 1892
433 26 629
434 26 315
435 26 858
436 26 1469
437 26 1405
438 26 1127
439 26 352
440 26 1059
441 26 1011
442 26 1200
443 26 902
444 26 841
445 26 1492
446 26 1264
447 26 1092
448 26 1425
449 26 968
450 26 3163
451 26 1556
452 26 1502
453 26 1148
454 26 763
455 26 223
456 26 1115
457 26 720
458 26 1479
459 26 1779
460 26 1129
461 26 1483
462 26 2008
463 26 691
464 26 768
465 26 847
466 26 1323
467 26 443
468 26 501
469 26 972
470 26 1374
471 26 633
472 26 862
473 26 353
474 26 993
475 26 1067
476 26 1383
477 26 1014
478 26 476
479 26 1508
480 26 947
481 26 656
482 26 797
483 26 916
484 26 1614
485 26 958
486 26 1960
487 26 958
488 26 237
489 26 2181
490 26 810
491 26 340
492 26 1067
493 26 1502
494 26 1252
495 26 1388
496 26 304
497 26 1051
498 26 923
499 26 1794
500 26 807
1 27 243
4 27 27
5 27 3355
6 27 948
9 27 6
10 27 3
23 27 975
26 27 8
31 27 478
35 27 2228
36 27 959
37 27 697
39 27 1090
40 27 588
45 27 313
48 27 792
49 27 95
51 27 80
52 27 769
53 27 1820
54 27 4
55 27 526
57 27 920
62 27 863
63 27 150
65 27 434
71 27 5
73 27 960
76 27 264
84 27 464
86 27 1368
89 27 243
93 27 935
95 27 2276
105 27 1089
108 27 8
109 27 8
113 27 725
114 27 1018
119 27 3
121 27 916
122 27 452
123 27 2357
124 27 2
129 27 21
132 27 66
137 27 529
139 27 714
140 27 891
142 27 2337
144 27 915
147 27 964
154 27 611
156 27 1175
166 27 1007
169 27 17
171 27 467
172 27 192
180 27 772
182 27 508
184 27 2110
190 27 982
191 27 50
197 27 1478
203 27 15
204 27 442
205 27 319
208 27 966
212 27 4
217 27 190
222 27 31
223 27 1828
226 27 900
228 27 2483
230 27 1271
232 27 402
235 27 1129
239 27 1290
240 27 103
241 27 1742
243 27 762
244 27 1495
246 27 482
257 27 830
270 27 1882
272 27 1497
278 27 1623
279 27 413
282 27 1234
286 27 771
287 27 1086
293 27 1003
296 27 1124
299 27 66
302 27 178
306 27 4
309 27 13
313 27 101
319 27 2390
322 27 1912
325 27 682
327 27 354
330 27 1499
332 27 1619
333 27 1069
334 27 685
340 27 2838
342 27 1723
343 27 348
348 27 645
351 27 122
360 27 203
362 27 599
364 27 681
366 27 1388
367 27 232
370 27 30
380 27 1011
385 27 129
389 27 2828
390 27 1
401 27 467
405 27 90
406 27 965
408 27 1486
410 27 74
414 27 169
415 27 2879
422 27 64
424 27 8
425 27 29
429 27 469
431 27 716
432 27 1539
433 27 587
437 27 677
440 27 896
442 27 694
444 27 360
445 27 2
446 27 825
447 27 893
450 27 1549
452 27 22
456 27 23
458 27 1297
459 27 613
460 27 614
463 27 14
466 27 271
471 27 646
473 27 46
474 27 154
479 27 1120
480 27 965
483 27 1350
484 27 528
486 27 2542
489 27 725
490 27 998
493 27 1163
495 27 295
1 28 37
5 28 545
6 28 411
23 28 225
31 28 395
35 28 302
36 28 1095
37 28 815
39 28 500
40 28 830
45 28 769
48 28 313
49 28 124
51 28 34
52 28 134
53 28 506
55 28 350
57 28 722
62 28 348
63 28 3
65 28 272
73 28 728
76 28 173
84 28 200
86 28 1131
89 28 136
93 28 347
95 28 720
105 28 462
113 28 289
114 28 367
121 28 807
122 28 1680
123 28 1041
133 28 13
137 28 529
139 28 917
140 28 1110
142 28 336
144 28 822
147 28 27
154 28 535
156 28 282
166 28 870
171 28 32
172 28 16
180 28 716
182 28 532
184 28 711
190 28 394
197 28 101
203 28 5
204 28 144
208 28 866
217 28 289
223 28 678
226 28 300
228 28 339
230 28 300
232 28 686
235 28 420
239 28 1041
240 28 138
241 28 355
243 28 383
244 28 814
246 28 41
257 28 1466
270 28 368
272 28 578
278 28 353
279 28 88
282 28 205
286 28 367
287 28 730
293 28 262
296 28 668
302 28 99
313 28 110
319 28 855
322 28 310
325 28 8
327 28 130
330 28 542
332 28 397
333 28 502
334 28 923
340 28 612
342 28 960
343 28 82
348 28 532
360 28 323
362 28 710
364 28 1014
366 28 308
380 28 556
389 28 583
396 28 9
401 28 466
406 28 588
408 28 198
414 28 115
415 28 567
425 28 9
429 28 173
431 28 353
432 28 507
433 28 198
437 28 667
440 28 534
442 28 1090
446 28 3102
447 28 553
450 28 221
452 28 4
458 28 398
459 28 734
460 28 3
466 28 8
471 28 41
474 28 6
479 28 228
480 28 546
483 28 1113
484 28 389
486 28 320
489 28 1103
490 28 320
493 28 342
495 28 151
1 29 8
3 29 4
4 29 42
5 29 442
6 29 340
12 29 2
15 29 19
17 29 13
20 29 85
23 29 250
25 29 16
28 29 13
31 29 671
32 29 7
35 29 693
36 29 305
37 29 348
38 29 4
39 29 1908
40 29 172
41 29 108
42 29 34
45 29 449
48 29 879
49 29 80
50 29 15
52 29 619
53 29 199
55 29 116
56 29 19
57 29 356
62 29 218
63 29 135
64 29 61
65 29 289
66 29 7
71 29 18
73 29 403
75 29 16
76 29 604
79 29 38
84 29 215
85 29 5
86 29 267
89 29 196
90 29 28
91 29 37
92 29 28
93 29 972
94 29 145
95 29 290
98 29 22
104 29 19
105 29 338
106 29 37
107 29 8
108 29 171
109 29 24
111 29 10
113 29 2848
114 29 180
115 29 6
116 29 37
118 29 4
119 29 107
121 29 185
122 29 256
123 29 395
124 29 110
127 29 6
129 29 235
132 29 193
134 29 6
137 29 558
139 29 117
140 29 347
142 29 164
143 29 91
144 29 171
147 29 124
150 29 6
151 29 15
154 29 547
155 29 3
156 29 117
160 29 6
161 29 3
164 29 7
165 29 5
166 29 185
169 29 6
170 29 5
171 29 185
172 29 105
179 29 112
180 29 264
182 29 563
184 29 359
186 29 37
190 29 307
191 29 2
195 29 12
197 29 284
199 29 19
203 29 7
204 29 415
205 29 134
207 29 126
208 29 231
212 29 14
213 29 21
214 29 15
216 29 13
217 29 145
219 29 31
222 29 32
223 29 127
225 29 176
226 29 247
228 29 341
229 29 5
230 29 200
231 29 3
232 29 124
235 29 2738
238 29 4
239 29 278
240 29 77
241 29 135
243 29 719
244 29 345
246 29 134
250 29 6
254 29 19
255 29 29
257 29 256
261 29 35
263 29 152
264 29 130
267 29 19
269 29 113
270 29 481
271 29 7
272 29 416
278 29 573
279 29 297
282 29 115
283 29 23
284 29 51
285 29 45
286 29 252
287 29 264
293 29 373
296 29 104
299 29 456
302 29 50
303 29 124
306 29 227
307 29 93
308 29 8
309 29 236
312 29 4
313 29 106
316 29 7
319 29 89
322 29 1548
324 29 93
325 29 160
326 29 93
327 29 270
328 29 15
330 29 459
332 29 241
333 29 124
334 29 384
340 29 492
342 29 96
343 29 49
346 29 22
347 29 2
348 29 663
351 29 221
358 29 12
359 29 19
360 29 136
361 29 1
362 29 238
364 29 120
365 29 25
366 29 1456
367 29 84
370 29 47
376 29 32
379 29 12
380 29 637
381 29 4
385 29 203
386 29 23
388 29 157
389 29 491
390 29 216
394 29 18
396 29 18
397 29 52
399 29 10
400 29 8
401 29 336
403 29 3
404 29 33
405 29 16
406 29 563
407 29 3
408 29 463
410 29 16
412 29 7
414 29 71
415 29 459
418 29 65
419 29 4
420 29 18
422 29 4
424 29 206
429 29 380
430 29 6
431 29 378
432 29 390
433 29 1092
436 29 3
437 29 232
438 29 6
440 29 503
442 29 311
444 29 59
445 29 39
446 29 369
447 29 564
448 29 4
450 29 397
451 29 21
452 29 16
453 29 41
457 29 7
458 29 355
459 29 437
460 29 148
461 29 31
463 29 238
464 29 10
466 29 36
470 29 8
471 29 84
473 29 142
474 29 171
475 29 10
476 29 32
479 29 1061
480 29 1131
481 29 16
483 29 279
484 29 211
485 29 7
486 29 358
489 29 1205
490 29 711
492 29 44
493 29 281
495 29 84
496 29 6
497 29 3
498 29 5
499 29 2
5 30 300
6 30 606
23 30 22
31 30 939
35 30 348
36 30 1358
37 30 1030
39 30 1014
40 30 568
45 30 521
48 30 890
49 30 1
52 30 177
53 30 511
55 30 714
57 30 405
62 30 530
65 30 611
73 30 423
76 30 139
84 30 2039
86 30 1762
89 30 180
93 30 1644
95 30 1762
105 30 1091
113 30 251
114 30 385
121 30 1503
122 30 1102
123 30 921
137 30 1725
139 30 1483
140 30 1318
142 30 2347
144 30 1526
147 30 6
154 30 2774
156 30 432
166 30 708
180 30 603
182 30 1790
184 30 859
190 30 590
197 30 156
204 30 70
208 30 747
217 30 71
223 30 1640
226 30 1041
228 30 724
230 30 2416
232 30 549
235 30 715
239 30 1652
240 30 3
241 30 725
243 30 971
244 30 1465
246 30 19
257 30 741
270 30 1174
272 30 2176
278 30 331
282 30 768
286 30 167
287 30 476
293 30 94
296 30 668
302 30 69
313 30 1
319 30 538
322 30 437
327 30 203
330 30 2037
332 30 1173
333 30 2467
334 30 957
340 30 1749
342 30 973
343 30 15
348 30 783
360 30 98
362 30 524
364 30 702
366 30 866
380 30 1259
389 30 1711
401 30 961
406 30 471
408 30 1430
414 30 71
415 30 1811
429 30 82
431 30 1841
432 30 1591
433 30 883
437 30 1511
440 30 671
442 30 1485
446 30 850
447 30 714
450 30 129
458 30 1600
459 30 544
466 30 34
479 30 1575
480 30 741
483 30 1762
484 30 1423
486 30 716
489 30 1315
490 30 726
493 30 952
495 30 168
1 31 3655
2 31 1146
3 31 1429
4 31 1573
5 31 7
6 31 7
7 31 2295
8 31 2586
9 31 1099
10 31 1313
11 31 542
12 31 838
13 31 1062
14 31 828
15 31 1182
16 31 502
17 31 1666
18 31 811
19 31 932
20 31 848
21 31 950
22 31 1155
23 31 180
24 31 1636
25 31 959
26 31 930
27 31 449
28 31 685
29 31 2554
30 31 426
31 31 73
32 31 909
33 31 516
34 31 1143
35 31 3
37 31 5
38 31 1902
39 31 20
40 31 17
41 31 876
42 31 1059
43 31 926
44 31 608
46 31 290
47 31 1656
48 31 12
49 31 251
50 31 823
51 31 1474
52 31 126
54 31 1116
55 31 14
56 31 793
58 31 904
59 31 1588
60 31 1653
61 31 1400
62 31 22
63 31 2312
64 31 1455
65 31 5
66 31 988
67 31 1328
68 31 1924
69 31 1579
70 31 767
71 31 690
72 31 849
74 31 1312
75 31 624
76 31 140
77 31 615
78 31 1375
79 31 1089
80 31 1430
81 31 1742
82 31 1281
83 31 367
84 31 8
85 31 1617
86 31 7
87 31 1010
88 31 1310
89 31 40
90 31 1455
91 31 1962
92 31 425
94 31 1221
95 31 59
96 31 411
97 31 1114
98 31 1101
99 31 1418
100 31 501
101 31 1317
102 31 470
103 31 837
104 31 1736
106 31 1694
107 31 831
108 31 1645
109 31 639
110 31 731
111 31 698
112 31 1589
113 31 129
114 31 4
115 31 1675
116 31 1395
117 31 934
118 31 774
119 31 1017
120 31 466
121 31 4
122 31 7
123 31 6
124 31 2247
125 31 589
126 31 1107
127 31 1554
128 31 1578
129 31 1757
130 31 1093
131 31 2300
132 31 1882
133 31 1514
134 31 971
135 31 2074
136 31 477
138 31 946
141 31 1169
142 31 23
143 31 1138
144 31 7
145 31 696
146 31 1681
147 31 416
148 31 1287
149 31 1187
150 31 454
151 31 1209
152 31 489
153 31 1197
155 31 966
156 31 8
157 31 482
158 31 527
159 31 1805
160 31 976
161 31 2399
162 31 534
163 31 2023
164 31 804
165 31 861
167 31 369
168 31 1660
169 31 1103
170 31 656
171 31 797
172 31 1868
173 31 680
174 31 648
175 31 839
176 31 945
177 31 682
178 31 1431
179 31 845
181 31 1351
183 31 878
184 31 25
185 31 1058
186 31 1108
187 31 1183
188 31 1054
189 31 1401
190 31 9
191 31 1721
192 31 898
193 31 463
194 31 1629
195 31 1674
196 31 501
197 31 113
198 31 1618
199 31 1847
200 31 1789
201 31 732
202 31 2606
203 31 643
204 31 178
205 31 1468
206 31 945
207 31 888
208 31 3
209 31 589
210 31 1122
211 31 1119
212 31 675
213 31 1779
214 31 1980
215 31 1084
216 31 710
217 31 130
218 31 1491
219 31 1292
220 31 1593
221 31 1397
222 31 962
223 31 7
224 31 1472
225 31 2170
227 31 918
228 31 2
229 31 2094
231 31 702
233 31 462
234 31 1188
236 31 1029
237 31 881
238 31 2056
239 31 9
240 31 256
241 31 13
242 31 2117
244 31 56
245 31 1113
246 31 254
247 31 2857
248 31 1059
249 31 1392
250 31 2112
251 31 1531
252 31 921
253 31 1673
254 31 1567
255 31 1940
256 31 903
257 31 7
258 31 1900
259 31 760
260 31 919
261 31 1491
262 31 1819
263 31 2154
264 31 710
265 31 1586
266 31 1876
267 31 2006
268 31 1323
269 31 1327
270 31 21
271 31 1223
273 31 923
274 31 1138
275 31 1187
276 31 549
277 31 1016
278 31 85
279 31 158
280 31 1327
281 31 1510
283 31 1786
284 31 675
285 31 1541
286 31 150
287 31 18
288 31 1816
289 31 1057
290 31 1389
291 31 815
292 31 296
293 31 233
294 31 1058
295 31 1464
297 31 402
298 31 1236
299 31 530
300 31 1686
301 31 2166
302 31 512
303 31 1168
304 31 1058
305 31 1573
306 31 870
307 31 849
308 31 1364
309 31 971
310 31 329
311 31 437
312 31 2154
313 31 243
314 31 1585
315 31 698
316 31 1619
317 31 1035
318 31 961
320 31 1478
321 31 1747
322 31 13
323 31 647
324 31 507
325 31 1592
326 31 1235
327 31 40
328 31 813
329 31 1389
331 31 1823
332 31 19
333 31 8
334 31 6
335 31 836
336 31 912
337 31 1617
338 31 935
339 31 1707
340 31 8
341 31 671
342 31 40
343 31 411
344 31 2316
345 31 921
346 31 1603
347 31 1892
348 31 2
349 31 986
350 31 1595
351 31 1935
352 31 1041
353 31 699
354 31 1024
355 31 841
356 31 1299
357 31 866
358 31 1084
359 31 2096
360 31 142
361 31 2383
362 31 15
363 31 1258
364 31 34
365 31 728
367 31 1981
368 31 1243
369 31 1649
370 31 1581
371 31 513
372 31 936
373 31 1303
374 31 1763
375 31 1648
376 31 1975
377 31 1275
378 31 1421
379 31 1705
380 31 19
381 31 2411
382 31 1469
383 31 1298
384 31 289
385 31 1976
386 31 1733
387 31 1126
388 31 1197
389 31 6
390 31 843
391 31 1441
392 31 1600
393 31 1165
394 31 1672
395 31 2039
396 31 525
397 31 992
398 31 1048
399 31 789
400 31 894
401 31 24
402 31 789
403 31 856
404 31 1819
405 31 2016
406 31 5
407 31 760
408 31 4
409 31 1444
410 31 1810
411 31 872
412 31 2142
413 31 1369
414 31 540
415 31 7
416 31 1048
417 31 1422
418 31 1100
419 31 1428
420 31 1081
421 31 1227
422 31 1741
423 31 1069
424 31 956
425 31 1270
426 31 1066
427 31 1124
428 31 1495
429 31 210
430 31 1205
431 31 36
433 31 24
434 31 835
435 31 1445
436 31 748
437 31 3
438 31 514
439 31 1749
441 31 348
442 31 10
443 31 776
444 31 1537
445 31 2486
448 31 553
449 31 1011
450 31 198
451 31 1971
452 31 1252
453 31 1526
454 31 812
455 31 1596
456 31 1598
457 31 987
459 31 34
460 31 1603
461 31 1820
462 31 1597
463 31 971
464 31 1050
465 31 611
466 31 558
467 31 399
468 31 788
469 31 1090
470 31 536
471 31 1050
472 31 1197
473 31 1727
474 31 1189
475 31 977
476 31 1249
477 31 2549
478 31 945
479 31 16
480 31 3
481 31 1038
482 31 1542
483 31 7
485 31 479
486 31 15
487 31 1787
488 31 1020
489 31 5
490 31 21
491 31 523
492 31 1579
493 31 21
494 31 1319
495 31 176
496 31 924
497 31 833
498 31 1363
499 31 2406
500 31 1137
1 32 210
5 32 2160
6 32 2495
20 32 62
23 32 1566
31 32 2168
35 32 2105
36 32 2758
37 32 3097
39 32 1014
40 32 1718
45 32 2691
48 32 3231
49 32 720
51 32 15
52 32 948
53 32 672
54 32 35
55 32 1017
57 32 2294
62 32 2431
63 32 17
65 32 1764
73 32 2238
76 32 1529
83 32 22
84 32 3072
86 32 2301
89 32 2112
93 32 1078
95 32 1207
105 32 1714
108 32 27
113 32 1638
114 32 1402
121 32 3788
122 32 3030
123 32 1742
126 32 7
133 32 54
137 32 1746
139 32 1611
140 32 2636
142 32 1307
144 32 3748
145 32 3
147 32 694
150 32 83
154 32 2503
156 32 2464
166 32 1184
169 32 18
171 32 241
172 32 212
180 32 1976
182 32 1767
184 32 3214
190 32 2465
197 32 519
201 32 6
203 32 31
204 32 639
205 32 97
208 32 1133
217 32 1510
223 32 862
226 32 3737
228 32 2029
230 32 2033
232 32 1693
235 32 2169
239 32 2300
240 32 733
241 32 3000
243 32 1986
244 32 1925
246 32 1231
257 32 2643
270 32 667
272 32 1980
278 32 1060
279 32 1498
282 32 1804
286 32 908
287 32 1425
293 32 2488
296 32 1142
302 32 782
307 32 59
313 32 664
315 32 3
319 32 3196
322 32 4211
325 32 17
327 32 1228
330 32 1925
332 32 1904
333 32 2179
334 32 3366
336 32 7
338 32 5
340 32 1783
342 32 826
343 32 512
345 32 6
348 32 2985
351 32 3
360 32 1542
362 32 2387
364 32 3253
366 32 1816
367 32 14
380 32 963
385 32 48
389 32 1940
392 32 4
401 32 1550
405 32 34
406 32 2974
408 32 2966
414 32 758
415 32 1904
425 32 437
428 32 5
429 32 2145
431 32 2859
432 32 1513
433 32 2540
437 32 1298
440 32 3057
442 32 1538
444 32 81
445 32 2
446 32 2864
447 32 3128
450 32 2024
452 32 250
458 32 3089
459 32 720
460 32 10
462 32 4
466 32 316
471 32 117
473 32 52
474 32 182
479 32 1233
480 32 2206
483 32 2314
484 32 1601
486 32 2054
489 32 2164
490 32 2173
493 32 1214
495 32 1074
1 33 381
2 33 211
3 33 1145
4 33 2237
7 33 784
8 33 1949
9 33 825
10 33 947
11 33 733
12 33 996
13 33 620
14 33 801
15 33 313
16 33 824
17 33 1121
18 33 762
19 33 775
20 33 521
21 33 470
22 33 691
23 33 4
24 33 1642
25 33 1079
26 33 973
27 33 584
28 33 1059
29 33 2051
30 33 1043
32 33 1171
33 33 550
34 33 840
36 33 6
37 33 8
38 33 1037
39 33 23
41 33 2273
42 33 1424
43 33 770
44 33 841
46 33 561
47 33 1129
48 33 19
49 33 220
50 33 1504
51 33 1816
54 33 1426
56 33 1016
58 33 1088
59 33 1151
60 33 768
61 33 823
63 33 712
64 33 1092
66 33 1569
67 33 766
68 33 954
69 33 1700
70 33 685
71 33 2621
72 33 362
74 33 1598
75 33 1018
76 33 73
77 33 266
78 33 2017
79 33 1416
80 33 1002
81 33 1494
82 33 1182
83 33 976
85 33 836
87 33 332
88 33 1313
89 33 5
90 33 1784
91 33 1094
92 33 1581
93 33 5
94 33 2044
96 33 971
97 33 209
98 33 1680
99 33 1157
100 33 2218
101 33 1828
102 33 1070
103 33 1855
104 33 1527
106 33 2356
107 33 1346
108 33 1520
109 33 2612
110 33 710
111 33 857
112 33 606
113 33 9
114 33 4
115 33 879
116 33 1036
117 33 1461
118 33 1027
119 33 1709
120 33 550
124 33 883
125 33 624
126 33 1098
127 33 940
128 33 1408
129 33 1820
130 33 709
131 33 878
132 33 1025
133 33 441
134 33 1008
135 33 831
136 33 628
138 33 1078
140 33 9
141 33 586
143 33 1267
145 33 652
146 33 153
147 33 129
148 33 1353
149 33 1665
150 33 713
151 33 1019
152 33 912
153 33 985
155 33 1216
156 33 4
157 33 936
158 33 577
159 33 957
160 33 1137
161 33 959
162 33 740
163 33 1279
164 33 1519
165 33 1016
167 33 935
168 33 1771
169 33 813
170 33 966
171 33 156
172 33 849
173 33 656
174 33 141
175 33 1890
176 33 1294
177 33 593
178 33 764
179 33 2237
181 33 969
183 33 992
185 33 336
186 33 409
187 33 984
188 33 491
189 33 963
191 33 587
192 33 839
193 33 733
194 33 1726
195 33 1927
196 33 611
197 33 26
198 33 766
199 33 405
200 33 935
201 33 635
202 33 2100
203 33 1332
204 33 49
205 33 425
206 33 345
207 33 2205
209 33 478
210 33 1257
211 33 1713
212 33 2703
213 33 450
214 33 1594
215 33 503
216 33 531
217 33 34
218 33 1106
219 33 1569
220 33 1664
221 33 1088
222 33 949
224 33 999
225 33 742
226 33 4
227 33 466
228 33 5
229 33 1011
231 33 172
233 33 913
234 33 618
236 33 383
237 33 983
238 33 1019
240 33 230
242 33 1639
244 33 9
245 33 1624
246 33 5
247 33 1717
248 33 1278
249 33 610
250 33 1116
251 33 1198
252 33 306
253 33 939
254 33 1888
255 33 947
256 33 1254
258 33 1340
259 33 1544
260 33 821
261 33 1732
262 33 914
263 33 766
264 33 1389
265 33 1678
266 33 1584
267 33 1146
268 33 1674
269 33 590
270 33 14
271 33 1706
273 33 547
274 33 618
275 33 1156
276 33 733
277 33 1665
278 33 9
279 33 91
280 33 1186
281 33 1006
283 33 1506
284 33 1974
285 33 1069
288 33 1287
289 33 507
290 33 1266
291 33 1047
292 33 849
293 33 3
294 33 1186
295 33 892
297 33 1009
298 33 310
299 33 1037
300 33 1282
301 33 1629
302 33 160
303 33 789
304 33 388
305 33 817
306 33 939
307 33 486
308 33 1140
309 33 830
310 33 865
311 33 528
312 33 1792
313 33 241
314 33 1459
315 33 645
316 33 919
317 33 693
318 33 322
320 33 2390
321 33 839
323 33 604
324 33 1706
325 33 1397
326 33 1746
328 33 1535
329 33 2486
331 33 882
335 33 954
336 33 214
337 33 1542
338 33 226
339 33 131
341 33 647
342 33 6
343 33 79
344 33 853
345 33 277
346 33 1636
347 33 1061
349 33 376
350 33 833
351 33 662
352 33 330
353 33 535
354 33 1127
355 33 621
356 33 1730
357 33 867
358 33 1642
359 33 1110
360 33 31
361 33 1667
362 33 5
363 33 1216
364 33 19
365 33 1558
367 33 791
368 33 1007
369 33 1696
370 33 2141
371 33 1222
372 33 1109
373 33 643
374 33 586
375 33 817
376 33 1085
377 33 1046
378 33 660
379 33 1517
380 33 11
381 33 1004
382 33 1613
383 33 1276
384 33 876
385 33 2168
386 33 1488
387 33 1160
388 33 813
390 33 997
391 33 1502
392 33 1438
393 33 1733
394 33 1204
395 33 872
396 33 2401
397 33 882
398 33 804
399 33 1054
400 33 1196
402 33 830
403 33 1183
404 33 1020
405 33 3377
407 33 1111
409 33 999
410 33 575
411 33 422
412 33 1164
413 33 765
414 33 200
416 33 858
417 33 912
418 33 1254
419 33 1163
420 33 1696
421 33 891
422 33 592
423 33 907
424 33 1397
425 33 77
426 33 1688
427 33 747
428 33 819
429 33 27
430 33 1739
434 33 408
435 33 1607
436 33 1353
438 33 795
439 33 780
441 33 784
443 33 1032
444 33 755
445 33 497
448 33 1169
449 33 951
450 33 41
451 33 1712
452 33 390
453 33 2168
454 33 1895
455 33 604
456 33 568
457 33 1557
460 33 1587
461 33 981
462 33 1428
463 33 812
464 33 671
465 33 837
466 33 161
467 33 852
468 33 900
469 33 537
470 33 1168
471 33 568
472 33 211
473 33 1056
474 33 982
475 33 1007
476 33 624
477 33 2038
478 33 332
481 33 1764
482 33 1547
485 33 1000
486 33 7
487 33 1114
488 33 378
489 33 11
491 33 598
492 33 1887
493 33 3
494 33 1259
495 33 38
496 33 1074
497 33 611
498 33 1010
499 33 1697
500 33 1686
5 34 930
6 34 1585
23 34 134
31 34 520
35 34 908
36 34 611
37 34 384
39 34 478
40 34 728
45 34 1571
48 34 267
49 34 7
52 34 215
53 34 803
55 34 1109
57 34 704
62 34 590
63 34 7
65 34 716
73 34 741
76 34 112
84 34 495
86 34 685
89 34 225
93 34 687
95 34 1928
105 34 1867
113 34 850
114 34 632
121 34 1991
122 34 641
123 34 1969
137 34 1662
139 34 600
140 34 636
142 34 1104
144 34 1984
147 34 3
150 34 5
154 34 1290
156 34 511
166 34 767
171 34 23
180 34 678
182 34 1549
184 34 2065
190 34 1577
197 34 209
204 34 175
208 34 1208
217 34 208
223 34 1597
226 34 1104
228 34 2177
230 34 1305
232 34 482
235 34 1195
239 34 691
240 34 8
241 34 793
243 34 648
244 34 532
246 34 62
257 34 462
270 34 627
272 34 1254
278 34 1278
279 34 2
282 34 345
286 34 422
287 34 556
293 34 209
296 34 1205
302 34 2
313 34 4
319 34 1737
322 34 925
327 34 129
330 34 1219
332 34 692
333 34 450
334 34 1250
340 34 889
342 34 736
348 34 648
360 34 237
362 34 664
364 34 462
366 34 582
380 34 1253
389 34 942
401 34 1599
406 34 1061
408 34 331
414 34 11
415 34 884
425 34 6
429 34 238
431 34 1144
432 34 896
433 34 419
437 34 769
440 34 1732
442 34 397
446 34 2255
447 34 1737
450 34 122
458 34 964
459 34 631
466 34 19
479 34 686
480 34 1051
483 34 706
484 34 1055
486 34 2250
489 34 1045
490 34 734
493 34 397
495 34 171
1 35 1043
2 35 1219
3 35 2669
4 35 1756
6 35 36
7 35 2677
8 35 1688
9 35 1451
10 35 1293
11 35 2147
12 35 913
13 35 873
14 35 997
15 35 2044
16 35 1018
17 35 1080
18 35 1581
19 35 970
20 35 2262
21 35 849
22 35 1199
23 35 490
24 35 1607
25 35 824
26 35 1189
27 35 342
28 35 1664
29 35 1750
30 35 992
31 35 6
32 35 1107
33 35 464
34 35 1053
37 35 3
38 35 1346
39 35 67
40 35 13
41 35 2505
42 35 1616
43 35 994
44 35 734
45 35 6
46 35 829
47 35 1511
49 35 598
50 35 2019
51 35 1335
52 35 64
54 35 1931
55 35 7
56 35 1654
58 35 980
59 35 1551
60 35 1653
61 35 1834
62 35 15
63 35 1837
64 35 966
66 35 1543
67 35 1649
68 35 1721
69 35 1478
70 35 2204
71 35 1832
72 35 622
74 35 2048
75 35 1631
76 35 116
77 35 762
78 35 2252
79 35 1717
80 35 1174
81 35 1741
82 35 735
83 35 680
84 35 16
85 35 1625
86 35 28
87 35 1701
88 35 780
89 35 103
90 35 669
91 35 2488
92 35 853
93 35 72
94 35 2716
96 35 1801
97 35 1490
98 35 1200
99 35 1658
100 35 2109
101 35 1422
102 35 1292
103 35 1886
104 35 1223
105 35 10
106 35 1593
107 35 856
108 35 2258
109 35 1893
110 35 1150
111 35 803
112 35 761
113 35 8
114 35 66
115 35 1580
116 35 1661
117 35 1300
118 35 1244
119 35 1889
120 35 3141
124 35 1791
125 35 937
126 35 863
127 35 1649
128 35 1638
129 35 1149
130 35 1227
131 35 2582
132 35 1373
133 35 1035
134 35 1935
135 35 738
136 35 1262
138 35 300
139 35 33
141 35 1779
142 35 3
143 35 2805
145 35 1064
146 35 790
147 35 228
148 35 2081
149 35 2329
150 35 2295
151 35 1474
152 35 1076
153 35 1462
155 35 880
156 35 42
157 35 1031
158 35 496
159 35 1083
160 35 881
161 35 1866
162 35 2158
163 35 1046
164 35 1980
165 35 941
167 35 1725
168 35 2254
169 35 880
170 35 484
171 35 251
172 35 3127
173 35 1275
174 35 780
175 35 1969
176 35 1705
177 35 1149
178 35 1168
179 35 2393
180 35 16
181 35 1758
183 35 933
185 35 1085
186 35 1997
187 35 1880
188 35 865
189 35 1815
190 35 43
191 35 1623
192 35 669
193 35 2097
194 35 1547
195 35 651
196 35 483
197 35 10
198 35 1697
199 35 2564
200 35 1734
201 35 1085
202 35 1633
203 35 2403
204 35 516
205 35 2222
206 35 1663
207 35 2395
208 35 7
209 35 1111
210 35 988
211 35 2294
212 35 1882
213 35 2599
214 35 2522
215 35 810
216 35 1196
217 35 284
218 35 692
219 35 1391
220 35 1500
221 35 667
222 35 1963
224 35 1200
225 35 2006
226 35 15
227 35 838
228 35 34
229 35 1434
230 35 2
231 35 644
232 35 5
233 35 982
234 35 1764
235 35 7
236 35 1597
237 35 720
238 35 1399
239 35 20
240 35 630
242 35 1233
244 35 6
245 35 473
246 35 613
247 35 2157
248 35 961
249 35 1597
250 35 1684
251 35 652
252 35 1681
253 35 1340
254 35 658
255 35 1890
256 35 1568
257 35 10
258 35 1889
259 35 398
260 35 2117
261 35 684
262 35 1763
263 35 1953
264 35 1787
265 35 1467
266 35 2558
267 35 1605
268 35 1755
269 35 2518
270 35 6
271 35 1565
273 35 2167
274 35 1782
275 35 884
276 35 2158
277 35 976
278 35 38
279 35 1121
280 35 1757
281 35 1545
282 35 7
283 35 1207
284 35 1830
285 35 1658
286 35 116
287 35 9
288 35 1581
289 35 816
290 35 1205
291 35 1191
292 35 940
293 35 84
294 35 1734
295 35 1555
297 35 451
298 35 890
299 35 1836
300 35 1567
301 35 1236
302 35 520
303 35 2590
304 35 1631
305 35 1608
306 35 2049
307 35 2227
308 35 2722
309 35 1156
310 35 1171
311 35 3247
312 35 1929
313 35 559
314 35 1669
315 35 1061
316 35 1635
317 35 1206
318 35 1659
320 35 1355
321 35 2094
323 35 1112
324 35 655
325 35 920
326 35 1681
327 35 146
328 35 2047
329 35 1442
331 35 1645
333 35 6
335 35 939
336 35 1288
337 35 1714
338 35 1286
339 35 784
341 35 1290
343 35 615
344 35 2685
345 35 1268
346 35 1788
347 35 1298
348 35 3
349 35 1556
350 35 660
351 35 3040
352 35 1113
353 35 925
354 35 1813
355 35 2055
356 35 1755
357 35 613
358 35 1239
359 35 1642
360 35 319
361 35 1116
362 35 20
363 35 1250
364 35 15
365 35 1453
366 35 15
367 35 1329
368 35 1134
369 35 1583
370 35 1771
371 35 1682
372 35 897
373 35 1635
374 35 795
375 35 1664
376 35 2478
377 35 1792
378 35 1092
379 35 1264
380 35 19
381 35 2016
382 35 1800
383 35 776
384 35 939
385 35 2293
386 35 1204
387 35 2205
388 35 2654
390 35 2102
391 35 1734
392 35 2245
393 35 2345
394 35 786
395 35 828
396 35 2989
397 35 2431
398 35 928
399 35 766
400 35 1070
401 35 4
402 35 810
403 35 1107
404 35 1998
405 35 2706
406 35 12
407 35 1305
409 35 1482
410 35 577
411 35 651
412 35 1652
413 35 1608
414 35 497
416 35 869
417 35 1507
418 35 2009
419 35 1189
420 35 1298
421 35 1400
422 35 1645
423 35 1417
424 35 3435
425 35 1131
426 35 490
427 35 1135
428 35 622
429 35 131
430 35 1607
431 35 38
432 35 17
433 35 18
434 35 617
435 35 1128
436 35 888
438 35 766
439 35 1647
441 35 1193
442 35 16
443 35 999
444 35 1359
445 35 1940
448 35 1278
449 35 1366
450 35 230
451 35 2069
452 35 2018
453 35 1860
454 35 1882
455 35 725
456 35 1156
457 35 1620
458 35 18
460 35 867
461 35 1840
462 35 2224
463 35 1216
464 35 1666
465 35 1220
466 35 514
467 35 1527
468 35 791
469 35 774
470 35 1159
471 35 1972
472 35 1594
473 35 1714
474 35 1066
475 35 1530
476 35 1331
477 35 1790
478 35 1603
479 35 65
480 35 39
481 35 1226
482 35 1116
483 35 23
485 35 1007
486 35 38
487 35 1453
488 35 1650
489 35 17
491 35 497
492 35 694
493 35 4
494 35 1220
495 35 234
496 35 874
497 35 1255
498 35 1522
499 35 1142
500 35 444
1 36 26
5 36 310
6 36 496
23 36 23
31 36 360
35 36 396
36 36 210
37 36 799
39 36 267
40 36 343
45 36 303
48 36 375
52 36 89
53 36 584
55 36 626
57 36 400
62 36 546
65 36 686
73 36 385
76 36 3
84 36 936
86 36 332
89 36 101
93 36 338
95 36 285
105 36 613
113 36 327
114 36 295
121 36 1257
122 36 439
123 36 1221
137 36 528
139 36 300
140 36 215
142 36 357
144 36 1262
154 36 825
156 36 163
166 36 305
180 36 927
182 36 497
184 36 1073
190 36 488
197 36 73
204 36 7
208 36 139
217 36 79
223 36 345
226 36 161
228 36 263
230 36 656
232 36 354
235 36 78
239 36 331
241 36 391
243 36 249
244 36 584
257 36 670
270 36 567
272 36 846
278 36 279
282 36 477
286 36 60
287 36 683
293 36 124
296 36 993
319 36 814
322 36 258
327 36 21
330 36 906
332 36 607
333 36 277
334 36 1524
340 36 1169
342 36 305
343 36 3
348 36 194
360 36 76
362 36 263
364 36 412
366 36 249
380 36 305
389 36 1097
401 36 715
406 36 1027
408 36 403
415 36 1139
429 36 34
431 36 484
432 36 758
433 36 391
437 36 472
440 36 1555
442 36 374
446 36 362
447 36 1525
450 36 85
458 36 282
459 36 318
466 36 2
479 36 396
480 36 788
483 36 347
484 36 1077
486 36 231
489 36 732
490 36 166
493 36 211
495 36 24
1 37 1708
3 37 4
4 37 735
5 37 3408
6 37 1966
20 37 1442
21 37 5
23 37 2420
24 37 37
26 37 21
31 37 4188
35 37 2880
36 37 2203
37 37 1583
38 37 138
39 37 1155
40 37 4119
45 37 4177
48 37 2152
49 37 1260
50 37 28
51 37 1243
52 37 2052
53 37 2007
55 37 3441
57 37 4033
62 37 4354
63 37 1422
64 37 2
65 37 2528
69 37 21
71 37 881
73 37 4198
76 37 2500
84 37 5694
86 37 3066
89 37 3560
93 37 1393
94 37 53
95 37 2162
100 37 91
104 37 148
105 37 3398
106 37 109
108 37 1657
109 37 902
113 37 2677
114 37 2765
119 37 84
121 37 5221
122 37 5299
123 37 3026
124 37 2041
126 37 14
129 37 2070
132 37 742
133 37 4
134 37 3
135 37 53
137 37 4055
139 37 3211
140 37 2117
142 37 4454
143 37 38
144 37 5195
147 37 2183
154 37 2800
156 37 2941
164 37 35
166 37 2396
168 37 216
169 37 2050
171 37 2666
172 37 2928
180 37 2037
182 37 4157
184 37 3321
186 37 1550
190 37 1959
191 37 1498
194 37 28
197 37 2232
203 37 1984
204 37 2593
205 37 1276
208 37 4333
212 37 870
217 37 1383
220 37 29
222 37 2436
223 37 2883
226 37 2715
227 37 4
228 37 3440
229 37 152
230 37 3852
232 37 3471
235 37 2302
238 37 135
239 37 3137
240 37 1353
241 37 3272
243 37 2906
244 37 2391
246 37 2477
247 37 4
257 37 3701
264 37 330
265 37 29
266 37 210
269 37 757
270 37 3475
272 37 3640
278 37 3902
279 37 2169
282 37 3830
283 37 154
286 37 2144
287 37 2577
291 37 12
293 37 2058
296 37 3705
299 37 1306
302 37 1471
303 37 2286
306 37 1656
307 37 1515
308 37 8
309 37 2318
313 37 1266
319 37 4090
322 37 1816
324 37 217
325 37 2091
326 37 311
327 37 1307
328 37 20
330 37 3765
332 37 4616
333 37 4005
334 37 3520
340 37 1481
342 37 3162
343 37 2713
347 37 159
348 37 3757
351 37 1315
360 37 1429
362 37 2479
364 37 4052
366 37 2025
367 37 2034
369 37 19
370 37 714
379 37 153
380 37 3758
385 37 1550
386 37 141
388 37 2366
389 37 1429
390 37 1657
392 37 275
395 37 44
396 37 194
401 37 2526
405 37 1404
406 37 1574
408 37 4301
410 37 121
414 37 1588
415 37 1539
422 37 1472
423 37 54
424 37 337
425 37 442
428 37 12
429 37 3417
431 37 3159
432 37 2346
433 37 3051
435 37 168
437 37 2038
440 37 3654
442 37 4269
444 37 1243
445 37 565
446 37 2398
447 37 3899
449 37 37
450 37 3075
452 37 621
453 37 136
456 37 28
458 37 759
459 37 3394
460 37 2112
462 37 284
463 37 2407
466 37 1674
471 37 2566
473 37 2970
474 37 1732
476 37 83
479 37 3850
480 37 2006
482 37 166
483 37 3073
484 37 3084
486 37 3414
489 37 3576
490 37 2750
493 37 1522
495 37 2130
1 38 1630
2 38 898
3 38 815
4 38 2542
5 38 824
6 38 2876
7 38 2067
8 38 1812
9 38 1394
10 38 679
11 38 953
12 38 1224
13 38 927
14 38 1193
15 38 799
16 38 599
17 38 1918
18 38 993
19 38 644
20 38 1194
21 38 741
22 38 441
23 38 3168
24 38 926
25 38 565
26 38 931
27 38 874
28 38 1733
29 38 1816
30 38 831
31 38 2149
32 38 1707
33 38 882
34 38 595
35 38 2237
36 38 1288
37 38 1816
38 38 2678
39 38 2905
40 38 2746
41 38 1702
42 38 2096
43 38 653
44 38 809
45 38 1430
46 38 728
47 38 1801
48 38 1364
49 38 1740
50 38 709
51 38 1621
52 38 598
53 38 2036
54 38 1718
55 38 2682
56 38 871
57 38 2083
58 38 2227
59 38 1925
60 38 1857
61 38 873
62 38 2053
63 38 2058
64 38 1362
65 38 2356
66 38 933
67 38 1106
68 38 1929
69 38 916
70 38 1351
71 38 2050
72 38 705
73 38 2111
74 38 1658
75 38 1748
76 38 2128
77 38 659
78 38 2230
79 38 2120
80 38 1616
81 38 748
82 38 1582
83 38 1332
84 38 2781
85 38 1610
86 38 1370
87 38 1324
88 38 1091
89 38 2388
90 38 984
91 38 779
92 38 1237
93 38 1426
94 38 1544
95 38 1538
96 38 1252
97 38 1338
98 38 902
99 38 1169
100 38 852
101 38 2754
102 38 1024
103 38 353
104 38 1779
105 38 1179
106 38 1877
107 38 1326
108 38 1577
109 38 2018
110 38 1137
111 38 653
112 38 1006
113 38 2552
114 38 3399
115 38 1629
116 38 1135
117 38 1336
118 38 1397
119 38 1389
120 38 1024
121 38 1045
122 38 2277
123 38 1380
124 38 2571
125 38 1137
126 38 820
127 38 1573
128 38 1571
129 38 565
130 38 492
131 38 2074
132 38 2726
133 38 1084
134 38 2036
135 38 1215
136 38 541
137 38 2408
138 38 1208
139 38 2381
140 38 1396
141 38 1450
142 38 2946
143 38 1068
144 38 1020
145 38 637
146 38 670
147 38 1513
148 38 1525
149 38 1086
150 38 1323
151 38 712
152 38 791
153 38 1101
154 38 2240
155 38 1252
156 38 2260
157 38 817
158 38 872
159 38 1199
160 38 1190
161 38 1790
162 38 950
163 38 2049
164 38 686
165 38 1215
166 38 1982
167 38 2213
168 38 1155
169 38 1340
170 38 1021
171 38 1717
172 38 1422
173 38 1136
174 38 566
175 38 362
176 38 998
177 38 1756
178 38 1612
179 38 1727
180 38 2049
181 38 1531
182 38 2321
183 38 1244
184 38 1108
185 38 904
186 38 2372
187 38 1921
188 38 1086
189 38 1564
190 38 2968
191 38 2366
192 38 1036
193 38 916
194 38 911
195 38 687
196 38 816
197 38 1924
198 38 1815
199 38 767
200 38 1890
201 38 624
202 38 1844
203 38 965
204 38 1209
205 38 999
206 38 1771
207 38 1742
208 38 1438
209 38 549
210 38 772
211 38 1067
212 38 2128
213 38 807
214 38 917
215 38 1028
216 38 1115
217 38 2798
218 38 1533
219 38 321
220 38 959
221 38 634
222 38 1719
223 38 2240
224 38 1674
225 38 1052
226 38 763
227 38 723
228 38 2922
229 38 1864
230 38 2502
231 38 812
232 38 2786
233 38 765
234 38 1389
235 38 2555
236 38 1358
237 38 924
238 38 1856
239 38 1232
240 38 1732
241 38 1195
242 38 2094
243 38 2194
244 38 1533
245 38 894
246 38 2258
247 38 1586
248 38 781
249 38 1746
250 38 1350
251 38 989
252 38 1716
253 38 1763
254 38 675
255 38 1242
256 38 1013
257 38 1294
258 38 1208
259 38 910
260 38 2394
261 38 945
262 38 1803
263 38 959
264 38 1407
265 38 897
266 38 1441
267 38 891
268 38 1788
269 38 2138
270 38 765
271 38 1320
272 38 2110
273 38 1247
274 38 1350
275 38 438
276 38 952
277 38 833
278 38 1950
279 38 2753
280 38 1198
281 38 377
282 38 3172
283 38 1738
284 38 1033
285 38 1132
286 38 2626
287 38 2793
288 38 1393
289 38 1088
290 38 1342
291 38 667
292 38 533
293 38 1905
294 38 1210
295 38 1548
296 38 1534
297 38 379
298 38 876
299 38 2266
300 38 1413
301 38 2103
302 38 1692
303 38 1920
304 38 1307
305 38 1814
306 38 1912
307 38 1154
308 38 864
309 38 1206
310 38 997
311 38 1009
312 38 1372
313 38 1820
314 38 1497
315 38 624
316 38 1559
317 38 757
318 38 1849
319 38 1595
320 38 1553
321 38 1371
322 38 1930
323 38 1624
324 38 2405
325 38 1353
326 38 1857
327 38 1661
328 38 695
329 38 1649
330 38 2144
331 38 1971
332 38 1343
333 38 1388
334 38 1683
335 38 815
336 38 588
337 38 684
338 38 557
339 38 650
340 38 2730
341 38 1146
342 38 834
343 38 1584
344 38 2078
345 38 562
346 38 1599
347 38 2667
348 38 1725
349 38 1367
350 38 507
351 38 1101
352 38 865
353 38 320
354 38 1229
355 38 1323
356 38 1736
357 38 1067
358 38 848
359 38 895
360 38 2845
361 38 1888
362 38 2210
363 38 1272
364 38 1676
365 38 1455
366 38 1293
367 38 1008
368 38 863
369 38 948
370 38 2541
371 38 1168
372 38 2365
373 38 1732
374 38 1739
375 38 1811
376 38 821
377 38 1923
378 38 963
379 38 1730
380 38 2771
381 38 1821
382 38 1554
383 38 1402
384 38 522
385 38 2036
386 38 1717
387 38 1032
388 38 1936
389 38 2669
390 38 1948
391 38 1525
392 38 1638
393 38 1141
394 38 2033
395 38 1188
396 38 3250
397 38 2006
398 38 1114
399 38 955
400 38 1737
401 38 1147
402 38 897
403 38 451
404 38 1218
405 38 2269
406 38 1686
407 38 1372
408 38 2208
409 38 1479
410 38 883
411 38 654
412 38 1256
413 38 1162
414 38 1779
415 38 2761
416 38 1182
417 38 1524
418 38 1742
419 38 1078
420 38 870
421 38 1512
422 38 2467
423 38 1288
424 38 2201
425 38 1483
426 38 898
427 38 421
428 38 1002
429 38 941
430 38 1463
431 38 806
432 38 2466
433 38 1867
434 38 707
435 38 1754
436 38 1318
437 38 2536
438 38 596
439 38 1908
440 38 1921
441 38 1017
442 38 1796
443 38 845
444 38 1322
445 38 1722
446 38 950
447 38 1985
448 38 1500
449 38 1343
450 38 934
451 38 2153
452 38 1197
453 38 1463
454 38 373
455 38 1012
456 38 1000
457 38 932
458 38 2013
459 38 1468
460 38 1378
461 38 1320
462 38 1609
463 38 1165
464 38 741
465 38 578
466 38 1645
467 38 702
468 38 859
469 38 1026
470 38 1470
471 38 744
472 38 1281
473 38 286
474 38 1774
475 38 1415
476 38 2138
477 38 1784
478 38 1768
479 38 1115
480 38 3265
481 38 876
482 38 1780
483 38 1334
484 38 1208
485 38 992
486 38 2937
487 38 804
488 38 1338
489 38 1647
490 38 2742
491 38 839
492 38 1486
493 38 2163
494 38 1324
495 38 1046
496 38 564
497 38 1590
498 38 1415
499 38 1996
500 38 929
1 39 185
2 39 605
3 39 973
4 39 403
5 39 88
6 39 7
7 39 792
8 39 613
9 39 1737
10 39 707
11 39 1100
12 39 562
13 39 468
14 39 461
15 39 454
16 39 49
17 39 214
18 39 598
19 39 249
20 39 312
21 39 634
22 39 526
23 39 112
24 39 565
25 39 551
26 39 287
27 39 314
28 39 1667
29 39 609
30 39 437
31 39 21
32 39 388
33 39 607
34 39 543
35 39 37
36 39 13
37 39 40
38 39 322
39 39 179
40 39 18
41 39 1045
42 39 588
43 39 247
44 39 408
45 39 9
46 39 383
47 39 1032
48 39 145
49 39 387
50 39 937
51 39 252
52 39 94
53 39 61
54 39 605
55 39 7
56 39 1007
57 39 44
58 39 1094
59 39 941
60 39 1260
61 39 471
62 39 89
63 39 163
64 39 983
65 39 5
66 39 206
67 39 473
68 39 639
69 39 552
70 39 574
71 39 131
72 39 830
73 39 49
74 39 1456
75 39 1671
76 39 107
77 39 808
78 39 427
79 39 641
80 39 1069
81 39 575
82 39 548
83 39 822
84 39 92
85 39 1288
86 39 6
87 39 491
88 39 360
89 39 145
90 39 1866
91 39 639
92 39 523
93 39 138
94 39 1160
95 39 7
96 39 518
97 39 535
98 39 505
99 39 780
100 39 1307
101 39 966
102 39 698
103 39 1094
104 39 309
105 39 60
106 39 1302
107 39 1298
108 39 201
109 39 121
110 39 815
111 39 225
112 39 452
114 39 46
115 39 1304
116 39 873
117 39 686
118 39 338
119 39 906
120 39 1149
121 39 71
122 39 75
123 39 15
124 39 69
125 39 370
126 39 432
127 39 1281
128 39 1330
129 39 164
130 39 543
131 39 762
132 39 526
133 39 149
134 39 246
135 39 853
136 39 586
137 39 18
138 39 325
139 39 15
140 39 17
141 39 552
142 39 173
143 39 561
144 39 78
145 39 675
146 39 676
147 39 42
148 39 1021
149 39 710
150 39 221
151 39 1425
152 39 451
153 39 588
154 39 16
155 39 876
156 39 15
157 39 443
158 39 650
159 39 877
160 39 810
161 39 1134
162 39 1097
163 39 749
164 39 910
165 39 560
166 39 7
167 39 478
168 39 977
169 39 316
170 39 626
171 39 36
172 39 85
173 39 221
174 39 108
175 39 1081
176 39 1040
177 39 684
178 39 527
179 39 1122
180 39 22
181 39 787
182 39 13
183 39 565
184 39 20
185 39 861
186 39 307
187 39 1092
188 39 607
189 39 817
190 39 7
191 39 142
192 39 830
193 39 1085
194 39 577
195 39 1249
196 39 667
197 39 53
198 39 1271
199 39 560
200 39 647
201 39 739
202 39 638
203 39 244
204 39 184
205 39 237
206 39 1140
207 39 1115
208 39 41
209 39 488
210 39 516
211 39 735
212 39 130
213 39 522
214 39 1461
215 39 633
216 39 829
217 39 381
218 39 965
219 39 1394
220 39 577
221 39 564
222 39 104
223 39 156
224 39 1090
225 39 587
226 39 80
227 39 697
229 39 630
230 39 13
231 39 458
232 39 91
233 39 496
234 39 526
235 39 146
236 39 500
237 39 731
238 39 649
239 39 4
240 39 420
241 39 22
242 39 378
243 39 12
244 39 43
245 39 1029
246 39 55
247 39 1193
248 39 533
249 39 1242
250 39 398
251 39 1317
252 39 1053
253 39 756
254 39 1140
255 39 719
256 39 1119
257 39 71
258 39 353
259 39 612
260 39 367
261 39 1905
262 39 764
263 39 649
264 39 829
265 39 534
266 39 316
267 39 631
268 39 796
269 39 399
270 39 21
271 39 253
272 39 96
273 39 1027
274 39 524
275 39 293
276 39 1130
277 39 930
278 39 102
279 39 163
280 39 741
281 39 318
282 39 51
283 39 333
284 39 346
285 39 916
286 39 14
288 39 299
289 39 678
290 39 669
291 39 540
292 39 236
293 39 53
294 39 1032
295 39 670
296 39 188
297 39 702
298 39 1200
299 39 211
300 39 297
301 39 361
302 39 610
303 39 125
304 39 524
305 39 1233
306 39 187
307 39 280
308 39 999
309 39 367
310 39 468
311 39 1113
312 39 627
313 39 379
314 39 1377
315 39 713
316 39 1318
317 39 793
318 39 1129
319 39 3
320 39 1074
321 39 982
322 39 24
323 39 702
324 39 682
325 39 65
326 39 900
327 39 295
328 39 924
329 39 1102
330 39 87
331 39 680
332 39 78
334 39 10
335 39 296
336 39 465
337 39 580
338 39 475
339 39 665
340 39 4
341 39 233
342 39 44
343 39 114
344 39 794
345 39 455
346 39 1005
347 39 321
348 39 3
349 39 513
350 39 784
351 39 179
352 39 855
353 39 1101
354 39 1060
355 39 634
356 39 795
357 39 861
358 39 500
359 39 628
360 39 366
361 39 911
362 39 37
363 39 755
364 39 12
365 39 525
366 39 89
367 39 178
368 39 595
369 39 587
370 39 380
371 39 177
372 39 1135
373 39 1261
374 39 396
375 39 1309
376 39 668
377 39 1070
378 39 1321
379 39 318
381 39 1088
382 39 418
383 39 640
384 39 265
385 39 738
386 39 318
387 39 351
388 39 150
389 39 7
390 39 174
391 39 448
392 39 1094
393 39 723
394 39 1583
395 39 834
396 39 457
397 39 582
398 39 572
399 39 629
400 39 373
401 39 76
402 39 173
403 39 1233
404 39 708
405 39 218
406 39 42
407 39 328
408 39 47
409 39 406
410 39 552
411 39 835
412 39 371
413 39 471
414 39 594
415 39 5
416 39 560
417 39 433
418 39 1084
419 39 1108
420 39 498
421 39 682
422 39 135
423 39 558
424 39 774
425 39 332
426 39 951
427 39 527
428 39 834
429 39 5
430 39 258
431 39 46
432 39 40
433 39 37
434 39 820
435 39 711
436 39 1233
437 39 18
438 39 267
439 39 1231
440 39 49
441 39 413
442 39 21
443 39 296
444 39 63
445 39 686
446 39 88
447 39 45
448 39 962
449 39 550
450 39 17
451 39 1195
452 39 452
453 39 802
454 39 1048
455 39 470
456 39 882
457 39 205
458 39 12
459 39 21
460 39 76
461 39 709
462 39 1033
463 39 359
464 39 1077
465 39 734
466 39 257
467 39 780
468 39 183
469 39 658
470 39 1015
471 39 162
472 39 406
473 39 216
474 39 109
475 39 565
476 39 1236
477 39 611
478 39 1137
479 39 42
480 39 24
481 39 505
482 39 695
483 39 7
484 39 9
485 39 357
487 39 453
488 39 501
490 39 7
491 39 598
492 39 936
493 39 88
494 39 709
495 39 471
496 39 580
497 39 1057
498 39 803
499 39 912
500 39 1073
1 40 322
2 40 470
3 40 1420
4 40 1380
5 40 46
6 40 77
7 40 770
8 40 1117
9 40 877
10 40 1140
11 40 429
12 40 785
13 40 994
14 40 479
15 40 1323
16 40 549
17 40 1134
18 40 1168
19 40 1261
20 40 547
21 40 437
22 40 755
23 40 123
24 40 1159
25 40 939
26 40 964
27 40 800
28 40 924
29 40 1134
30 40 756
31 40 128
32 40 1551
33 40 427
34 40 1035
35 40 44
36 40 172
37 40 18
38 40 1834
39 40 139
40 40 142
41 40 619
42 40 1910
43 40 1197
44 40 1281
45 40 61
46 40 256
47 40 1025
48 40 19
49 40 1305
50 40 1090
51 40 148
52 40 139
53 40 91
54 40 646
55 40 152
56 40 601
57 40 174
58 40 1028
59 40 1015
60 40 887
61 40 760
62 40 78
63 40 170
64 40 912
65 40 101
66 40 819
67 40 996
68 40 1390
69 40 1162
70 40 1337
71 40 815
72 40 258
73 40 177
74 40 1591
75 40 942
76 40 144
77 40 989
78 40 280
79 40 1944
80 40 1064
81 40 1113
82 40 885
83 40 651
85 40 705
86 40 8
87 40 718
88 40 1263
89 40 57
90 40 1288
91 40 1185
92 40 772
93 40 194
94 40 1282
95 40 101
96 40 293
97 40 1119
98 40 795
99 40 822
100 40 932
101 40 765
102 40 660
103 40 1322
104 40 919
105 40 133
106 40 497
107 40 1537
108 40 250
109 40 801
110 40 1033
111 40 212
112 40 685
113 40 57
114 40 73
115 40 744
116 40 1441
117 40 789
118 40 410
119 40 1023
120 40 1555
121 40 22
122 40 58
123 40 6
124 40 186
125 40 699
126 40 1253
127 40 741
128 40 837
129 40 383
130 40 739
131 40 782
132 40 1233
133 40 636
134 40 707
135 40 1111
136 40 302
137 40 60
138 40 774
139 40 68
140 40 174
141 40 1564
142 40 36
143 40 1911
144 40 19
145 40 1145
146 40 262
147 40 26
148 40 956
149 40 1240
150 40 662
151 40 720
152 40 282
153 40 683
154 40 87
155 40 1194
156 40 172
157 40 273
158 40 428
159 40 536
160 40 1130
161 40 1643
162 40 413
163 40 1455
164 40 1125
165 40 806
166 40 3
167 40 652
168 40 1225
169 40 730
170 40 434
171 40 113
172 40 127
173 40 742
174 40 437
175 40 1417
176 40 1138
177 40 1157
178 40 1255
179 40 644
180 40 39
181 40 274
182 40 75
183 40 770
184 40 168
185 40 996
186 40 251
187 40 906
188 40 712
189 40 276
190 40 52
191 40 458
192 40 481
193 40 416
194 40 1165
195 40 908
196 40 442
197 40 73
198 40 828
199 40 1320
200 40 1373
201 40 1123
202 40 1127
203 40 565
204 40 134
205 40 254
206 40 1526
207 40 590
208 40 20
209 40 327
210 40 849
211 40 1176
212 40 791
213 40 1286
214 40 1505
215 40 766
216 40 1423
217 40 481
218 40 1186
219 40 217
220 40 1158
221 40 853
222 40 385
223 40 65
224 40 1016
225 40 1085
226 40 55
227 40 458
229 40 934
230 40 113
231 40 910
232 40 140
233 40 262
234 40 1552
235 40 94
236 40 728
237 40 417
238 40 1012
239 40 11
240 40 1312
241 40 18
242 40 594
243 40 67
244 40 182
245 40 732
246 40 74
247 40 2326
248 40 807
249 40 1987
250 40 351
251 40 673
252 40 1551
253 40 1307
254 40 954
255 40 665
256 40 1099
257 40 225
258 40 2013
259 40 1366
260 40 1330
261 40 1271
262 40 1391
263 40 1063
264 40 603
265 40 1222
266 40 1566
267 40 2293
268 40 1071
269 40 453
270 40 39
271 40 702
272 40 75
273 40 698
274 40 1600
275 40 419
276 40 437
277 40 909
278 40 81
279 40 77
280 40 792
281 40 874
282 40 127
283 40 941
284 40 2462
285 40 1367
286 40 88
287 40 26
288 40 1440
289 40 699
290 40 260
291 40 732
292 40 1045
293 40 4
294 40 1171
295 40 1112
296 40 85
297 40 463
298 40 525
299 40 225
300 40 1450
301 40 561
302 40 264
303 40 266
304 40 676
305 40 851
306 40 857
307 40 508
308 40 1397
309 40 301
310 40 660
311 40 1598
312 40 402
313 40 1362
314 40 731
315 40 1149
316 40 757
317 40 795
318 40 1401
319 40 94
320 40 1218
321 40 395
322 40 8
323 40 1174
324 40 789
325 40 168
326 40 1605
327 40 627
328 40 1027
329 40 1241
330 40 79
331 40 1403
332 40 99
333 40 44
334 40 135
335 40 1393
336 40 842
337 40 1164
338 40 828
339 40 245
340 40 144
341 40 697
342 40 135
343 40 198
344 40 782
345 40 828
346 40 1486
347 40 1762
348 40 91
349 40 711
350 40 695
351 40 70
352 40 980
353 40 735
354 40 1235
355 40 1357
356 40 960
357 40 506
358 40 871
359 40 2313
360 40 471
361 40 1294
362 40 95
363 40 251
364 40 73
365 40 792
366 40 335
367 40 60
368 40 611
369 40 1200
370 40 1429
371 40 1669
372 40 1023
373 40 1984
374 40 609
375 40 909
376 40 1106
377 40 838
378 40 1376
379 40 918
380 40 33
381 40 1559
382 40 306
383 40 1590
384 40 1021
385 40 307
386 40 945
387 40 419
388 40 258
389 40 162
390 40 883
391 40 321
392 40 625
393 40 1244
394 40 1557
395 40 1124
396 40 608
397 40 1026
398 40 453
399 40 792
400 40 1536
401 40 263
402 40 491
403 40 590
404 40 714
405 40 663
406 40 78
407 40 388
408 40 90
409 40 910
410 40 144
411 40 267
412 40 356
413 40 988
414 40 284
415 40 146
416 40 444
417 40 894
418 40 897
419 40 286
420 40 817
421 40 728
422 40 463
423 40 566
424 40 361
425 40 1587
426 40 746
427 40 788
428 40 113
429 40 267
430 40 769
431 40 48
432 40 29
433 40 69
434 40 274
435 40 693
436 40 1352
437 40 153
438 40 278
439 40 942
440 40 52
441 40 647
442 40 56
443 40 1333
444 40 185
445 40 814
446 40 19
447 40 77
448 40 1201
449 40 580
450 40 79
451 40 955
452 40 899
453 40 1529
454 40 1347
455 40 638
456 40 495
457 40 851
458 40 191
459 40 55
460 40 176
461 40 712
462 40 620
463 40 307
464 40 686
465 40 610
466 40 220
467 40 629
468 40 516
469 40 738
470 40 1202
471 40 139
472 40 347
473 40 232
474 40 357
475 40 1149
476 40 1197
477 40 1108
478 40 1451
479 40 75
480 40 22
481 40 856
482 40 727
483 40 7
484 40 195
485 40 1100
487 40 925
488 40 685
489 40 14
490 40 17
491 40 458
492 40 1058
493 40 284
494 40 287
495 40 375
496 40 927
497 40 1255
498 40 2102
499 40 1267
500 40 680
1 41 67
4 41 4
5 41 995
6 41 768
20 41 142
21 41 7
23 41 130
24 41 51
26 41 3
28 41 7
31 41 653
33 41 5
34 41 1
35 41 712
36 41 213
37 41 324
38 41 155
39 41 156
40 41 396
45 41 349
48 41 327
49 41 107
51 41 102
52 41 238
53 41 358
54 41 5
55 41 640
57 41 353
62 41 591
63 41 222
64 41 20
65 41 351
69 41 42
71 41 155
73 41 312
75 41 1
76 41 138
84 41 498
86 41 586
89 41 153
93 41 370
94 41 5
95 41 463
104 41 6
105 41 321
106 41 31
108 41 126
109 41 185
113 41 437
114 41 233
119 41 53
121 41 276
122 41 319
123 41 1793
124 41 109
126 41 3
129 41 176
132 41 136
135 41 5
137 41 582
139 41 812
140 41 210
142 41 312
144 41 316
146 41 3
147 41 530
154 41 597
156 41 440
158 41 4
166 41 524
168 41 69
169 41 102
171 41 253
172 41 251
180 41 398
182 41 564
184 41 425
186 41 115
190 41 728
191 41 131
194 41 45
196 41 6
197 41 287
199 41 35
203 41 100
204 41 315
205 41 116
208 41 972
212 41 169
213 41 34
217 41 126
220 41 40
222 41 109
223 41 363
226 41 249
227 41 18
228 41 379
229 41 26
230 41 243
232 41 346
235 41 384
238 41 33
239 41 638
240 41 116
241 41 204
242 41 4
243 41 801
244 41 321
246 41 395
247 41 11
257 41 186
264 41 47
265 41 43
266 41 22
267 41 4
269 41 15
270 41 462
272 41 318
278 41 271
279 41 239
282 41 199
283 41 4
286 41 441
287 41 235
293 41 251
296 41 315
299 41 177
301 41 4
302 41 88
303 41 95
306 41 82
307 41 133
309 41 129
313 41 131
319 41 200
322 41 370
324 41 4
325 41 294
326 41 13
327 41 94
330 41 342
332 41 966
333 41 776
334 41 245
339 41 4
340 41 354
342 41 316
343 41 132
347 41 189
348 41 468
351 41 489
359 41 5
360 41 119
362 41 155
364 41 248
366 41 52
367 41 131
369 41 44
370 41 10
379 41 4
380 41 346
385 41 101
386 41 5
388 41 87
389 41 310
390 41 106
392 41 26
395 41 7
396 41 75
401 41 343
405 41 161
406 41 318
408 41 347
410 41 32
414 41 101
415 41 345
422 41 110
423 41 3
424 41 45
425 41 52
429 41 275
431 41 252
432 41 246
433 41 393
435 41 54
437 41 386
440 41 380
442 41 211
444 41 165
445 41 65
446 41 303
447 41 401
449 41 6
450 41 96
452 41 146
453 41 6
456 41 4
458 41 392
459 41 449
460 41 266
462 41 21
463 41 135
466 41 263
471 41 354
473 41 97
474 41 286
476 41 7
479 41 203
480 41 760
482 41 69
483 41 606
484 41 346
486 41 382
489 41 402
490 41 254
491 41 2
493 41 357
495 41 108
1 42 95
4 42 14
5 42 717
6 42 1301
20 42 122
23 42 801
24 42 16
26 42 5
31 42 945
35 42 1367
36 42 825
37 42 812
38 42 48
39 42 602
40 42 2364
45 42 557
48 42 889
49 42 16
51 42 144
52 42 496
53 42 1409
55 42 1067
57 42 1101
62 42 1182
63 42 414
64 42 5
65 42 1273
69 42 17
71 42 144
73 42 1041
76 42 576
84 42 1611
86 42 1097
89 42 189
93 42 449
95 42 1829
104 42 6
105 42 942
106 42 44
108 42 327
109 42 154
113 42 1607
114 42 429
119 42 15
121 42 717
122 42 462
123 42 1788
124 42 192
129 42 271
132 42 89
137 42 1500
139 42 1682
140 42 770
142 42 700
144 42 736
147 42 1082
154 42 581
156 42 1142
166 42 1123
169 42 197
171 42 1067
172 42 1079
180 42 520
182 42 1382
184 42 1622
186 42 50
190 42 1296
191 42 197
194 42 12
197 42 1288
203 42 83
204 42 320
205 42 472
208 42 451
212 42 166
216 42 8
217 42 179
220 42 15
222 42 108
223 42 2251
226 42 1572
228 42 582
229 42 16
230 42 912
232 42 1453
235 42 426
238 42 12
239 42 1048
240 42 26
241 42 1367
243 42 433
244 42 1335
246 42 366
247 42 4
257 42 624
264 42 27
265 42 12
266 42 75
269 42 131
270 42 914
272 42 2241
278 42 887
279 42 1153
282 42 1150
283 42 4
286 42 369
287 42 1500
293 42 1198
296 42 247
299 42 270
302 42 306
303 42 460
306 42 182
307 42 132
309 42 231
313 42 10
319 42 1285
322 42 1814
324 42 19
325 42 389
327 42 254
330 42 2245
332 42 905
333 42 2142
334 42 737
340 42 1235
342 42 660
343 42 219
347 42 59
348 42 1709
351 42 1531
360 42 219
362 42 1147
364 42 931
366 42 509
367 42 105
369 42 19
370 42 11
379 42 7
380 42 1304
385 42 117
386 42 8
388 42 471
389 42 1183
390 42 178
392 42 2
396 42 110
401 42 869
405 42 163
406 42 1159
408 42 826
410 42 1
414 42 288
415 42 1242
422 42 221
424 42 109
425 42 59
429 42 583
431 42 1247
432 42 348
433 42 1206
435 42 21
437 42 620
440 42 1467
442 42 948
444 42 280
445 42 86
446 42 825
447 42 1491
450 42 589
453 42 24
458 42 782
459 42 1467
460 42 413
462 42 3
463 42 246
466 42 245
471 42 433
473 42 302
474 42 171
476 42 15
479 42 1489
480 42 823
482 42 22
483 42 1088
484 42 860
486 42 568
489 42 1241
490 42 1130
493 42 613
495 42 399
1 43 2019
3 43 29
4 43 788
5 43 1579
6 43 3019
12 43 6
20 43 795
21 43 36
23 43 2652
24 43 53
26 43 3
31 43 1346
33 43 7
34 43 15
35 43 1173
36 43 1310
37 43 2162
38 43 725
39 43 1960
40 43 1088
41 43 33
45 43 2161
48 43 2146
49 43 1438
50 43 81
51 43 2020
52 43 1266
53 43 2016
54 43 12
55 43 1549
57 43 710
62 43 1319
63 43 601
64 43 84
65 43 1088
68 43 4
69 43 66
71 43 578
73 43 696
76 43 1293
83 43 7
84 43 1429
85 43 74
86 43 1530
89 43 677
93 43 2279
94 43 198
95 43 1497
97 43 11
100 43 180
104 43 214
105 43 3271
106 43 527
108 43 1075
109 43 565
113 43 1543
114 43 1166
115 43 73
119 43 413
121 43 1501
122 43 2006
123 43 2771
124 43 1606
125 43 13
126 43 6
127 43 64
128 43 26
129 43 1348
132 43 1445
133 43 6
134 43 3
135 43 53
137 43 1303
139 43 1429
140 43 1389
142 43 2424
143 43 341
144 43 1542
146 43 13
147 43 2374
150 43 5
154 43 2040
156 43 1739
158 43 5
161 43 2
164 43 88
165 43 2
166 43 860
167 43 5
168 43 320
169 43 2041
171 43 1414
172 43 832
174 43 4
179 43 28
180 43 1156
182 43 1321
183 43 5
184 43 2910
186 43 632
190 43 3020
191 43 1435
194 43 61
196 43 10
197 43 803
199 43 41
200 43 5
203 43 2097
204 43 1663
205 43 2145
207 43 34
208 43 1167
209 43 40
212 43 562
213 43 36
216 43 9
217 43 765
220 43 68
222 43 531
223 43 722
225 43 52
226 43 2293
227 43 29
228 43 1268
229 43 489
230 43 710
231 43 16
232 43 1670
235 43 2597
238 43 534
239 43 1655
240 43 1451
241 43 2238
242 43 6
243 43 1566
244 43 779
246 43 2240
247 43 146
249 43 4
250 43 35
257 43 2165
262 43 8
263 43 56
264 43 503
265 43 66
266 43 220
267 43 50
269 43 1030
270 43 1156
272 43 2686
278 43 1254
279 43 2067
282 43 1045
283 43 209
284 43 15
286 43 1495
287 43 1677
291 43 10
293 43 871
296 43 1373
299 43 1375
301 43 7
302 43 1536
303 43 335
306 43 967
307 43 820
308 43 26
309 43 1460
312 43 31
313 43 1451
314 43 17
316 43 75
319 43 1501
322 43 2598
324 43 303
325 43 1799
326 43 297
327 43 597
328 43 67
330 43 2771
331 43 3
332 43 1782
333 43 844
334 43 1800
339 43 6
340 43 2401
342 43 1600
343 43 554
347 43 698
348 43 1324
351 43 1020
359 43 57
360 43 774
362 43 1781
364 43 1373
366 43 1474
367 43 821
369 43 66
370 43 866
373 43 7
379 43 211
380 43 455
381 43 4
385 43 2056
386 43 209
388 43 356
389 43 2454
390 43 1016
392 43 774
395 43 64
396 43 610
401 43 1700
405 43 640
406 43 1090
408 43 2218
410 43 634
412 43 37
414 43 1533
415 43 2454
418 43 8
422 43 1450
423 43 82
424 43 379
425 43 705
428 43 40
429 43 1007
431 43 1622
432 43 1507
433 43 1298
435 43 460
437 43 1613
440 43 2661
442 43 1173
444 43 1468
445 43 939
446 43 2866
447 43 2687
449 43 98
450 43 702
452 43 881
453 43 992
456 43 63
458 43 1398
459 43 1661
460 43 1905
462 43 808
463 43 1382
466 43 678
471 43 2612
473 43 1019
474 43 634
476 43 503
479 43 1518
480 43 3346
482 43 469
483 43 1600
484 43 969
486 43 1292
489 43 1846
490 43 1558
491 43 14
493 43 1262
495 43 2551
497 43 5
499 43 6
1 44 2114
2 44 559
3 44 919
4 44 647
5 44 1882
6 44 1187
7 44 568
8 44 1049
9 44 484
10 44 639
11 44 480
12 44 1228
13 44 788
14 44 851
15 44 918
16 44 376
17 44 1017
18 44 553
19 44 1117
20 44 1190
21 44 608
22 44 644
23 44 1061
24 44 622
25 44 204
26 44 183
27 44 401
28 44 571
29 44 1023
30 44 438
31 44 1705
32 44 177
33 44 423
34 44 624
35 44 1319
36 44 514
37 44 487
38 44 802
39 44 564
40 44 944
41 44 1196
42 44 1432
43 44 1119
44 44 255
45 44 2453
46 44 380
47 44 674
48 44 373
49 44 1298
50 44 315
51 44 1061
52 44 763
53 44 348
54 44 700
55 44 791
56 44 462
57 44 480
58 44 1081
59 44 751
60 44 883
61 44 717
62 44 1163
63 44 1154
64 44 624
65 44 1108
66 44 837
67 44 345
68 44 1229
69 44 619
70 44 665
71 44 610
72 44 617
73 44 527
74 44 684
75 44 582
76 44 1023
77 44 406
78 44 839
79 44 1446
80 44 605
81 44 942
82 44 293
83 44 420
84 44 1071
85 44 731
86 44 1272
87 44 175
88 44 375
89 44 672
90 44 848
91 44 647
92 44 522
93 44 789
94 44 1473
95 44 253
96 44 482
97 44 508
98 44 341
99 44 593
100 44 254
101 44 701
102 44 499
103 44 222
104 44 583
105 44 1037
106 44 484
107 44 293
108 44 598
109 44 580
110 44 607
111 44 159
112 44 634
113 44 1145
114 44 1164
115 44 692
116 44 562
117 44 489
118 44 1127
119 44 1450
120 44 499
121 44 267
122 44 747
123 44 589
124 44 620
125 44 328
126 44 831
127 44 721
128 44 691
129 44 667
130 44 612
131 44 570
132 44 1246
133 44 595
134 44 763
135 44 1187
136 44 183
137 44 528
138 44 651
139 44 553
140 44 550
141 44 146
142 44 698
143 44 1238
144 44 262
145 44 146
146 44 723
147 44 1627
148 44 752
149 44 1110
150 44 294
151 44 451
152 44 386
153 44 371
154 44 779
155 44 903
156 44 904
157 44 408
158 44 399
159 44 758
160 44 875
161 44 367
162 44 475
163 44 1128
164 44 299
165 44 1239
166 44 519
167 44 241
168 44 848
169 44 778
170 44 1143
171 44 443
172 44 1117
173 44 249
174 44 668
175 44 241
176 44 734
177 44 296
178 44 326
179 44 1222
180 44 1355
181 44 720
182 44 554
183 44 1166
184 44 1683
185 44 410
186 44 1115
187 44 457
188 44 727
189 44 701
190 44 1262
191 44 1177
192 44 881
193 44 448
194 44 626
195 44 822
196 44 420
197 44 2595
198 44 926
199 44 353
200 44 1217
201 44 168
202 44 990
203 44 914
204 44 1691
205 44 984
206 44 338
207 44 1229
208 44 654
209 44 494
210 44 591
211 44 1173
212 44 499
213 44 384
214 44 1731
215 44 704
216 44 828
217 44 765
218 44 589
219 44 610
220 44 639
221 44 649
222 44 1117
223 44 675
224 44 622
225 44 1077
226 44 628
227 44 649
228 44 1381
229 44 893
230 44 1020
231 44 286
232 44 868
233 44 395
234 44 146
235 44 1699
236 44 150
237 44 365
238 44 973
239 44 1356
240 44 1325
241 44 1445
242 44 906
243 44 927
244 44 1548
245 44 567
246 44 679
247 44 1691
248 44 605
249 44 820
250 44 1219
251 44 228
252 44 344
253 44 650
254 44 833
255 44 352
256 44 669
257 44 2533
258 44 336
259 44 626
260 44 1118
261 44 919
262 44 1156
263 44 1097
264 44 658
265 44 614
266 44 2525
267 44 1358
268 44 831
269 44 451
270 44 1205
271 44 1728
272 44 548
273 44 910
274 44 129
275 44 446
276 44 510
277 44 1164
278 44 737
279 44 1946
280 44 589
281 44 685
282 44 2029
283 44 596
284 44 761
285 44 515
286 44 387
287 44 1506
288 44 1755
289 44 732
290 44 653
291 44 552
292 44 854
293 44 784
294 44 751
295 44 653
296 44 886
297 44 391
298 44 772
299 44 1028
300 44 1883
301 44 954
302 44 412
303 44 1711
304 44 169
305 44 900
306 44 1063
307 44 1122
308 44 880
309 44 1523
310 44 341
311 44 531
312 44 451
313 44 1267
314 44 770
315 44 139
316 44 711
317 44 550
318 44 369
319 44 929
320 44 284
321 44 341
322 44 1576
323 44 302
324 44 746
325 44 1140
326 44 425
327 44 919
328 44 336
329 44 285
330 44 576
331 44 1248
332 44 1246
333 44 1242
334 44 760
335 44 284
336 44 196
337 44 1021
338 44 184
339 44 731
340 44 885
341 44 234
342 44 341
343 44 1870
344 44 628
345 44 171
346 44 371
347 44 822
348 44 1229
349 44 188
350 44 1220
351 44 487
352 44 465
353 44 574
354 44 828
355 44 699
356 44 798
357 44 905
358 44 284
359 44 1444
360 44 782
361 44 690
362 44 664
363 44 673
364 44 873
365 44 1221
366 44 341
367 44 1524
368 44 880
369 44 651
370 44 597
371 44 606
372 44 1128
373 44 943
374 44 598
375 44 898
376 44 623
377 44 497
378 44 982
379 44 584
380 44 1094
381 44 341
382 44 228
383 44 968
384 44 871
385 44 2015
386 44 563
387 44 350
388 44 1681
389 44 817
390 44 1062
391 44 221
392 44 735
393 44 1195
394 44 380
395 44 1190
396 44 1065
397 44 1084
398 44 548
399 44 662
400 44 186
401 44 1335
402 44 188
403 44 562
404 44 354
405 44 834
406 44 427
407 44 1196
408 44 1269
409 44 1018
410 44 140
411 44 617
412 44 1195
413 44 385
414 44 408
415 44 838
416 44 602
417 44 991
418 44 948
419 44 1037
420 44 365
421 44 175
422 44 1197
423 44 322
424 44 1301
425 44 829
426 44 594
427 44 665
428 44 760
429 44 269
430 44 1672
431 44 862
432 44 1134
433 44 1158
434 44 588
435 44 945
436 44 329
437 44 937
438 44 194
439 44 854
440 44 1043
441 44 399
442 44 1062
443 44 275
444 44 720
445 44 653
446 44 1224
447 44 1193
448 44 860
449 44 361
450 44 1607
451 44 1146
452 44 905
453 44 379
454 44 245
455 44 648
456 44 493
457 44 852
458 44 461
459 44 617
460 44 1084
461 44 384
462 44 686
463 44 1442
464 44 371
465 44 471
466 44 533
467 44 775
468 44 180
469 44 727
470 44 952
471 44 1048
472 44 878
473 44 489
474 44 374
475 44 477
476 44 1227
477 44 1035
478 44 352
479 44 354
480 44 1873
481 44 326
482 44 1041
483 44 1382
484 44 319
485 44 488
486 44 1410
487 44 768
488 44 175
489 44 971
490 44 647
491 44 402
492 44 1073
493 44 598
494 44 629
495 44 1433
496 44 215
497 44 1135
498 44 526
499 44 721
500 44 533
1 45 1006
3 45 249
4 45 584
5 45 1903
6 45 1543
7 45 178
8 45 669
9 45 1115
10 45 43
11 45 118
12 45 99
13 45 14
15 45 417
17 45 470
18 45 355
20 45 503
22 45 58
23 45 1554
24 45 133
25 45 309
28 45 734
29 45 669
30 45 81
31 45 1409
32 45 139
34 45 3
35 45 962
36 45 1116
37 45 1326
38 45 697
39 45 393
40 45 1194
41 45 835
42 45 391
44 45 6
45 45 1451
46 45 49
47 45 922
48 45 1691
49 45 981
50 45 882
51 45 774
52 45 1352
53 45 1155
54 45 74
55 45 1205
56 45 902
57 45 728
58 45 715
59 45 860
60 45 1228
62 45 711
63 45 273
64 45 821
65 45 1240
68 45 630
69 45 167
70 45 164
71 45 1162
72 45 5
73 45 728
74 45 986
75 45 703
76 45 2173
77 45 41
78 45 427
79 45 310
80 45 15
81 45 579
84 45 864
85 45 1184
86 45 1739
87 45 718
88 45 1468
89 45 1234
90 45 1309
91 45 756
92 45 702
93 45 1253
94 45 492
95 45 1859
96 45 663
97 45 322
98 45 307
99 45 51
100 45 1098
101 45 679
102 45 45
103 45 41
104 45 1070
105 45 1323
106 45 834
107 45 689
108 45 1650
109 45 1246
111 45 37
113 45 547
114 45 907
115 45 1181
116 45 955
118 45 1241
119 45 2609
120 45 1278
121 45 570
122 45 2330
123 45 814
124 45 376
127 45 1245
129 45 785
130 45 71
131 45 186
132 45 282
134 45 980
135 45 36
136 45 14
137 45 1706
138 45 104
139 45 1025
140 45 1151
141 45 99
142 45 1233
143 45 1746
144 45 536
145 45 290
146 45 15
147 45 547
148 45 965
149 45 961
151 45 1826
152 45 170
153 45 55
154 45 617
155 45 197
156 45 1938
157 45 160
160 45 169
161 45 317
162 45 154
163 45 1278
164 45 811
165 45 100
166 45 1276
167 45 45
168 45 75
169 45 418
170 45 583
171 45 745
172 45 2114
175 45 42
176 45 302
177 45 12
178 45 452
179 45 740
180 45 2051
181 45 877
182 45 1846
183 45 100
184 45 2194
185 45 1749
186 45 540
187 45 658
188 45 468
189 45 847
190 45 1599
191 45 1581
193 45 151
194 45 122
195 45 1222
197 45 1145
198 45 1276
199 45 936
200 45 558
201 45 323
202 45 686
203 45 1488
204 45 824
205 45 661
206 45 430
207 45 783
208 45 974
210 45 428
211 45 997
212 45 1132
213 45 908
214 45 1085
215 45 437
216 45 1431
217 45 774
218 45 752
219 45 1011
220 45 130
222 45 745
223 45 428
224 45 17
225 45 982
226 45 1349
228 45 2985
229 45 981
230 45 698
232 45 404
233 45 169
234 45 101
235 45 1174
236 45 700
237 45 24
238 45 942
239 45 1702
240 45 983
241 45 805
242 45 725
243 45 1339
244 45 1502
245 45 105
246 45 386
247 45 1274
248 45 454
249 45 365
250 45 619
251 45 352
252 45 437
253 45 104
254 45 1143
255 45 1054
256 45 307
257 45 1469
258 45 365
259 45 111
260 45 805
261 45 1273
262 45 606
263 45 987
264 45 264
265 45 143
266 45 1400
267 45 635
268 45 526
269 45 376
270 45 1589
271 45 389
272 45 1347
274 45 102
275 45 204
276 45 121
277 45 1217
278 45 1871
279 45 738
280 45 64
281 45 71
282 45 660
283 45 1002
284 45 1235
285 45 957
286 45 1120
287 45 1087
288 45 966
289 45 437
290 45 559
292 45 100
293 45 662
295 45 117
296 45 2780
298 45 830
299 45 1923
300 45 927
301 45 720
302 45 1043
303 45 596
304 45 692
305 45 1232
306 45 2593
307 45 495
308 45 302
309 45 1043
311 45 1387
312 45 201
313 45 954
315 45 319
316 45 1178
317 45 145
318 45 399
319 45 788
320 45 739
321 45 444
322 45 1332
323 45 9
324 45 905
325 45 797
326 45 1678
327 45 746
328 45 814
329 45 745
330 45 1377
331 45 569
332 45 1477
333 45 947
334 45 1324
335 45 4
336 45 110
337 45 562
338 45 96
339 45 22
340 45 1465
342 45 1120
343 45 1549
344 45 186
345 45 123
346 45 2060
347 45 676
348 45 1280
349 45 700
350 45 1414
351 45 880
352 45 1738
355 45 169
356 45 547
358 45 292
359 45 612
360 45 828
361 45 1051
362 45 1606
363 45 588
364 45 987
365 45 777
366 45 898
367 45 674
369 45 112
370 45 553
371 45 616
372 45 691
373 45 329
374 45 933
375 45 1259
376 45 854
377 45 644
378 45 877
379 45 995
380 45 1008
381 45 333
382 45 734
383 45 76
384 45 90
385 45 375
386 45 1070
387 45 17
388 45 588
389 45 1464
390 45 2590
391 45 725
393 45 993
394 45 473
395 45 22
396 45 1651
397 45 889
400 45 167
401 45 1043
402 45 398
403 45 5
404 45 1034
405 45 334
406 45 908
407 45 1298
408 45 1388
410 45 139
411 45 7
412 45 641
414 45 975
415 45 1436
418 45 1096
419 45 324
420 45 282
422 45 1457
424 45 819
425 45 265
426 45 88
427 45 45
429 45 1624
430 45 405
431 45 1541
432 45 1348
433 45 2059
434 45 4
435 45 1917
436 45 632
437 45 978
438 45 40
439 45 1255
440 45 489
442 45 687
443 45 5
444 45 1100
445 45 372
446 45 679
447 45 563
448 45 352
450 45 1992
451 45 1374
452 45 232
453 45 1723
454 45 46
456 45 3
458 45 847
459 45 1559
460 45 805
461 45 1039
463 45 1029
464 45 980
466 45 1066
467 45 3
468 45 349
469 45 452
470 45 341
471 45 1420
473 45 670
474 45 2309
475 45 1196
476 45 834
477 45 680
478 45 471
479 45 1113
480 45 2681
481 45 290
482 45 1949
483 45 1823
484 45 2382
485 45 34
486 45 2994
488 45 736
489 45 722
490 45 1593
492 45 273
493 45 1316
494 45 614
495 45 1334
496 45 283
497 45 78
498 45 332
499 45 1147
500 45 113
1 46 15
2 46 574
3 46 274
6 46 20
7 46 1413
8 46 1022
9 46 307
10 46 232
11 46 1630
12 46 121
13 46 86
14 46 327
15 46 86
16 46 369
17 46 5
18 46 64
19 46 590
20 46 2
21 46 669
22 46 76
23 46 14
24 46 321
25 46 43
26 46 898
27 46 998
28 46 31
29 46 1037
30 46 62
31 46 16
32 46 67
33 46 597
34 46 722
36 46 14
37 46 7
38 46 54
39 46 45
40 46 18
42 46 159
43 46 578
44 46 72
45 46 13
46 46 166
47 46 35
48 46 71
49 46 97
50 46 19
51 46 79
53 46 16
54 46 1263
55 46 69
56 46 30
57 46 6
58 46 19
59 46 41
60 46 1156
61 46 369
62 46 7
63 46 11
64 46 11
65 46 10
66 46 1401
67 46 391
68 46 374
69 46 350
70 46 83
72 46 187
73 46 6
74 46 833
75 46 39
76 46 9
77 46 21
78 46 360
79 46 148
80 46 600
81 46 404
82 46 511
83 46 492
84 46 3
85 46 33
86 46 60
87 46 1187
88 46 42
89 46 28
90 46 95
91 46 33
92 46 101
93 46 4
94 46 71
95 46 15
96 46 28
97 46 60
98 46 681
99 46 113
100 46 176
101 46 1546
102 46 62
103 46 1894
104 46 35
105 46 39
106 46 20
107 46 44
108 46 2
110 46 816
111 46 34
112 46 317
113 46 13
114 46 42
115 46 36
116 46 74
117 46 1179
118 46 18
119 46 101
120 46 180
121 46 15
122 46 12
123 46 22
124 46 12
125 46 622
126 46 1294
127 46 33
128 46 1035
129 46 4
130 46 69
131 46 1486
132 46 11
133 46 646
134 46 12
135 46 185
136 46 112
138 46 25
139 46 6
140 46 18
141 46 1194
142 46 15
143 46 44
144 46 26
145 46 18
146 46 92
147 46 16
148 46 1243
149 46 243
150 46 1553
151 46 89
152 46 46
153 46 41
155 46 1168
156 46 31
157 46 57
158 46 589
159 46 312
160 46 1163
161 46 108
162 46 1612
163 46 37
164 46 14
165 46 96
166 46 10
167 46 206
168 46 91
169 46 64
170 46 46
171 46 5
172 46 66
173 46 259
174 46 468
175 46 1974
176 46 43
177 46 173
178 46 59
180 46 16
181 46 105
183 46 128
185 46 138
186 46 36
187 46 1015
188 46 1446
189 46 81
190 46 21
191 46 6
192 46 194
193 46 1634
194 46 331
195 46 86
196 46 617
197 46 3
198 46 1163
199 46 60
200 46 362
201 46 19
202 46 1037
203 46 73
204 46 5
205 46 16
206 46 516
208 46 7
209 46 696
210 46 30
211 46 243
213 46 61
214 46 78
215 46 1504
216 46 7
217 46 79
218 46 36
219 46 47
220 46 358
221 46 551
222 46 5
224 46 581
225 46 40
226 46 2
227 46 635
228 46 17
229 46 81
230 46 18
231 46 327
232 46 42
233 46 50
234 46 1207
235 46 5
236 46 1158
237 46 38
238 46 64
239 46 57
240 46 95
241 46 34
242 46 98
243 46 6
244 46 8
245 46 88
246 46 18
247 46 133
248 46 18
249 46 683
250 46 5
251 46 77
252 46 509
253 46 95
254 46 93
255 46 80
256 46 48
257 46 13
258 46 1108
259 46 54
260 46 1222
261 46 75
262 46 377
263 46 33
264 46 30
265 46 392
266 46 14
267 46 68
268 46 27
269 46 56
271 46 607
272 46 63
273 46 1206
274 46 1240
275 46 10
276 46 1606
277 46 16
278 46 6
279 46 38
280 46 120
281 46 168
283 46 39
284 46 15
285 46 82
286 46 7
287 46 112
288 46 296
289 46 1465
290 46 277
291 46 1205
292 46 32
293 46 2
294 46 537
295 46 61
296 46 133
297 46 318
298 46 125
299 46 25
300 46 299
301 46 80
302 46 71
303 46 82
304 46 1193
305 46 1156
307 46 3
308 46 234
309 46 4
310 46 538
311 46 175
312 46 165
313 46 121
314 46 1026
315 46 32
316 46 30
317 46 16
318 46 477
319 46 17
320 46 222
321 46 145
322 46 16
323 46 171
324 46 16
325 46 20
326 46 20
327 46 19
328 46 14
329 46 208
330 46 66
331 46 391
332 46 66
333 46 14
334 46 9
335 46 413
336 46 57
337 46 431
338 46 53
339 46 79
340 46 4
341 46 235
342 46 43
344 46 1454
345 46 59
346 46 4
347 46 47
348 46 10
349 46 1204
350 46 621
351 46 2
352 46 135
353 46 908
354 46 579
355 46 94
356 46 32
357 46 227
358 46 668
359 46 72
360 46 85
361 46 63
362 46 5
363 46 290
365 46 32
366 46 81
368 46 373
369 46 377
371 46 128
372 46 22
373 46 704
374 46 185
375 46 1147
376 46 27
377 46 1076
378 46 110
379 46 33
380 46 8
381 46 109
382 46 46
383 46 30
384 46 38
385 46 58
386 46 31
387 46 833
388 46 73
389 46 8
391 46 44
392 46 553
393 46 222
394 46 104
395 46 176
396 46 26
397 46 18
398 46 505
399 46 744
400 46 80
401 46 5
402 46 64
403 46 117
404 46 66
405 46 34
406 46 49
407 46 14
409 46 708
410 46 84
411 46 168
412 46 5
413 46 400
414 46 81
415 46 8
416 46 528
417 46 743
418 46 52
419 46 50
420 46 625
421 46 1246
422 46 6
423 46 382
424 46 40
425 46 154
426 46 92
427 46 84
428 46 1112
429 46 9
430 46 589
431 46 63
432 46 18
433 46 18
434 46 181
435 46 44
436 46 46
437 46 79
438 46 40
439 46 1137
440 46 13
441 46 576
443 46 416
444 46 36
445 46 18
446 46 10
447 46 16
448 46 125
449 46 363
450 46 16
451 46 16
452 46 250
453 46 34
454 46 1915
455 46 323
456 46 691
457 46 1452
458 46 53
459 46 43
460 46 26
461 46 78
462 46 530
463 46 6
464 46 31
465 46 475
466 46 134
467 46 1267
468 46 65
469 46 1493
470 46 118
471 46 97
472 46 693
473 46 14
474 46 6
475 46 214
476 46 17
477 46 998
478 46 464
479 46 4
480 46 5
481 46 654
482 46 39
483 46 65
484 46 15
485 46 154
486 46 20
487 46 1549
488 46 1185
489 46 49
490 46 18
491 46 618
492 46 52
493 46 36
494 46 313
495 46 21
496 46 35
497 46 83
498 46 82
499 46 59
500 46 71
1 47 7
2 47 111
3 47 233
4 47 72
5 47 55
6 47 115
7 47 109
8 47 390
9 47 108
10 47 27
11 47 706
12 47 40
13 47 4
14 47 8
15 47 24
17 47 15
18 47 10
20 47 67
21 47 5
22 47 15
23 47 18
24 47 720
26 47 31
27 47 16
28 47 27
29 47 399
30 47 7
34 47 10
35 47 12
36 47 14
37 47 39
38 47 6
39 47 7
40 47 89
41 47 19
42 47 53
44 47 30
45 47 10
46 47 7
47 47 15
48 47 46
49 47 44
51 47 28
52 47 6
53 47 43
54 47 285
55 47 13
57 47 21
59 47 16
60 47 279
61 47 366
62 47 48
63 47 4
64 47 4
65 47 12
66 47 303
67 47 10
68 47 666
69 47 770
70 47 15
71 47 3
72 47 9
73 47 21
74 47 1064
75 47 44
76 47 11
78 47 413
79 47 56
80 47 263
81 47 486
82 47 786
83 47 7
84 47 25
85 47 79
86 47 100
87 47 534
88 47 59
91 47 30
92 47 84
93 47 55
94 47 18
95 47 44
97 47 3
98 47 73
99 47 9
101 47 620
102 47 11
103 47 660
105 47 21
106 47 44
107 47 56
108 47 10
109 47 6
111 47 15
112 47 21
114 47 35
115 47 75
116 47 47
117 47 70
118 47 27
119 47 51
120 47 116
121 47 14
122 47 47
123 47 15
125 47 26
126 47 106
127 47 81
128 47 104
129 47 34
130 47 11
131 47 100
132 47 28
133 47 125
134 47 5
135 47 5
136 47 25
137 47 119
138 47 7
140 47 21
141 47 254
142 47 6
143 47 18
144 47 18
145 47 33
146 47 32
147 47 14
148 47 371
149 47 148
150 47 47
151 47 48
153 47 4
154 47 23
155 47 416
159 47 6
160 47 442
161 47 37
162 47 728
163 47 25
165 47 45
166 47 5
167 47 3
169 47 34
170 47 1
171 47 40
173 47 6
175 47 675
176 47 32
178 47 26
179 47 24
180 47 6
181 47 87
182 47 119
183 47 43
184 47 7
185 47 45
186 47 4
187 47 482
188 47 498
189 47 92
190 47 122
191 47 52
192 47 4
193 47 748
194 47 683
195 47 36
197 47 6
198 47 312
199 47 16
200 47 635
201 47 27
202 47 416
203 47 16
204 47 9
205 47 40
206 47 528
207 47 15
208 47 18
209 47 5
210 47 16
211 47 161
212 47 7
213 47 12
214 47 56
215 47 542
216 47 67
217 47 22
218 47 17
219 47 56
220 47 758
224 47 308
225 47 47
226 47 11
227 47 3
228 47 13
229 47 2
230 47 9
232 47 43
234 47 244
235 47 110
236 47 561
237 47 3
238 47 8
239 47 90
240 47 41
241 47 3
242 47 7
243 47 4
244 47 10
245 47 3
247 47 37
248 47 10
249 47 185
250 47 6
251 47 14
252 47 524
253 47 3
254 47 41
255 47 31
256 47 31
257 47 7
258 47 162
259 47 27
260 47 382
262 47 683
263 47 58
264 47 14
265 47 730
266 47 10
267 47 128
268 47 2
269 47 3
270 47 35
271 47 79
272 47 47
273 47 138
274 47 260
275 47 26
276 47 744
277 47 8
278 47 18
279 47 33
280 47 7
281 47 4
282 47 61
284 47 32
285 47 45
286 47 25
287 47 1
288 47 215
289 47 516
290 47 85
291 47 9
292 47 29
294 47 10
295 47 17
296 47 10
297 47 5
298 47 98
299 47 4
300 47 230
301 47 4
302 47 4
304 47 573
305 47 295
306 47 56
307 47 48
308 47 230
309 47 16
310 47 553
311 47 113
312 47 32
313 47 30
314 47 115
315 47 33
316 47 72
317 47 6
318 47 520
319 47 91
320 47 48
321 47 115
322 47 9
324 47 12
326 47 18
327 47 36
329 47 52
330 47 45
331 47 647
333 47 6
334 47 60
335 47 60
336 47 5
337 47 485
338 47 7
339 47 24
340 47 100
341 47 7
343 47 5
344 47 103
345 47 3
346 47 66
347 47 6
348 47 10
349 47 559
350 47 694
352 47 36
353 47 7
354 47 12
355 47 18
356 47 3
357 47 3
358 47 63
359 47 122
360 47 18
363 47 111
364 47 35
365 47 10
366 47 5
367 47 18
368 47 4
369 47 708
370 47 91
371 47 7
373 47 194
374 47 57
375 47 312
376 47 28
377 47 476
378 47 48
380 47 18
381 47 36
382 47 99
383 47 15
384 47 30
385 47 8
387 47 881
389 47 101
390 47 59
391 47 94
392 47 17
393 47 150
394 47 77
395 47 7
396 47 19
397 47 20
398 47 33
399 47 5
401 47 7
403 47 23
404 47 27
405 47 35
406 47 19
407 47 33
408 47 7
409 47 579
410 47 13
411 47 6
412 47 7
413 47 4
414 47 11
415 47 77
416 47 25
417 47 531
418 47 17
419 47 18
420 47 56
421 47 162
422 47 40
424 47 14
425 47 4
426 47 11
427 47 15
428 47 12
429 47 19
430 47 88
432 47 40
433 47 12
434 47 11
435 47 3
436 47 55
437 47 66
438 47 26
439 47 324
440 47 12
441 47 575
442 47 34
443 47 43
444 47 27
445 47 9
446 47 37
447 47 19
448 47 14
450 47 5
451 47 25
452 47 17
453 47 29
454 47 636
455 47 14
456 47 110
457 47 305
458 47 20
459 47 9
461 47 25
462 47 14
463 47 22
464 47 26
465 47 4
467 47 434
469 47 518
470 47 12
471 47 41
472 47 12
473 47 31
474 47 21
475 47 17
476 47 101
477 47 408
478 47 504
479 47 5
480 47 4
481 47 65
482 47 4
483 47 93
484 47 64
485 47 5
486 47 17
487 47 311
488 47 561
490 47 8
492 47 4
493 47 31
494 47 84
495 47 24
497 47 2
498 47 245
500 47 8
1 48 2174
2 48 1166
3 48 2167
4 48 1268
5 48 3648
6 48 2871
7 48 3402
8 48 2064
9 48 4192
10 48 2166
11 48 2021
12 48 1388
13 48 1812
14 48 841
15 48 1364
16 48 848
17 48 1198
18 48 1947
19 48 1599
20 48 1273
21 48 1311
22 48 1826
23 48 2912
24 48 1387
25 48 1782
26 48 2160
27 48 1340
28 48 1975
29 48 2025
30 48 1440
31 48 3579
32 48 1146
33 48 1816
34 48 2080
35 48 3659
36 48 2839
37 48 3098
38 48 2685
39 48 1385
40 48 2135
41 48 2088
42 48 3126
43 48 1576
44 48 721
45 48 3372
46 48 1515
47 48 3273
48 48 2554
49 48 1718
50 48 1843
51 48 1345
52 48 2838
53 48 2694
54 48 1884
55 48 1736
56 48 2784
57 48 3976
58 48 2044
59 48 3127
60 48 2197
61 48 1135
62 48 3192
63 48 1449
64 48 2977
65 48 1840
66 48 908
67 48 1334
68 48 1844
69 48 1469
70 48 2006
71 48 1957
72 48 1194
73 48 4270
74 48 1667
75 48 1964
76 48 4095
77 48 897
78 48 1563
79 48 3010
80 48 1571
81 48 1008
82 48 1029
83 48 1311
84 48 4436
85 48 2080
86 48 3103
87 48 2072
88 48 1484
89 48 2210
90 48 3545
91 48 3146
92 48 1434
93 48 3045
94 48 2486
95 48 3902
96 48 2101
97 48 1646
98 48 1187
99 48 1379
100 48 3600
101 48 1682
102 48 1248
103 48 1509
104 48 2195
105 48 2145
106 48 2523
107 48 2119
108 48 2604
109 48 2000
110 48 1056
111 48 870
112 48 1340
113 48 2918
114 48 1906
115 48 2122
116 48 2209
117 48 2203
118 48 2259
119 48 2029
120 48 2083
121 48 3646
122 48 4664
123 48 2388
124 48 2666
125 48 2357
126 48 1838
127 48 2095
128 48 1755
129 48 1702
130 48 1749
131 48 3449
132 48 2447
133 48 1628
134 48 1575
135 48 1950
136 48 765
137 48 3276
138 48 1494
139 48 1950
140 48 2842
141 48 2125
142 48 4513
143 48 1890
144 48 3659
145 48 1149
146 48 769
147 48 2420
148 48 967
149 48 1888
150 48 1607
151 48 2785
152 48 821
153 48 1315
154 48 3302
155 48 1637
156 48 3735
157 48 819
158 48 1684
159 48 2127
160 48 1670
161 48 1076
162 48 2029
163 48 2302
164 48 1767
165 48 1378
166 48 2749
167 48 3597
168 48 3477
169 48 2645
170 48 1857
171 48 1130
172 48 2252
173 48 1440
174 48 1191
175 48 1554
176 48 1669
177 48 1554
178 48 3050
179 48 2223
180 48 3354
181 48 1708
182 48 3303
183 48 1377
184 48 2929
185 48 1433
186 48 1552
187 48 2608
188 48 1417
189 48 1836
190 48 2753
191 48 3108
192 48 1525
193 48 2036
194 48 1393
195 48 1382
196 48 1763
197 48 2684
198 48 2142
199 48 2284
200 48 1855
201 48 1161
202 48 2051
203 48 1641
204 48 2693
205 48 4006
206 48 1756
207 48 2192
208 48 3334
209 48 732
210 48 1557
211 48 1892
212 48 1897
213 48 2276
214 48 1581
215 48 1400
216 48 2175
217 48 1530
218 48 2196
219 48 1257
220 48 1450
221 48 1578
222 48 1689
223 48 3459
224 48 1589
225 48 2649
226 48 2629
227 48 1338
228 48 2658
229 48 1970
230 48 3234
231 48 1574
232 48 2579
233 48 824
234 48 2205
235 48 2052
236 48 2080
237 48 2178
238 48 1918
239 48 3149
240 48 1732
241 48 1131
242 48 1802
243 48 3396
244 48 3238
245 48 1655
246 48 2223
247 48 2551
248 48 1543
249 48 2410
250 48 2661
251 48 1936
252 48 1720
253 48 2512
254 48 1491
255 48 2904
256 48 1726
257 48 3872
258 48 1211
259 48 1662
260 48 2360
261 48 3549
262 48 1749
263 48 2679
264 48 2385
265 48 1398
266 48 2527
267 48 2324
268 48 1564
269 48 2887
270 48 1958
271 48 1111
272 48 2518
273 48 2832
274 48 2226
275 48 2411
276 48 1927
277 48 2423
278 48 3114
279 48 2445
280 48 1413
281 48 2279
282 48 2988
283 48 2219
284 48 1805
285 48 2065
286 48 1341
287 48 1474
288 48 3446
289 48 1421
290 48 1991
291 48 1229
292 48 1008
293 48 2598
294 48 1269
295 48 1833
296 48 798
297 48 664
298 48 1901
299 48 3316
300 48 3353
301 48 1825
302 48 1848
303 48 2563
304 48 2222
305 48 2268
306 48 2659
307 48 1261
308 48 2085
309 48 4463
310 48 2672
311 48 2117
312 48 2171
313 48 1707
314 48 1761
315 48 1143
316 48 2130
317 48 965
318 48 1751
319 48 2319
320 48 2510
321 48 2946
322 48 3279
323 48 1572
324 48 2164
325 48 3652
326 48 2675
327 48 3054
328 48 1829
329 48 2561
330 48 2603
331 48 1795
332 48 2552
333 48 3001
334 48 3516
335 48 1825
336 48 1642
337 48 967
338 48 1624
339 48 774
340 48 1471
341 48 1449
342 48 4000
343 48 1795
344 48 3470
345 48 1654
346 48 2581
347 48 2669
348 48 3792
349 48 2114
350 48 2330
351 48 1093
352 48 1413
353 48 1347
354 48 1297
355 48 1848
356 48 1505
357 48 1566
358 48 1119
359 48 2318
360 48 1581
361 48 1807
362 48 2102
363 48 2034
364 48 3073
365 48 3378
366 48 3053
367 48 2495
368 48 1219
369 48 1443
370 48 1229
371 48 1014
372 48 2074
373 48 2361
374 48 2812
375 48 2173
376 48 3061
377 48 2575
378 48 2059
379 48 2232
380 48 2850
381 48 1134
382 48 1773
383 48 1010
384 48 1076
385 48 1914
386 48 2192
387 48 1316
388 48 2643
389 48 1476
390 48 2720
391 48 1759
392 48 1674
393 48 1868
394 48 2018
395 48 1869
396 48 2531
397 48 1453
398 48 1291
399 48 1391
400 48 1092
401 48 4077
402 48 1530
403 48 698
404 48 2791
405 48 3833
406 48 3047
407 48 2146
408 48 4576
409 48 1691
410 48 2919
411 48 1240
412 48 2629
413 48 1341
414 48 1948
415 48 1483
416 48 1351
417 48 1671
418 48 2272
419 48 2233
420 48 1168
421 48 792
422 48 3285
423 48 838
424 48 2965
425 48 1795
426 48 1657
427 48 1803
428 48 1512
429 48 1878
430 48 1121
431 48 2890
432 48 2393
433 48 3794
434 48 1217
435 48 1744
436 48 2171
437 48 3078
438 48 468
439 48 2162
440 48 3425
441 48 2674
442 48 2561
443 48 1957
444 48 2224
445 48 1452
446 48 2547
447 48 3474
448 48 3188
449 48 823
450 48 2871
451 48 2245
452 48 2338
453 48 3282
454 48 1567
455 48 1359
456 48 1829
457 48 943
458 48 4235
459 48 1964
460 48 3611
461 48 2854
462 48 1573
463 48 4328
464 48 1746
465 48 1626
466 48 3904
467 48 643
468 48 1508
469 48 1392
470 48 3267
471 48 2772
472 48 1587
473 48 2181
474 48 2515
475 48 2347
476 48 1884
477 48 2018
478 48 1706
479 48 2129
480 48 2083
481 48 1134
482 48 1700
483 48 3173
484 48 2995
485 48 801
486 48 2709
487 48 2907
488 48 2178
489 48 1991
490 48 2450
491 48 1758
492 48 1646
493 48 2681
494 48 2076
495 48 1403
496 48 1715
497 48 2000
498 48 1253
499 48 1833
500 48 1660
3 49 1
8 49 7
11 49 4
29 49 4
34 49 7
44 49 2
45 49 6
60 49 5
61 49 5
67 49 4
74 49 1
78 49 8
80 49 39
81 49 40
82 49 25
84 49 10
98 49 7
101 49 19
103 49 7
132 49 1
141 49 48
145 49 2
148 49 6
149 49 14
159 49 4
162 49 4
167 49 8
169 49 4
175 49 2
177 49 3
178 49 4
181 49 2
187 49 4
188 49 65
189 49 9
193 49 3
198 49 8
201 49 5
202 49 5
203 49 6
209 49 4
211 49 13
215 49 68
216 49 8
224 49 37
234 49 76
249 49 2
258 49 4
271 49 5
274 49 55
276 49 1
289 49 61
296 49 7
305 49 1
308 49 2
315 49 4
323 49 2
337 49 39
358 49 5
373 49 5
375 49 4
377 49 13
387 49 6
393 49 18
394 49 6
399 49 4
410 49 9
413 49 4
420 49 3
421 49 11
430 49 2
439 49 10
448 49 7
452 49 8
454 49 3
465 49 3
469 49 63
470 49 5
477 49 5
479 49 5
480 49 5
481 49 6
487 49 38
3 50 3
8 50 1
9 50 6
10 50 5
18 50 6
23 50 23
25 50 21
28 50 6
29 50 3
31 50 2
32 50 3
38 50 6
39 50 3
40 50 15
42 50 8
44 50 2
45 50 7
46 50 2
47 50 4
57 50 5
58 50 9
59 50 5
60 50 14
61 50 3
64 50 5
67 50 6
72 50 17
73 50 5
75 50 3
76 50 5
78 50 16
79 50 2
80 50 7
83 50 6
88 50 5
89 50 5
94 50 16
98 50 11
99 50 7
100 50 3
103 50 3
105 50 6
108 50 4
112 50 8
113 50 10
116 50 6
118 50 13
119 50 3
121 50 8
122 50 4
129 50 14
134 50 3
144 50 6
145 50 2
153 50 5
154 50 5
163 50 7
171 50 6
172 50 13
175 50 9
195 50 12
197 50 2
198 50 20
199 50 8
201 50 6
202 50 5
204 50 14
210 50 19
213 50 7
216 50 4
221 50 4
224 50 6
235 50 4
237 50 3
246 50 6
248 50 19
253 50 8
254 50 16
257 50 7
258 50 3
264 50 7
270 50 5
273 50 2
278 50 5
280 50 4
281 50 4
284 50 2
285 50 9
290 50 3
294 50 4
295 50 2
299 50 5
305 50 17
308 50 4
310 50 4
315 50 4
320 50 9
321 50 5
325 50 47
326 50 8
327 50 5
329 50 5
332 50 4
333 50 2
335 50 4
346 50 7
347 50 3
350 50 6
354 50 6
358 50 20
363 50 5
368 50 4
372 50 5
375 50 21
378 50 1
385 50 5
387 50 7
394 50 20
396 50 8
400 50 2
402 50 1
406 50 3
407 50 13
408 50 8
410 50 21
411 50 9
413 50 4
420 50 22
423 50 6
424 50 3
428 50 3
429 50 17
431 50 45
433 50 3
434 50 9
439 50 22
440 50 4
441 50 4
443 50 3
446 50 18
447 50 8
448 50 8
449 50 3
450 50 18
453 50 20
454 50 5
455 50 10
460 50 36
464 50 7
465 50 4
466 50 9
468 50 1
470 50 2
474 50 12
477 50 4
481 50 17
484 50 8
485 50 5
490 50 45
494 50 3
495 50 6
496 50 16
497 50 5
498 50 9
1 51 1448
2 51 697
3 51 1069
4 51 2212
5 51 1081
6 51 575
7 51 1356
8 51 637
9 51 852
10 51 859
11 51 949
12 51 706
13 51 913
14 51 314
15 51 601
16 51 608
17 51 748
18 51 1638
19 51 1094
20 51 2131
21 51 952
22 51 672
23 51 1895
24 51 961
25 51 1887
26 51 799
27 51 466
28 51 1465
29 51 715
30 51 416
31 51 457
32 51 600
33 51 725
34 51 1028
35 51 1788
36 51 1532
37 51 1179
38 51 1080
39 51 1587
40 51 2365
41 51 1268
42 51 1079
43 51 1179
44 51 560
45 51 1019
46 51 531
47 51 1225
48 51 729
49 51 2143
50 51 887
51 51 476
52 51 811
53 51 1247
54 51 998
55 51 966
56 51 628
57 51 731
58 51 689
59 51 1172
60 51 601
61 51 631
62 51 1510
63 51 1795
64 51 623
65 51 645
66 51 835
67 51 738
68 51 777
69 51 999
70 51 779
71 51 2514
72 51 555
73 51 745
74 51 877
75 51 1410
76 51 2147
77 51 668
78 51 550
79 51 1085
80 51 1556
81 51 1061
82 51 366
83 51 449
84 51 2722
85 51 807
86 51 1230
87 51 983
88 51 980
89 51 444
90 51 916
91 51 1012
92 51 415
93 51 1572
94 51 1653
95 51 1923
96 51 654
97 51 581
98 51 837
99 51 700
100 51 537
101 51 671
102 51 999
103 51 471
104 51 1228
105 51 1801
106 51 1489
107 51 533
108 51 446
109 51 2576
110 51 616
111 51 586
112 51 1131
113 51 1034
114 51 1210
115 51 728
116 51 361
117 51 876
118 51 1676
119 51 1187
120 51 517
121 51 900
122 51 1123
123 51 2235
124 51 1462
125 51 745
126 51 373
127 51 787
128 51 979
129 51 1362
130 51 695
131 51 1345
132 51 715
133 51 1244
134 51 1278
135 51 906
136 51 946
137 51 1195
138 51 617
139 51 700
140 51 1472
141 51 928
142 51 1383
143 51 1414
144 51 992
145 51 616
146 51 816
147 51 853
148 51 1173
149 51 1712
150 51 697
151 51 906
152 51 386
153 51 1062
154 51 1723
155 51 1668
156 51 872
157 51 418
158 51 789
159 51 682
160 51 1607
161 51 1003
162 51 976
163 51 1518
164 51 861
165 51 726
166 51 1062
167 51 1558
168 51 1760
169 51 886
170 51 885
171 51 556
172 51 1863
173 51 639
174 51 322
175 51 494
176 51 1021
177 51 928
178 51 662
179 51 1293
180 51 1437
181 51 542
182 51 1174
183 51 640
184 51 883
185 51 1149
186 51 916
187 51 2060
188 51 387
189 51 576
190 51 538
191 51 442
192 51 956
193 51 978
194 51 1036
195 51 481
196 51 781
197 51 612
198 51 581
199 51 1441
200 51 786
201 51 659
202 51 666
203 51 1762
204 51 902
205 51 823
206 51 654
207 51 1310
208 51 395
209 51 329
210 51 822
211 51 1755
212 51 2571
213 51 1394
214 51 1250
215 51 379
216 51 679
217 51 1632
218 51 1506
219 51 916
220 51 990
221 51 665
222 51 1230
223 51 1410
224 51 1626
225 51 959
226 51 831
227 51 1035
228 51 1577
229 51 1570
230 51 845
231 51 1107
232 51 740
233 51 415
234 51 896
235 51 1500
236 51 984
237 51 911
238 51 1554
239 51 1216
240 51 2076
241 51 2488
242 51 753
243 51 1562
244 51 2010
245 51 693
246 51 1573
247 51 1462
248 51 843
249 51 1158
250 51 642
251 51 948
252 51 628
253 51 904
254 51 476
255 51 1526
256 51 1068
257 51 556
258 51 922
259 51 380
260 51 1227
261 51 868
262 51 838
263 51 1007
264 51 802
265 51 1101
266 51 911
267 51 965
268 51 716
269 51 1497
270 51 1909
271 51 735
272 51 1136
273 51 485
274 51 937
275 51 713
276 51 965
277 51 801
278 51 1774
279 51 912
280 51 712
281 51 1695
282 51 1604
283 51 1255
284 51 1369
285 51 355
286 51 1107
287 51 383
288 51 1338
289 51 358
290 51 1160
291 51 1020
292 51 348
293 51 854
294 51 1229
295 51 1259
296 51 1670
297 51 464
298 51 309
299 51 1886
300 51 1262
301 51 746
302 51 1959
303 51 1720
304 51 926
305 51 645
306 51 1283
307 51 2136
308 51 965
309 51 1778
310 51 978
311 51 574
312 51 1067
313 51 2131
314 51 953
315 51 633
316 51 802
317 51 959
318 51 631
319 51 1328
320 51 754
321 51 502
322 51 484
323 51 875
324 51 1539
325 51 661
326 51 2712
327 51 1289
328 51 892
329 51 698
330 51 1121
331 51 862
332 51 951
333 51 1414
334 51 1235
335 51 644
336 51 374
337 51 1095
338 51 398
339 51 821
340 51 620
341 51 640
342 51 1581
343 51 466
344 51 1391
345 51 395
346 51 1123
347 51 1037
348 51 1818
349 51 917
350 51 1238
351 51 1425
352 51 1185
353 51 889
354 51 1274
355 51 748
356 51 788
357 51 899
358 51 931
359 51 1003
360 51 1720
361 51 1080
362 51 864
363 51 1122
364 51 2467
365 51 1343
366 51 754
367 51 1647
368 51 965
369 51 1007
370 51 2164
371 51 1222
372 51 640
373 51 1156
374 51 1001
375 51 626
376 51 1000
377 51 2005
378 51 765
379 51 1202
380 51 3219
381 51 1002
382 51 1021
383 51 564
384 51 337
385 51 1528
386 51 1232
387 51 1014
388 51 1722
389 51 635
390 51 1298
391 51 1036
392 51 574
393 51 1689
394 51 1546
395 51 933
396 51 930
397 51 1454
398 51 1222
399 51 528
400 51 548
401 51 1576
402 51 498
403 51 599
404 51 1507
405 51 727
406 51 1814
407 51 1571
408 51 706
409 51 1637
410 51 626
411 51 544
412 51 640
413 51 743
414 51 1980
415 51 581
416 51 1189
417 51 1668
418 51 1006
419 51 774
420 51 908
421 51 389
422 51 490
423 51 1958
424 51 1572
425 51 883
426 51 723
427 51 644
428 51 819
429 51 684
430 51 747
431 51 1404
432 51 1360
433 51 1960
434 51 528
435 51 948
436 51 552
437 51 1126
438 51 465
439 51 643
440 51 855
441 51 963
442 51 448
443 51 595
444 51 1499
445 51 1656
446 51 2251
447 51 933
448 51 1931
449 51 1997
450 51 1514
451 51 618
452 51 1677
453 51 1631
454 51 432
455 51 1088
456 51 1105
457 51 867
458 51 763
459 51 1478
460 51 676
461 51 1491
462 51 596
463 51 1745
464 51 878
465 51 779
466 51 920
467 51 500
468 51 555
469 51 364
470 51 1938
471 51 1723
472 51 895
473 51 875
474 51 810
475 51 1224
476 51 1576
477 51 685
478 51 656
479 51 735
480 51 2626
481 51 938
482 51 921
483 51 1217
484 51 1256
485 51 906
486 51 1490
487 51 619
488 51 933
489 51 1056
490 51 1576
491 51 770
492 51 1855
493 51 1226
494 51 1224
495 51 727
496 51 1980
497 51 1546
498 51 289
499 51 1141
500 51 704
1 52 369
2 52 140
3 52 631
4 52 1042
5 52 453
6 52 670
7 52 290
8 52 655
9 52 567
10 52 264
11 52 183
12 52 460
13 52 231
14 52 142
15 52 597
16 52 245
17 52 133
18 52 248
19 52 289
20 52 369
21 52 319
22 52 94
23 52 793
24 52 264
25 52 162
26 52 813
27 52 109
28 52 142
29 52 699
30 52 279
31 52 406
32 52 451
33 52 423
34 52 691
35 52 492
36 52 997
37 52 332
38 52 406
39 52 619
40 52 471
41 52 816
42 52 314
43 52 238
44 52 584
45 52 518
46 52 164
47 52 228
48 52 456
49 52 439
50 52 228
51 52 450
52 52 566
53 52 826
54 52 136
55 52 201
56 52 982
57 52 743
58 52 149
59 52 228
60 52 522
61 52 371
62 52 446
63 52 607
64 52 727
65 52 862
66 52 302
67 52 152
68 52 323
69 52 294
70 52 411
71 52 677
72 52 523
73 52 710
74 52 690
75 52 132
76 52 381
77 52 435
78 52 269
79 52 303
80 52 141
81 52 264
82 52 273
83 52 330
84 52 293
85 52 660
86 52 973
87 52 454
88 52 168
89 52 238
90 52 495
91 52 384
92 52 214
93 52 344
94 52 298
95 52 1118
96 52 318
97 52 759
98 52 808
99 52 302
100 52 570
101 52 308
102 52 243
103 52 252
104 52 277
105 52 644
106 52 311
107 52 160
108 52 633
109 52 644
110 52 451
111 52 94
112 52 533
113 52 539
114 52 645
115 52 711
116 52 970
117 52 150
118 52 531
119 52 399
120 52 334
121 52 403
122 52 454
123 52 738
124 52 199
125 52 355
126 52 268
127 52 705
128 52 391
129 52 255
130 52 120
131 52 310
132 52 1134
133 52 479
134 52 476
135 52 200
136 52 209
137 52 415
138 52 406
139 52 472
140 52 1019
141 52 265
142 52 1114
143 52 311
144 52 441
145 52 56
146 52 72
147 52 362
148 52 231
149 52 109
150 52 107
151 52 346
152 52 297
153 52 185
154 52 600
155 52 688
156 52 428
157 52 281
158 52 396
159 52 770
160 52 719
161 52 463
162 52 187
163 52 292
164 52 206
165 52 441
166 52 606
167 52 809
168 52 603
169 52 424
170 52 223
171 52 911
172 52 423
173 52 251
174 52 81
175 52 247
176 52 449
177 52 385
178 52 154
179 52 786
180 52 596
181 52 377
182 52 450
183 52 451
184 52 214
185 52 626
186 52 251
187 52 366
188 52 354
189 52 373
190 52 622
191 52 405
192 52 137
193 52 188
194 52 258
195 52 302
196 52 410
197 52 430
198 52 556
199 52 438
200 52 350
201 52 56
202 52 690
203 52 878
204 52 288
205 52 790
206 52 1070
207 52 760
208 52 370
209 52 145
210 52 360
211 52 96
212 52 639
213 52 443
214 52 1013
215 52 407
216 52 811
217 52 267
218 52 750
219 52 645
220 52 250
221 52 415
222 52 193
223 52 503
224 52 127
225 52 275
226 52 1071
227 52 313
228 52 577
229 52 282
230 52 230
231 52 220
232 52 267
233 52 273
234 52 258
235 52 163
236 52 396
237 52 511
238 52 297
239 52 1014
240 52 441
241 52 401
242 52 377
243 52 442
244 52 751
245 52 448
246 52 440
247 52 347
248 52 316
249 52 177
250 52 252
251 52 261
252 52 1075
253 52 621
254 52 358
255 52 175
256 52 456
257 52 602
258 52 306
259 52 293
260 52 370
261 52 476
262 52 331
263 52 289
264 52 199
265 52 234
266 52 426
267 52 959
268 52 192
269 52 304
270 52 420
271 52 174
272 52 445
273 52 624
274 52 274
275 52 124
276 52 178
277 52 750
278 52 1274
279 52 311
280 52 319
281 52 317
282 52 487
283 52 280
284 52 78
285 52 999
286 52 235
287 52 807
288 52 261
289 52 388
290 52 215
291 52 347
292 52 311
293 52 822
294 52 249
295 52 228
296 52 382
297 52 78
298 52 791
299 52 235
300 52 265
301 52 388
302 52 473
303 52 437
304 52 466
305 52 624
306 52 1152
307 52 383
308 52 599
309 52 955
310 52 513
311 52 356
312 52 667
313 52 470
314 52 435
315 52 47
316 52 729
317 52 391
318 52 1051
319 52 1104
320 52 682
321 52 167
322 52 202
323 52 351
324 52 468
325 52 253
326 52 985
327 52 297
328 52 229
329 52 676
330 52 493
331 52 339
332 52 438
333 52 476
334 52 403
335 52 98
336 52 287
337 52 266
338 52 297
339 52 59
340 52 620
341 52 220
342 52 268
343 52 331
344 52 299
345 52 306
346 52 430
347 52 448
348 52 265
349 52 432
350 52 243
351 52 339
352 52 683
353 52 171
354 52 232
355 52 415
356 52 188
357 52 145
358 52 818
359 52 982
360 52 253
361 52 485
362 52 638
363 52 223
364 52 757
365 52 741
366 52 674
367 52 830
368 52 444
369 52 275
370 52 1042
371 52 581
372 52 160
373 52 158
374 52 245
375 52 536
376 52 376
377 52 390
378 52 156
379 52 303
380 52 299
381 52 435
382 52 351
383 52 661
384 52 260
385 52 487
386 52 292
387 52 331
388 52 503
389 52 617
390 52 1164
391 52 326
392 52 420
393 52 85
394 52 683
395 52 200
396 52 681
397 52 699
398 52 279
399 52 282
400 52 427
401 52 1100
402 52 153
403 52 236
404 52 157
405 52 218
406 52 318
407 52 490
408 52 780
409 52 285
410 52 613
411 52 494
412 52 227
413 52 159
414 52 457
415 52 608
416 52 313
417 52 301
418 52 1012
419 52 387
420 52 827
421 52 167
422 52 400
423 52 230
424 52 177
425 52 940
426 52 466
427 52 97
428 52 76
429 52 175
430 52 207
431 52 375
432 52 515
433 52 560
434 52 488
435 52 416
436 52 192
437 52 324
438 52 157
439 52 555
440 52 504
441 52 501
442 52 590
443 52 86
444 52 259
445 52 554
446 52 345
447 52 579
448 52 488
449 52 221
450 52 604
451 52 1301
452 52 620
453 52 261
454 52 272
455 52 507
456 52 208
457 52 308
458 52 259
459 52 1004
460 52 240
461 52 181
462 52 405
463 52 1017
464 52 209
465 52 113
466 52 691
467 52 380
468 52 160
469 52 365
470 52 488
471 52 867
472 52 759
473 52 292
474 52 147
475 52 769
476 52 226
477 52 700
478 52 1009
479 52 668
480 52 451
481 52 816
482 52 372
483 52 1026
484 52 304
485 52 205
486 52 585
487 52 279
488 52 443
489 52 570
490 52 655
491 52 436
492 52 383
493 52 407
494 52 233
495 52 286
496 52 178
497 52 319
498 52 440
499 52 449
500 52 484
1 53 1364
2 53 469
3 53 772
4 53 1118
5 53 2305
6 53 344
7 53 1145
8 53 1137
9 53 547
10 53 183
11 53 913
12 53 940
13 53 577
14 53 310
15 53 619
16 53 656
17 53 569
18 53 276
19 53 743
20 53 1180
21 53 367
22 53 1099
23 53 1019
24 53 429
25 53 781
26 53 319
27 53 413
28 53 722
29 53 1094
30 53 580
31 53 753
32 53 769
33 53 568
34 53 823
35 53 678
36 53 677
37 53 1376
38 53 583
39 53 1078
40 53 1052
41 53 1184
42 53 357
43 53 692
44 53 380
45 53 2066
46 53 338
47 53 509
48 53 1200
49 53 598
50 53 851
51 53 1654
52 53 269
53 53 753
54 53 1216
55 53 336
56 53 937
57 53 621
58 53 576
59 53 521
60 53 1667
61 53 772
62 53 917
63 53 432
64 53 451
65 53 430
66 53 733
67 53 877
68 53 522
69 53 431
70 53 472
71 53 929
72 53 723
73 53 658
74 53 443
75 53 761
76 53 2340
77 53 904
78 53 312
79 53 438
80 53 1111
81 53 579
82 53 773
83 53 426
84 53 492
85 53 344
86 53 1688
87 53 579
88 53 973
89 53 1601
90 53 1972
91 53 1040
92 53 747
93 53 1065
94 53 829
95 53 1734
96 53 786
97 53 523
98 53 1260
99 53 666
100 53 568
101 53 736
102 53 316
103 53 452
104 53 1339
105 53 1885
106 53 340
107 53 685
108 53 1429
109 53 914
110 53 229
111 53 523
112 53 476
113 53 1178
114 53 557
115 53 391
116 53 444
117 53 726
118 53 314
119 53 923
120 53 1035
121 53 1698
122 53 576
123 53 2024
124 53 340
125 53 1610
126 53 1586
127 53 366
128 53 707
129 53 1721
130 53 1097
131 53 1129
132 53 814
133 53 944
134 53 966
135 53 746
136 53 681
137 53 956
138 53 230
139 53 1082
140 53 724
141 53 1062
142 53 460
143 53 1673
144 53 1632
145 53 1316
146 53 514
147 53 721
148 53 881
149 53 707
150 53 1112
151 53 1324
152 53 220
153 53 834
154 53 1223
155 53 403
156 53 1425
157 53 194
158 53 594
159 53 520
160 53 376
161 53 696
162 53 981
163 53 593
164 53 911
165 53 918
166 53 1259
167 53 1217
168 53 1572
169 53 949
170 53 268
171 53 1247
172 53 733
173 53 382
174 53 266
175 53 462
176 53 441
177 53 362
178 53 699
179 53 1185
180 53 549
181 53 848
182 53 967
183 53 962
184 53 1588
185 53 607
186 53 484
187 53 247
188 53 344
189 53 848
190 53 372
191 53 612
192 53 829
193 53 960
194 53 394
195 53 1074
196 53 605
197 53 1452
198 53 1561
199 53 707
200 53 466
201 53 1272
202 53 1129
203 53 779
204 53 933
205 53 741
206 53 1020
207 53 1234
208 53 939
209 53 598
210 53 696
211 53 754
212 53 868
213 53 731
214 53 872
215 53 327
216 53 1186
217 53 876
218 53 806
219 53 338
220 53 411
221 53 612
222 53 452
223 53 627
224 53 1067
225 53 363
226 53 625
227 53 353
228 53 322
229 53 314
230 53 1459
231 53 144
232 53 526
233 53 207
234 53 1048
235 53 508
236 53 574
237 53 475
238 53 309
239 53 1754
240 53 618
241 53 356
242 53 646
243 53 785
244 53 757
245 53 362
246 53 808
247 53 2461
248 53 655
249 53 1238
250 53 344
251 53 469
252 53 938
253 53 988
254 53 1116
255 53 1000
256 53 420
257 53 864
258 53 736
259 53 396
260 53 1002
261 53 1953
262 53 531
263 53 350
264 53 1415
265 53 466
266 53 648
267 53 1308
268 53 868
269 53 1632
270 53 2060
271 53 287
272 53 1210
273 53 527
274 53 1011
275 53 362
276 53 936
277 53 466
278 53 617
279 53 1601
280 53 611
281 53 669
282 53 1079
283 53 1329
284 53 388
285 53 437
286 53 703
287 53 844
288 53 288
289 53 320
290 53 1187
291 53 324
292 53 575
293 53 540
294 53 470
295 53 444
296 53 2262
297 53 500
298 53 295
299 53 850
300 53 312
301 53 619
302 53 1040
303 53 317
304 53 607
305 53 1629
306 53 656
307 53 1229
308 53 797
309 53 708
310 53 883
311 53 1113
312 53 909
313 53 599
314 53 764
315 53 1267
316 53 368
317 53 348
318 53 1025
319 53 1239
320 53 669
321 53 541
322 53 1729
323 53 371
324 53 574
325 53 1031
326 53 1182
327 53 1069
328 53 873
329 53 655
330 53 1176
331 53 521
332 53 488
333 53 985
334 53 375
335 53 746
336 53 360
337 53 555
338 53 360
339 53 527
340 53 2132
341 53 383
342 53 820
343 53 873
344 53 1107
345 53 344
346 53 597
347 53 581
348 53 1056
349 53 623
350 53 696
351 53 884
352 53 644
353 53 711
354 53 502
355 53 464
356 53 818
357 53 867
358 53 1197
359 53 1408
360 53 871
361 53 802
362 53 959
363 53 1194
364 53 552
365 53 375
366 53 569
367 53 680
368 53 762
369 53 448
370 53 1142
371 53 770
372 53 544
373 53 1243
374 53 1148
375 53 1708
376 53 1020
377 53 246
378 53 1033
379 53 1344
380 53 519
381 53 732
382 53 1566
383 53 992
384 53 615
385 53 1215
386 53 1313
387 53 891
388 53 312
389 53 2082
390 53 672
391 53 1523
392 53 500
393 53 722
394 53 623
395 53 765
396 53 614
397 53 312
398 53 755
399 53 464
400 53 738
401 53 1122
402 53 216
403 53 290
404 53 1094
405 53 1143
406 53 292
407 53 288
408 53 1317
409 53 495
410 53 589
411 53 759
412 53 391
413 53 835
414 53 1078
415 53 2140
416 53 745
417 53 476
418 53 538
419 53 516
420 53 1244
421 53 881
422 53 605
423 53 731
424 53 810
425 53 1717
426 53 420
427 53 1089
428 53 371
429 53 1178
430 53 298
431 53 764
432 53 901
433 53 901
434 53 714
435 53 1384
436 53 675
437 53 2519
438 53 421
439 53 1736
440 53 856
441 53 824
442 53 178
443 53 787
444 53 1033
445 53 879
446 53 1312
447 53 912
448 53 712
449 53 736
450 53 822
451 53 825
452 53 844
453 53 562
454 53 473
455 53 490
456 53 632
457 53 753
458 53 629
459 53 380
460 53 1018
461 53 1067
462 53 513
463 53 702
464 53 363
465 53 757
466 53 512
467 53 568
468 53 180
469 53 357
470 53 794
471 53 363
472 53 493
473 53 1149
474 53 1129
475 53 262
476 53 1467
477 53 1151
478 53 974
479 53 948
480 53 873
481 53 1227
482 53 1406
483 53 1764
484 53 1066
485 53 635
486 53 310
487 53 1095
488 53 613
489 53 1145
490 53 782
491 53 584
492 53 1635
493 53 468
494 53 1101
495 53 1208
496 53 787
497 53 415
498 53 370
499 53 866
500 53 413
41 54 5
57 54 3
62 54 3
65 54 7
67 54 2
73 54 7
76 54 4
77 54 1
86 54 17
87 54 3
114 54 8
124 54 8
134 54 6
137 54 3
142 54 6
143 54 5
155 54 7
156 54 4
160 54 1
161 54 6
173 54 4
174 54 2
176 54 6
179 54 6
182 54 6
184 54 9
192 54 1
205 54 7
207 54 7
222 54 4
228 54 20
236 54 4
239 54 12
253 54 8
256 54 5
264 54 5
277 54 5
281 54 7
291 54 7
299 54 3
304 54 5
317 54 2
319 54 6
320 54 8
329 54 5
341 54 3
343 54 9
349 54 7
357 54 2
378 54 5
381 54 7
383 54 5
394 54 5
396 54 5
398 54 4
413 54 6
416 54 4
424 54 4
428 54 9
476 54 8
483 54 20
486 54 17
488 54 8
1 55 1204
2 55 1357
3 55 1294
4 55 2009
5 55 1028
6 55 2806
7 55 2137
8 55 2653
9 55 2522
10 55 1449
11 55 1444
12 55 1094
13 55 1350
14 55 1022
15 55 2091
16 55 942
17 55 503
18 55 1314
19 55 773
20 55 2355
21 55 581
22 55 882
23 55 1356
24 55 1545
25 55 2218
26 55 1014
27 55 697
28 55 1844
29 55 2759
30 55 1746
31 55 2465
32 55 2174
33 55 736
34 55 1488
35 55 1672
36 55 2979
37 55 2674
38 55 1126
39 55 3030
40 55 1948
41 55 1719
42 55 2389
43 55 816
44 55 902
45 55 968
46 55 799
47 55 1895
48 55 2297
49 55 1615
50 55 1632
51 55 2482
52 55 2127
53 55 1347
54 55 2231
55 55 2980
56 55 2051
57 55 3215
58 55 1474
59 55 1928
60 55 2082
61 55 1307
62 55 1554
63 55 2346
64 55 3462
65 55 1699
66 55 1054
67 55 1814
68 55 1557
69 55 1504
70 55 1895
71 55 3078
72 55 409
73 55 3409
74 55 2555
75 55 1888
76 55 1766
77 55 1801
78 55 2023
79 55 2469
80 55 1151
81 55 2441
82 55 1783
83 55 1420
84 55 3036
85 55 1757
86 55 914
87 55 2105
88 55 1745
89 55 2946
90 55 3038
91 55 1399
92 55 1811
93 55 3003
94 55 1947
95 55 1554
96 55 1582
97 55 1005
98 55 1453
99 55 2375
100 55 1887
101 55 1744
102 55 921
103 55 1580
104 55 2512
105 55 1205
106 55 2206
107 55 1283
108 55 1686
109 55 3117
110 55 1339
111 55 1022
112 55 833
113 55 796
114 55 2290
115 55 1805
116 55 2769
117 55 1693
118 55 1831
119 55 1266
120 55 2225
121 55 2446
122 55 4641
123 55 2894
124 55 1485
125 55 1426
126 55 1215
127 55 1773
128 55 2367
129 55 1958
130 55 867
131 55 2153
132 55 1691
133 55 1373
134 55 3043
135 55 2945
136 55 1213
137 55 3760
138 55 1012
139 55 2671
140 55 3052
141 55 1692
142 55 3385
143 55 2345
144 55 2494
145 55 1002
146 55 727
147 55 2485
148 55 1477
149 55 909
150 55 1512
151 55 2016
152 55 1054
153 55 1331
154 55 2279
155 55 787
156 55 2640
157 55 1093
158 55 705
159 55 2056
160 55 825
161 55 1807
162 55 1464
163 55 1795
164 55 1607
165 55 1055
166 55 2749
167 55 873
168 55 2283
169 55 2764
170 55 1571
171 55 2090
172 55 2484
173 55 1175
174 55 565
175 55 1462
176 55 1722
177 55 1202
178 55 1858
179 55 1723
180 55 1689
181 55 1480
182 55 3795
183 55 1091
184 55 2266
185 55 1932
186 55 1764
187 55 2807
188 55 1302
189 55 1469
190 55 2789
191 55 2609
192 55 1437
193 55 1546
194 55 1500
195 55 2088
196 55 753
197 55 2909
198 55 2058
199 55 1675
200 55 1529
201 55 1031
202 55 2742
203 55 2936
204 55 2251
205 55 2072
206 55 1146
207 55 1740
208 55 985
209 55 942
210 55 794
211 55 904
212 55 3101
213 55 1747
214 55 2451
215 55 1322
216 55 1709
217 55 3675
218 55 1940
219 55 2203
220 55 1516
221 55 1174
222 55 1792
223 55 1676
224 55 1078
225 55 1451
226 55 1544
227 55 574
228 55 2827
229 55 2983
230 55 2105
231 55 606
232 55 2935
233 55 1011
234 55 1710
235 55 2066
236 55 1963
237 55 870
238 55 2992
239 55 955
240 55 1560
241 55 3016
242 55 1694
243 55 1965
244 55 3494
245 55 1121
246 55 1802
247 55 2242
248 55 823
249 55 2291
250 55 1996
251 55 1643
252 55 1111
253 55 1792
254 55 2065
255 55 2408
256 55 1726
257 55 2789
258 55 1574
259 55 1224
260 55 2000
261 55 3008
262 55 1528
263 55 1442
264 55 2279
265 55 1462
266 55 1461
267 55 2094
268 55 1459
269 55 2237
270 55 1798
271 55 1375
272 55 2642
273 55 1277
274 55 1618
275 55 1255
276 55 1486
277 55 2266
278 55 2184
279 55 1474
280 55 2381
281 55 955
282 55 3109
283 55 2462
284 55 1153
285 55 2713
286 55 2742
287 55 2492
288 55 1479
289 55 1245
290 55 2810
291 55 1215
292 55 2026
293 55 1181
294 55 1298
295 55 1158
296 55 2524
297 55 672
298 55 1038
299 55 2000
300 55 1449
301 55 1719
302 55 2438
303 55 1679
304 55 2012
305 55 2068
306 55 2195
307 55 2299
308 55 1349
309 55 1822
310 55 1336
311 55 2364
312 55 1125
313 55 1680
314 55 2304
315 55 1040
316 55 1794
317 55 1072
318 55 1168
319 55 1518
320 55 2469
321 55 1546
322 55 3552
323 55 1204
324 55 1861
325 55 1221
326 55 2337
327 55 1520
328 55 1546
329 55 2451
330 55 2737
331 55 1537
332 55 2397
333 55 1406
334 55 1611
335 55 1129
336 55 1061
337 55 2510
338 55 1128
339 55 732
340 55 2496
341 55 1247
342 55 2895
343 55 1899
344 55 2125
345 55 1103
346 55 1342
347 55 1206
348 55 1382
349 55 2105
350 55 2914
351 55 1531
352 55 1902
353 55 789
354 55 1392
355 55 1890
356 55 1382
357 55 1397
358 55 1420
359 55 2003
360 55 3705
361 55 1548
362 55 1539
363 55 2811
364 55 2109
365 55 2098
366 55 1105
367 55 2557
368 55 1827
369 55 1467
370 55 1980
371 55 1239
372 55 1391
373 55 2279
374 55 2083
375 55 2000
376 55 1536
377 55 2872
378 55 1475
379 55 2517
380 55 1599
381 55 1800
382 55 961
383 55 969
384 55 2070
385 55 2193
386 55 2555
387 55 1138
388 55 1639
389 55 2586
390 55 2250
391 55 1027
392 55 904
393 55 882
394 55 2722
395 55 2798
396 55 2203
397 55 1591
398 55 1700
399 55 961
400 55 2111
401 55 1695
402 55 726
403 55 716
404 55 2396
405 55 1831
406 55 1663
407 55 1846
408 55 1770
409 55 1611
410 55 848
411 55 439
412 55 1886
413 55 1737
414 55 2586
415 55 2587
416 55 1727
417 55 1527
418 55 2261
419 55 2105
420 55 1353
421 55 1483
422 55 2618
423 55 1251
424 55 1168
425 55 1666
426 55 1255
427 55 890
428 55 1983
429 55 2126
430 55 1412
431 55 3014
432 55 1098
433 55 1904
434 55 427
435 55 1450
436 55 1266
437 55 2350
438 55 712
439 55 1974
440 55 1590
441 55 1345
442 55 2702
443 55 1140
444 55 1706
445 55 2888
446 55 2730
447 55 1590
448 55 1943
449 55 1178
450 55 2190
451 55 3133
452 55 2203
453 55 891
454 55 1574
455 55 818
456 55 1777
457 55 1074
458 55 2358
459 55 2583
460 55 1155
461 55 2418
462 55 892
463 55 1849
464 55 1853
465 55 1860
466 55 1860
467 55 539
468 55 736
469 55 1279
470 55 2027
471 55 993
472 55 1282
473 55 1790
474 55 1622
475 55 1245
476 55 2321
477 55 2740
478 55 1152
479 55 1446
480 55 4072
481 55 1419
482 55 1551
483 55 1012
484 55 1737
485 55 1489
486 55 2872
487 55 1853
488 55 2019
489 55 1395
490 55 1648
491 55 691
492 55 1664
493 55 2174
494 55 2909
495 55 1794
496 55 2257
497 55 937
498 55 1085
499 55 1547
500 55 1205
1 56 844
2 56 316
3 56 1508
4 56 446
5 56 303
6 56 1110
7 56 2166
8 56 740
9 56 367
10 56 564
11 56 439
12 56 936
13 56 779
14 56 462
15 56 365
16 56 602
17 56 1312
18 56 493
19 56 831
20 56 841
21 56 500
22 56 513
23 56 1664
24 56 297
25 56 1067
26 56 546
27 56 618
28 56 953
29 56 761
30 56 701
31 56 1130
32 56 292
33 56 359
34 56 542
35 56 1002
36 56 1758
37 56 967
38 56 1318
39 56 1540
40 56 1147
41 56 1365
42 56 381
43 56 859
44 56 631
45 56 816
46 56 147
47 56 1310
48 56 512
49 56 1470
50 56 669
51 56 758
52 56 443
53 56 886
54 56 798
55 56 1634
56 56 873
57 56 741
58 56 417
59 56 1312
60 56 398
61 56 263
62 56 1495
63 56 563
64 56 753
65 56 552
66 56 611
67 56 888
68 56 1269
69 56 301
70 56 785
71 56 557
72 56 452
73 56 767
74 56 690
75 56 950
76 56 1033
77 56 681
78 56 1069
79 56 391
80 56 598
81 56 1480
82 56 519
83 56 936
84 56 420
85 56 902
86 56 613
87 56 801
88 56 1158
89 56 1584
90 56 1075
91 56 1215
92 56 606
93 56 992
94 56 1029
95 56 349
96 56 1679
97 56 278
98 56 811
99 56 729
100 56 1287
101 56 2109
102 56 1123
103 56 483
104 56 414
105 56 1927
106 56 851
107 56 433
108 56 819
109 56 551
110 56 162
111 56 746
112 56 514
113 56 1666
114 56 446
115 56 879
116 56 320
117 56 763
118 56 324
119 56 1140
120 56 839
121 56 1151
122 56 1157
123 56 1116
124 56 1421
125 56 796
126 56 1370
127 56 889
128 56 973
129 56 1628
130 56 540
131 56 2092
132 56 2514
133 56 411
134 56 1649
135 56 395
136 56 523
137 56 839
138 56 940
139 56 712
140 56 1729
141 56 1006
142 56 1361
143 56 259
144 56 1115
145 56 362
146 56 576
147 56 440
148 56 520
149 56 831
150 56 863
151 56 1265
152 56 200
153 56 739
154 56 1270
155 56 504
156 56 1879
157 56 194
158 56 362
159 56 362
160 56 512
161 56 974
162 56 446
163 56 1212
164 56 608
165 56 951
166 56 588
167 56 994
168 56 487
169 56 1242
170 56 301
171 56 428
172 56 1180
173 56 632
174 56 616
175 56 464
176 56 1351
177 56 184
178 56 502
179 56 1345
180 56 1418
181 56 1040
182 56 789
183 56 974
184 56 937
185 56 248
186 56 626
187 56 424
188 56 785
189 56 1016
190 56 1127
191 56 636
192 56 322
193 56 447
194 56 300
195 56 758
196 56 333
197 56 359
198 56 378
199 56 1258
200 56 1153
201 56 312
202 56 740
203 56 505
204 56 734
205 56 754
206 56 1405
207 56 1305
208 56 1673
209 56 299
210 56 351
211 56 784
212 56 553
213 56 1186
214 56 1178
215 56 805
216 56 200
217 56 1360
218 56 959
219 56 897
220 56 290
221 56 622
222 56 640
223 56 895
224 56 599
225 56 1536
226 56 1185
227 56 531
228 56 2070
229 56 655
230 56 507
231 56 508
232 56 557
233 56 190
234 56 990
235 56 1129
236 56 796
237 56 482
238 56 632
239 56 618
240 56 1505
241 56 1676
242 56 393
243 56 1728
244 56 961
245 56 565
246 56 667
247 56 1153
248 56 391
249 56 1404
250 56 789
251 56 590
252 56 1331
253 56 753
254 56 789
255 56 535
256 56 1321
257 56 786
258 56 906
259 56 1264
260 56 1506
261 56 1032
262 56 1146
263 56 1537
264 56 806
265 56 328
266 56 767
267 56 405
268 56 849
269 56 1671
270 56 604
271 56 509
272 56 3239
273 56 375
274 56 984
275 56 824
276 56 430
277 56 891
278 56 465
279 56 2065
280 56 764
281 56 1663
282 56 996
283 56 411
284 56 850
285 56 326
286 56 616
287 56 367
288 56 502
289 56 815
290 56 1674
291 56 219
292 56 424
293 56 2458
294 56 961
295 56 1099
296 56 1698
297 56 411
298 56 1156
299 56 714
300 56 537
301 56 357
302 56 745
303 56 904
304 56 785
305 56 405
306 56 905
307 56 846
308 56 1575
309 56 1089
310 56 701
311 56 861
312 56 457
313 56 1517
314 56 948
315 56 339
316 56 930
317 56 1309
318 56 1341
319 56 236
320 56 1035
321 56 1582
322 56 1032
323 56 197
324 56 569
325 56 927
326 56 1826
327 56 931
328 56 649
329 56 1028
330 56 3187
331 56 1174
332 56 1256
333 56 679
334 56 980
335 56 352
336 56 301
337 56 1470
338 56 281
339 56 652
340 56 1078
341 56 601
342 56 1284
343 56 1456
344 56 2031
345 56 298
346 56 1042
347 56 1336
348 56 624
349 56 799
350 56 819
351 56 351
352 56 205
353 56 528
354 56 1009
355 56 762
356 56 874
357 56 325
358 56 804
359 56 431
360 56 1322
361 56 687
362 56 648
363 56 1797
364 56 1368
365 56 294
366 56 1243
367 56 767
368 56 480
369 56 305
370 56 402
371 56 622
372 56 436
373 56 1454
374 56 994
375 56 392
376 56 1233
377 56 426
378 56 689
379 56 430
380 56 535
381 56 978
382 56 988
383 56 1106
384 56 429
385 56 785
386 56 432
387 56 694
388 56 911
389 56 1133
390 56 857
391 56 1025
392 56 1342
393 56 806
394 56 833
395 56 428
396 56 1350
397 56 1844
398 56 540
399 56 387
400 56 304
401 56 1906
402 56 149
403 56 388
404 56 473
405 56 2091
406 56 1046
407 56 331
408 56 1061
409 56 246
410 56 716
411 56 444
412 56 789
413 56 876
414 56 721
415 56 1081
416 56 540
417 56 216
418 56 837
419 56 335
420 56 774
421 56 325
422 56 677
423 56 618
424 56 2210
425 56 852
426 56 571
427 56 504
428 56 645
429 56 776
430 56 538
431 56 500
432 56 608
433 56 1440
434 56 452
435 56 292
436 56 474
437 56 447
438 56 371
439 56 417
440 56 863
441 56 634
442 56 705
443 56 363
444 56 1208
445 56 553
446 56 1524
447 56 937
448 56 1051
449 56 661
450 56 843
451 56 1066
452 56 893
453 56 1032
454 56 493
455 56 537
456 56 628
457 56 624
458 56 1056
459 56 839
460 56 964
461 56 499
462 56 1307
463 56 1157
464 56 155
465 56 626
466 56 554
467 56 350
468 56 169
469 56 842
470 56 1088
471 56 795
472 56 936
473 56 1954
474 56 1550
475 56 771
476 56 1241
477 56 734
478 56 1400
479 56 867
480 56 1450
481 56 801
482 56 281
483 56 633
484 56 928
485 56 416
486 56 2059
487 56 338
488 56 783
489 56 1922
490 56 1618
491 56 385
492 56 295
493 56 1393
494 56 1694
495 56 1549
496 56 995
497 56 541
498 56 1000
499 56 694
500 56 536
1 57 2881
2 57 828
3 57 1391
4 57 2250
5 57 1191
6 57 1772
7 57 1798
8 57 1184
9 57 1578
10 57 1929
11 57 1049
12 57 1164
13 57 816
14 57 661
15 57 1438
16 57 398
17 57 1218
18 57 926
19 57 1425
20 57 1234
21 57 860
22 57 739
23 57 1502
24 57 1476
25 57 1399
26 57 1247
27 57 396
28 57 411
29 57 1197
30 57 725
31 57 1320
32 57 645
33 57 675
34 57 1267
35 57 1348
36 57 2805
37 57 1719
38 57 1721
39 57 1293
40 57 1668
41 57 1701
42 57 1226
43 57 1388
44 57 331
45 57 1710
46 57 193
47 57 1259
48 57 708
49 57 2218
50 57 1163
51 57 1615
52 57 1629
53 57 2111
54 57 1440
55 57 1467
56 57 957
57 57 2710
58 57 1052
59 57 1286
60 57 1121
61 57 725
62 57 1029
63 57 1778
64 57 2182
65 57 1299
66 57 462
67 57 1408
68 57 514
69 57 1459
70 57 1459
71 57 1340
72 57 392
73 57 2815
74 57 1081
75 57 427
76 57 1908
77 57 1093
78 57 847
79 57 1238
80 57 1066
81 57 1677
82 57 1248
83 57 1248
84 57 1129
85 57 1211
86 57 1569
87 57 1111
88 57 1160
89 57 1596
90 57 1663
91 57 1095
92 57 1287
93 57 1016
94 57 1930
95 57 2425
96 57 920
97 57 1091
98 57 638
99 57 1060
100 57 1605
101 57 2171
102 57 1703
103 57 1191
104 57 1766
105 57 1901
106 57 790
107 57 992
108 57 1620
109 57 1249
110 57 1172
111 57 525
112 57 1074
113 57 2525
114 57 2208
115 57 1218
116 57 1744
117 57 1556
118 57 1497
119 57 1978
120 57 1697
121 57 1259
122 57 3006
123 57 638
124 57 2323
125 57 425
126 57 1281
127 57 1245
128 57 1476
129 57 2832
130 57 748
131 57 1864
132 57 929
133 57 1270
134 57 1268
135 57 1253
136 57 532
137 57 1767
138 57 1216
139 57 1756
140 57 2866
141 57 188
142 57 2985
143 57 1753
144 57 1239
145 57 628
146 57 596
147 57 1558
148 57 2170
149 57 554
150 57 1641
151 57 820
152 57 819
153 57 1042
154 57 2565
155 57 329
156 57 653
157 57 802
158 57 641
159 57 695
160 57 348
161 57 1166
162 57 999
163 57 1775
164 57 1186
165 57 1218
166 57 1023
167 57 1100
168 57 946
169 57 2727
170 57 872
171 57 983
172 57 1159
173 57 971
174 57 893
175 57 1196
176 57 1568
177 57 1144
178 57 1537
179 57 1742
180 57 1668
181 57 552
182 57 1775
183 57 1196
184 57 1673
185 57 1329
186 57 858
187 57 2236
188 57 1261
189 57 541
190 57 1742
191 57 909
192 57 1252
193 57 992
194 57 1578
195 57 786
196 57 664
197 57 1065
198 57 1032
199 57 1118
200 57 503
201 57 634
202 57 1180
203 57 2432
204 57 2000
205 57 1147
206 57 636
207 57 1827
208 57 2141
209 57 790
210 57 824
211 57 584
212 57 1267
213 57 1086
214 57 1645
215 57 1235
216 57 1238
217 57 1499
218 57 1302
219 57 1040
220 57 1502
221 57 993
222 57 1608
223 57 2955
224 57 1081
225 57 1894
226 57 501
227 57 827
228 57 866
229 57 1190
230 57 1545
231 57 823
232 57 1902
233 57 789
234 57 180
235 57 2543
236 57 1126
237 57 1203
238 57 1194
239 57 1557
240 57 2157
241 57 2096
242 57 987
243 57 2179
244 57 1844
245 57 689
246 57 1922
247 57 2180
248 57 814
249 57 525
250 57 1296
251 57 1466
252 57 669
253 57 902
254 57 777
255 57 1794
256 57 1576
257 57 2905
258 57 1248
259 57 919
260 57 791
261 57 1844
262 57 539
263 57 1895
264 57 1528
265 57 1600
266 57 1588
267 57 2413
268 57 1004
269 57 1810
270 57 722
271 57 1225
272 57 1852
273 57 821
274 57 194
275 57 627
276 57 1023
277 57 1934
278 57 819
279 57 1291
280 57 1076
281 57 987
282 57 646
283 57 1759
284 57 1149
285 57 1753
286 57 975
287 57 1451
288 57 1010
289 57 1272
290 57 647
291 57 1090
292 57 698
293 57 1707
294 57 908
295 57 1044
296 57 1796
297 57 608
298 57 3119
299 57 1350
300 57 1065
301 57 924
302 57 1263
303 57 1398
304 57 1148
305 57 1052
306 57 283
307 57 1309
308 57 1421
309 57 1332
310 57 1348
311 57 1716
312 57 2438
313 57 2154
314 57 1475
315 57 700
316 57 1221
317 57 1357
318 57 624
319 57 1429
320 57 1891
321 57 1259
322 57 1220
323 57 1187
324 57 475
325 57 1562
326 57 1259
327 57 2121
328 57 1155
329 57 1868
330 57 1932
331 57 495
332 57 2045
333 57 2200
334 57 1190
335 57 1178
336 57 803
337 57 1659
338 57 837
339 57 577
340 57 1814
341 57 927
342 57 2470
343 57 1846
344 57 1809
345 57 882
346 57 501
347 57 1881
348 57 2979
349 57 1124
350 57 846
351 57 2008
352 57 1412
353 57 1163
354 57 963
355 57 1362
356 57 1049
357 57 1254
358 57 679
359 57 2459
360 57 1557
361 57 1217
362 57 774
363 57 663
364 57 1596
365 57 1590
366 57 2271
367 57 1905
368 57 1146
369 57 1415
370 57 2167
371 57 1489
372 57 1010
373 57 565
374 57 1360
375 57 1018
376 57 1057
377 57 2143
378 57 1397
379 57 1741
380 57 1791
381 57 1168
382 57 1984
383 57 442
384 57 733
385 57 2132
386 57 1813
387 57 1109
388 57 1375
389 57 1887
390 57 300
391 57 1906
392 57 1102
393 57 584
394 57 652
395 57 1218
396 57 2195
397 57 1535
398 57 881
399 57 624
400 57 740
401 57 1065
402 57 339
403 57 1176
404 57 1869
405 57 2229
406 57 1537
407 57 1471
408 57 1855
409 57 1656
410 57 962
411 57 355
412 57 1265
413 57 1432
414 57 1310
415 57 1883
416 57 893
417 57 1720
418 57 1826
419 57 1715
420 57 697
421 57 789
422 57 954
423 57 943
424 57 3060
425 57 2113
426 57 691
427 57 756
428 57 1080
429 57 1721
430 57 1121
431 57 1514
432 57 1400
433 57 1921
434 57 361
435 57 1190
436 57 971
437 57 1439
438 57 611
439 57 1102
440 57 1279
441 57 1412
442 57 1319
443 57 1161
444 57 1901
445 57 1333
446 57 1936
447 57 1445
448 57 1120
449 57 937
450 57 1138
451 57 1390
452 57 1717
453 57 495
454 57 1218
455 57 1016
456 57 810
457 57 485
458 57 2056
459 57 1653
460 57 1526
461 57 1839
462 57 1134
463 57 1373
464 57 417
465 57 740
466 57 1781
467 57 1233
468 57 344
469 57 1253
470 57 1148
471 57 878
472 57 1000
473 57 1980
474 57 1424
475 57 1279
476 57 990
477 57 1192
478 57 606
479 57 1127
480 57 2717
481 57 642
482 57 1113
483 57 1563
484 57 1742
485 57 1206
486 57 891
487 57 665
488 57 1147
489 57 2696
490 57 1845
491 57 680
492 57 1838
493 57 2595
494 57 631
495 57 1132
496 57 1431
497 57 899
498 57 1875
499 57 1195
500 57 725
1 58 2101
2 58 1393
3 58 1275
4 58 2078
5 58 1956
6 58 1306
7 58 1771
8 58 1228
9 58 1237
10 58 1490
11 58 1880
12 58 527
13 58 1028
14 58 1109
15 58 758
16 58 666
17 58 472
18 58 638
19 58 958
20 58 1409
21 58 787
22 58 1194
23 58 1053
24 58 1066
25 58 1662
26 58 2291
27 58 603
28 58 1127
29 58 1187
30 58 1187
31 58 1316
32 58 1362
33 58 715
34 58 711
35 58 2495
36 58 2091
37 58 1070
38 58 722
39 58 1318
40 58 1204
41 58 2556
42 58 1029
43 58 985
44 58 1025
45 58 862
46 58 885
47 58 1443
48 58 773
49 58 2316
50 58 1095
51 58 1918
52 58 1398
53 58 2193
54 58 1213
55 58 1553
56 58 579
57 58 739
58 58 891
59 58 1579
60 58 2142
61 58 969
62 58 1558
63 58 1499
64 58 874
65 58 1478
66 58 1641
67 58 887
68 58 1851
69 58 1128
70 58 876
71 58 2000
72 58 821
73 58 729
74 58 1923
75 58 1119
76 58 2334
77 58 604
78 58 1229
79 58 1023
80 58 1748
81 58 684
82 58 935
83 58 609
84 58 1914
85 58 2542
86 58 1834
87 58 1731
88 58 1455
89 58 2315
90 58 1550
91 58 996
92 58 1050
93 58 884
94 58 838
95 58 1517
96 58 1424
97 58 833
98 58 1412
99 58 979
100 58 2197
101 58 476
102 58 1021
103 58 1326
104 58 485
105 58 1540
106 58 1131
107 58 1295
108 58 1971
109 58 1924
110 58 637
111 58 473
112 58 838
113 58 1368
114 58 842
115 58 2598
116 58 752
117 58 896
118 58 1430
119 58 456
120 58 402
121 58 1598
122 58 704
123 58 2321
124 58 1583
125 58 601
126 58 1924
127 58 2564
128 58 1208
129 58 1647
130 58 1239
131 58 1672
132 58 2281
133 58 1547
134 58 1000
135 58 1257
136 58 1085
137 58 2696
138 58 869
139 58 1434
140 58 2282
141 58 937
142 58 3217
143 58 2634
144 58 1692
145 58 1445
146 58 464
147 58 2707
148 58 870
149 58 1021
150 58 586
151 58 860
152 58 642
153 58 789
154 58 3864
155 58 1086
156 58 921
157 58 721
158 58 686
159 58 1070
160 58 1092
161 58 1828
162 58 1830
163 58 1645
164 58 1038
165 58 501
166 58 1412
167 58 979
168 58 2971
169 58 1741
170 58 1216
171 58 817
172 58 2702
173 58 715
174 58 606
175 58 1384
176 58 648
177 58 685
178 58 1582
179 58 2594
180 58 2283
181 58 977
182 58 2708
183 58 497
184 58 2450
185 58 812
186 58 1063
187 58 1475
188 58 592
189 58 931
190 58 1291
191 58 1040
192 58 910
193 58 1829
194 58 1110
195 58 322
196 58 689
197 58 2698
198 58 2170
199 58 1074
200 58 1875
201 58 1360
202 58 1103
203 58 2423
204 58 800
205 58 1021
206 58 1641
207 58 2622
208 58 1113
209 58 333
210 58 986
211 58 1017
212 58 1898
213 58 1063
214 58 1764
215 58 577
216 58 538
217 58 969
218 58 582
219 58 2061
220 58 1118
221 58 1108
222 58 1362
223 58 831
224 58 1788
225 58 1191
226 58 552
227 58 778
228 58 2210
229 58 1789
230 58 1036
231 58 306
232 58 1603
233 58 681
234 58 938
235 58 3215
236 58 1788
237 58 1159
238 58 1729
239 58 1830
240 58 2378
241 58 1602
242 58 1064
243 58 1226
244 58 2260
245 58 779
246 58 2291
247 58 1783
248 58 968
249 58 906
250 58 1878
251 58 1010
252 58 1684
253 58 773
254 58 335
255 58 779
256 58 627
257 58 3104
258 58 652
259 58 1552
260 58 1676
261 58 1598
262 58 1867
263 58 1178
264 58 1698
265 58 1141
266 58 1058
267 58 4291
268 58 783
269 58 2036
270 58 1372
271 58 1386
272 58 3391
273 58 1094
274 58 918
275 58 124
276 58 1874
277 58 1321
278 58 1086
279 58 1932
280 58 1043
281 58 1148
282 58 2284
283 58 504
284 58 1267
285 58 729
286 58 1075
287 58 1477
288 58 1225
289 58 575
290 58 1380
291 58 1483
292 58 437
293 58 672
294 58 727
295 58 1897
296 58 2280
297 58 680
298 58 907
299 58 831
300 58 1222
301 58 1021
302 58 1524
303 58 1287
304 58 1790
305 58 2096
306 58 887
307 58 1475
308 58 1326
309 58 1600
310 58 881
311 58 404
312 58 1262
313 58 2347
314 58 1139
315 58 1382
316 58 2518
317 58 977
318 58 1636
319 58 1605
320 58 1129
321 58 820
322 58 2459
323 58 652
324 58 2052
325 58 1155
326 58 2927
327 58 2206
328 58 1097
329 58 1170
330 58 3518
331 58 1901
332 58 1116
333 58 1246
334 58 2559
335 58 999
336 58 1006
337 58 692
338 58 992
339 58 452
340 58 842
341 58 669
342 58 1025
343 58 1496
344 58 1723
345 58 972
346 58 2264
347 58 707
348 58 1359
349 58 1732
350 58 1518
351 58 1123
352 58 781
353 58 669
354 58 735
355 58 821
356 58 732
357 58 954
358 58 1352
359 58 4216
360 58 1001
361 58 1513
362 58 1439
363 58 1392
364 58 545
365 58 1487
366 58 1362
367 58 1238
368 58 823
369 58 1099
370 58 1870
371 58 786
372 58 875
373 58 842
374 58 1203
375 58 2056
376 58 1023
377 58 1439
378 58 1283
379 58 478
380 58 2989
381 58 1846
382 58 931
383 58 803
384 58 395
385 58 2376
386 58 511
387 58 1105
388 58 1368
389 58 901
390 58 895
391 58 926
392 58 1440
393 58 983
394 58 2395
395 58 1191
396 58 1548
397 58 1314
398 58 1162
399 58 1337
400 58 1352
401 58 1544
402 58 831
403 58 453
404 58 809
405 58 567
406 58 2275
407 58 1356
408 58 2506
409 58 1103
410 58 881
411 58 883
412 58 1890
413 58 954
414 58 1502
415 58 891
416 58 1161
417 58 1104
418 58 1556
419 58 854
420 58 1385
421 58 1079
422 58 1027
423 58 651
424 58 2279
425 58 1401
426 58 691
427 58 1266
428 58 1047
429 58 1915
430 58 1362
431 58 2592
432 58 701
433 58 520
434 58 883
435 58 1827
436 58 1245
437 58 1723
438 58 359
439 58 2075
440 58 1123
441 58 814
442 58 1348
443 58 960
444 58 1946
445 58 851
446 58 2131
447 58 1096
448 58 1636
449 58 683
450 58 546
451 58 567
452 58 1486
453 58 1908
454 58 1376
455 58 875
456 58 1147
457 58 1630
458 58 967
459 58 1086
460 58 1133
461 58 842
462 58 1474
463 58 1570
464 58 1040
465 58 842
466 58 1004
467 58 1117
468 58 861
469 58 602
470 58 1605
471 58 746
472 58 751
473 58 952
474 58 1462
475 58 1395
476 58 600
477 58 1151
478 58 1645
479 58 813
480 58 2521
481 58 1422
482 58 1817
483 58 1954
484 58 2266
485 58 1016
486 58 2151
487 58 1207
488 58 1793
489 58 2358
490 58 1301
491 58 731
492 58 1181
493 58 2451
494 58 1404
495 58 1232
496 58 1616
497 58 1307
498 58 1127
499 58 1524
500 58 747
1 59 1072
2 59 733
3 59 782
4 59 910
5 59 1198
6 59 1553
7 59 1374
8 59 1130
9 59 796
10 59 776
11 59 601
12 59 413
13 59 891
14 59 822
15 59 596
16 59 523
17 59 671
18 59 816
19 59 885
20 59 360
21 59 739
22 59 464
23 59 533
24 59 928
25 59 1660
26 59 873
27 59 478
28 59 1452
29 59 1113
30 59 855
31 59 808
32 59 506
33 59 435
34 59 441
35 59 962
36 59 1397
37 59 2209
38 59 898
39 59 414
40 59 632
41 59 602
42 59 492
43 59 842
44 59 303
45 59 493
46 59 222
47 59 426
48 59 2005
49 59 347
50 59 510
51 59 304
52 59 548
53 59 300
54 59 1083
55 59 852
56 59 363
57 59 926
58 59 338
59 59 430
60 59 404
61 59 1080
62 59 1314
63 59 680
64 59 717
65 59 790
66 59 486
67 59 903
68 59 577
69 59 955
70 59 1355
71 59 611
72 59 120
73 59 988
74 59 478
75 59 1448
76 59 909
77 59 503
78 59 866
79 59 455
80 59 849
81 59 679
82 59 529
83 59 612
84 59 2028
85 59 794
86 59 969
87 59 776
88 59 247
89 59 1136
90 59 608
91 59 704
92 59 515
93 59 398
94 59 1364
95 59 1061
96 59 406
97 59 708
98 59 994
99 59 763
100 59 323
101 59 232
102 59 612
103 59 416
104 59 486
105 59 940
106 59 719
107 59 527
108 59 897
109 59 626
110 59 681
111 59 514
112 59 397
113 59 923
114 59 1625
115 59 795
116 59 1028
117 59 327
118 59 1387
119 59 317
120 59 163
121 59 915
122 59 1092
123 59 392
124 59 1082
125 59 986
126 59 723
127 59 832
128 59 810
129 59 1053
130 59 465
131 59 1464
132 59 1371
133 59 136
134 59 1205
135 59 280
136 59 178
137 59 1070
138 59 421
139 59 2913
140 59 1348
141 59 1346
142 59 942
143 59 1037
144 59 942
145 59 453
146 59 444
147 59 1081
148 59 1095
149 59 403
150 59 775
151 59 502
152 59 114
153 59 609
154 59 1901
155 59 688
156 59 624
157 59 124
158 59 464
159 59 480
160 59 696
161 59 1000
162 59 570
163 59 552
164 59 483
165 59 399
166 59 1948
167 59 396
168 59 945
169 59 1064
170 59 749
171 59 547
172 59 698
173 59 1121
174 59 320
175 59 447
176 59 720
177 59 1334
178 59 785
179 59 591
180 59 1532
181 59 890
182 59 1051
183 59 386
184 59 1084
185 59 336
186 59 868
187 59 1427
188 59 839
189 59 984
190 59 1581
191 59 310
192 59 393
193 59 571
194 59 942
195 59 877
196 59 414
197 59 1141
198 59 411
199 59 837
200 59 587
201 59 430
202 59 1085
203 59 670
204 59 727
205 59 1090
206 59 948
207 59 627
208 59 322
209 59 308
210 59 397
211 59 381
212 59 650
213 59 831
214 59 1246
215 59 827
216 59 743
217 59 2078
218 59 388
219 59 1497
220 59 943
221 59 737
222 59 791
223 59 842
224 59 838
225 59 917
226 59 851
227 59 787
228 59 1334
229 59 814
230 59 368
231 59 364
232 59 347
233 59 97
234 59 1298
235 59 588
236 59 707
237 59 465
238 59 807
239 59 999
240 59 331
241 59 723
242 59 519
243 59 664
244 59 1197
245 59 1082
246 59 718
247 59 1003
248 59 402
249 59 338
250 59 359
251 59 1483
252 59 1019
253 59 375
254 59 882
255 59 464
256 59 700
257 59 1446
258 59 511
259 59 739
260 59 733
261 59 647
262 59 588
263 59 925
264 59 868
265 59 920
266 59 786
267 59 505
268 59 463
269 59 861
270 59 636
271 59 922
272 59 526
273 59 805
274 59 1353
275 59 608
276 59 549
277 59 351
278 59 1242
279 59 1387
280 59 759
281 59 790
282 59 1028
283 59 525
284 59 1128
285 59 1050
286 59 707
287 59 1006
288 59 657
289 59 790
290 59 847
291 59 435
292 59 737
293 59 1117
294 59 504
295 59 725
296 59 667
297 59 468
298 59 174
299 59 1295
300 59 693
301 59 580
302 59 191
303 59 1700
304 59 792
305 59 420
306 59 267
307 59 348
308 59 803
309 59 973
310 59 824
311 59 148
312 59 364
313 59 321
314 59 775
315 59 456
316 59 819
317 59 863
318 59 974
319 59 411
320 59 639
321 59 1012
322 59 436
323 59 1378
324 59 415
325 59 713
326 59 454
327 59 916
328 59 472
329 59 685
330 59 528
331 59 578
332 59 782
333 59 1063
334 59 1440
335 59 522
336 59 870
337 59 693
338 59 808
339 59 479
340 59 402
341 59 1118
342 59 588
343 59 1128
344 59 1373
345 59 836
346 59 1769
347 59 908
348 59 609
349 59 734
350 59 1502
351 59 920
352 59 332
353 59 154
354 59 529
355 59 1292
356 59 467
357 59 387
358 59 992
359 59 529
360 59 1961
361 59 969
362 59 1130
363 59 800
364 59 1753
365 59 440
366 59 745
367 59 1180
368 59 370
369 59 920
370 59 923
371 59 764
372 59 328
373 59 358
374 59 1348
375 59 388
376 59 636
377 59 1419
378 59 553
379 59 481
380 59 1016
381 59 947
382 59 1038
383 59 651
384 59 763
385 59 488
386 59 502
387 59 580
388 59 1622
389 59 379
390 59 267
391 59 1024
392 59 766
393 59 407
394 59 721
395 59 237
396 59 1106
397 59 684
398 59 571
399 59 448
400 59 452
401 59 422
402 59 425
403 59 815
404 59 475
405 59 680
406 59 1438
407 59 1336
408 59 696
409 59 957
410 59 197
411 59 130
412 59 356
413 59 955
414 59 175
415 59 371
416 59 579
417 59 940
418 59 1028
419 59 679
420 59 954
421 59 984
422 59 320
423 59 848
424 59 662
425 59 540
426 59 1086
427 59 467
428 59 623
429 59 1461
430 59 934
431 59 529
432 59 906
433 59 1323
434 59 131
435 59 643
436 59 524
437 59 633
438 59 352
439 59 451
440 59 651
441 59 812
442 59 982
443 59 574
444 59 1184
445 59 709
446 59 1258
447 59 657
448 59 481
449 59 727
450 59 1277
451 59 590
452 59 689
453 59 1284
454 59 381
455 59 409
456 59 506
457 59 413
458 59 1722
459 59 537
460 59 765
461 59 478
462 59 778
463 59 979
464 59 1187
465 59 537
466 59 446
467 59 1081
468 59 403
469 59 817
470 59 494
471 59 480
472 59 824
473 59 706
474 59 1756
475 59 573
476 59 557
477 59 1100
478 59 969
479 59 1361
480 59 1443
481 59 1015
482 59 655
483 59 984
484 59 773
485 59 683
486 59 1440
487 59 649
488 59 803
489 59 444
490 59 899
491 59 430
492 59 936
493 59 1455
494 59 788
495 59 694
496 59 1738
497 59 592
498 59 646
499 59 960
500 59 1092
3 60 5
4 60 7
5 60 8
9 60 3
10 60 2
11 60 5
15 60 4
16 60 1
20 60 5
23 60 12
24 60 18
27 60 2
28 60 5
30 60 10
32 60 5
37 60 5
40 60 15
42 60 4
43 60 8
49 60 7
56 60 4
58 60 8
61 60 4
63 60 6
64 60 6
65 60 6
66 60 13
69 60 13
71 60 4
75 60 7
76 60 16
78 60 19
79 60 3
80 60 13
83 60 3
84 60 5
90 60 7
95 60 16
102 60 3
103 60 7
109 60 3
116 60 3
119 60 24
120 60 5
124 60 7
126 60 6
129 60 7
133 60 10
139 60 7
141 60 28
146 60 5
147 60 6
151 60 2
152 60 2
157 60 4
159 60 9
162 60 2
167 60 10
169 60 7
171 60 8
175 60 3
178 60 2
180 60 6
186 60 4
193 60 6
194 60 11
204 60 8
205 60 3
208 60 3
209 60 25
210 60 20
212 60 6
218 60 27
220 60 10
221 60 5
224 60 12
225 60 17
226 60 8
228 60 7
229 60 4
233 60 6
234 60 28
237 60 12
238 60 6
240 60 4
242 60 5
244 60 6
248 60 16
249 60 17
250 60 3
253 60 21
258 60 7
259 60 3
260 60 6
261 60 6
263 60 18
264 60 15
265 60 14
269 60 5
274 60 33
276 60 6
282 60 10
285 60 3
287 60 5
288 60 8
292 60 1
293 60 3
294 60 4
295 60 36
297 60 1
300 60 6
301 60 5
307 60 3
308 60 3
309 60 7
311 60 4
313 60 2
321 60 9
322 60 10
325 60 5
334 60 9
339 60 4
351 60 23
354 60 4
366 60 2
369 60 19
370 60 4
372 60 6
373 60 25
384 60 4
392 60 1
394 60 2
397 60 13
398 60 7
400 60 6
401 60 16
405 60 2
409 60 5
412 60 7
416 60 8
417 60 3
421 60 1
425 60 6
429 60 10
433 60 5
444 60 8
445 60 14
453 60 5
454 60 4
457 60 14
458 60 6
460 60 5
462 60 10
463 60 3
464 60 7
465 60 5
466 60 4
473 60 17
475 60 1
479 60 6
486 60 5
487 60 7
493 60 11
498 60 2
499 60 7
1 61 748
2 61 143
3 61 855
4 61 733
5 61 646
6 61 312
7 61 1154
8 61 1529
9 61 1161
10 61 1066
11 61 738
12 61 917
13 61 705
14 61 632
15 61 654
16 61 286
17 61 648
18 61 321
19 61 501
20 61 1021
21 61 576
22 61 1096
23 61 999
24 61 613
25 61 160
26 61 744
27 61 287
28 61 571
29 61 1516
30 61 669
31 61 1069
32 61 1212
33 61 855
34 61 838
35 61 762
36 61 2399
37 61 1121
38 61 910
39 61 1849
40 61 1338
41 61 886
42 61 784
43 61 440
44 61 456
45 61 422
46 61 329
47 61 314
48 61 539
49 61 1070
50 61 2150
51 61 970
52 61 374
53 61 590
54 61 1389
55 61 2120
56 61 1557
57 61 1838
58 61 837
59 61 309
60 61 814
61 61 1104
62 61 1315
63 61 471
64 61 889
65 61 1019
66 61 899
67 61 577
68 61 844
69 61 648
70 61 724
71 61 504
72 61 149
73 61 1957
74 61 942
75 61 571
76 61 1112
77 61 423
78 61 1558
79 61 821
80 61 440
81 61 774
82 61 1067
83 61 945
84 61 1732
85 61 1635
86 61 2069
87 61 1595
88 61 817
89 61 1054
90 61 446
91 61 1073
92 61 526
93 61 2525
94 61 488
95 61 1157
96 61 1394
97 61 257
98 61 1079
99 61 665
100 61 1343
101 61 1266
102 61 1139
103 61 916
104 61 1039
105 61 766
106 61 1017
107 61 883
108 61 1246
109 61 500
110 61 425
111 61 335
112 61 212
113 61 2100
114 61 972
115 61 1565
116 61 731
117 61 657
118 61 1202
119 61 823
120 61 744
121 61 916
122 61 723
123 61 1783
124 61 1341
125 61 897
126 61 1293
127 61 1651
128 61 828
129 61 1912
130 61 1074
131 61 1109
132 61 898
133 61 669
134 61 1663
135 61 1158
136 61 275
137 61 1347
138 61 982
139 61 999
140 61 2433
141 61 327
142 61 672
143 61 458
144 61 938
145 61 528
146 61 493
147 61 739
148 61 771
149 61 341
150 61 798
151 61 813
152 61 498
153 61 943
154 61 1249
155 61 929
156 61 689
157 61 538
158 61 743
159 61 432
160 61 930
161 61 819
162 61 710
163 61 1970
164 61 2202
165 61 891
166 61 316
167 61 450
168 61 1118
169 61 1583
170 61 701
171 61 1148
172 61 977
173 61 610
174 61 550
175 61 949
176 61 160
177 61 989
178 61 1296
179 61 814
180 61 829
181 61 806
182 61 1301
183 61 937
184 61 2159
185 61 696
186 61 473
187 61 2660
188 61 1043
189 61 727
190 61 297
191 61 657
192 61 611
193 61 657
194 61 603
195 61 1511
196 61 769
197 61 1928
198 61 736
199 61 1902
200 61 826
201 61 578
202 61 1498
203 61 726
204 61 902
205 61 411
206 61 866
207 61 860
208 61 1193
209 61 322
210 61 643
211 61 364
212 61 483
213 61 1929
214 61 439
215 61 960
216 61 653
217 61 843
218 61 1009
219 61 1265
220 61 616
221 61 932
222 61 398
223 61 1845
224 61 437
225 61 1395
226 61 1139
227 61 594
228 61 763
229 61 1006
230 61 775
231 61 981
232 61 1113
233 61 540
234 61 283
235 61 2246
236 61 1550
237 61 175
238 61 1005
239 61 2180
240 61 1075
241 61 1098
242 61 1037
243 61 432
244 61 1266
245 61 419
246 61 1255
247 61 442
248 61 642
249 61 494
250 61 927
251 61 647
252 61 928
253 61 1233
254 61 1639
255 61 268
256 61 177
257 61 1731
258 61 750
259 61 438
260 61 2475
261 61 482
262 61 810
263 61 1395
264 61 1690
265 61 663
266 61 555
267 61 954
268 61 1180
269 61 1277
270 61 533
271 61 789
272 61 1473
273 61 1047
274 61 278
275 61 832
276 61 747
277 61 723
278 61 332
279 61 992
280 61 637
281 61 745
282 61 797
283 61 967
284 61 886
285 61 732
286 61 2769
287 61 1487
288 61 253
289 61 977
290 61 1355
291 61 911
292 61 1437
293 61 715
294 61 903
295 61 902
296 61 901
297 61 886
298 61 741
299 61 737
300 61 264
301 61 1103
302 61 360
303 61 1139
304 61 1611
305 61 751
306 61 393
307 61 1005
308 61 895
309 61 1190
310 61 627
311 61 785
312 61 999
313 61 1087
314 61 820
315 61 551
316 61 1610
317 61 156
318 61 875
319 61 973
320 61 1588
321 61 640
322 61 1367
323 61 1001
324 61 438
325 61 1469
326 61 661
327 61 1357
328 61 2136
329 61 1594
330 61 1522
331 61 828
332 61 1051
333 61 1307
334 61 670
335 61 364
336 61 757
337 61 763
338 61 728
339 61 529
340 61 534
341 61 665
342 61 1231
343 61 875
344 61 1131
345 61 739
346 61 441
347 61 893
348 61 2063
349 61 1568
350 61 1235
351 61 524
352 61 676
353 61 279
354 61 922
355 61 676
356 61 1145
357 61 540
358 61 1082
359 61 875
360 61 883
361 61 448
362 61 454
363 61 1361
364 61 1906
365 61 548
366 61 534
367 61 1780
368 61 131
369 61 649
370 61 757
371 61 606
372 61 784
373 61 460
374 61 1230
375 61 743
376 61 1133
377 61 2732
378 61 269
379 61 1021
380 61 950
381 61 788
382 61 2002
383 61 712
384 61 1337
385 61 1114
386 61 1010
387 61 1100
388 61 1094
389 61 529
390 61 417
391 61 1941
392 61 101
393 61 343
394 61 1235
395 61 1014
396 61 830
397 61 820
398 61 479
399 61 753
400 61 1267
401 61 1178
402 61 587
403 61 520
404 61 286
405 61 287
406 61 1204
407 61 1081
408 61 666
409 61 778
410 61 773
411 61 191
412 61 1036
413 61 600
414 61 338
415 61 493
416 61 484
417 61 808
418 61 691
419 61 1550
420 61 1087
421 61 828
422 61 698
423 61 793
424 61 811
425 61 1555
426 61 414
427 61 1032
428 61 725
429 61 1375
430 61 900
431 61 1344
432 61 850
433 61 868
434 61 169
435 61 818
436 61 845
437 61 1050
438 61 693
439 61 787
440 61 896
441 61 561
442 61 541
443 61 373
444 61 1009
445 61 645
446 61 1268
447 61 877
448 61 720
449 61 784
450 61 683
451 61 228
452 61 1216
453 61 1480
454 61 925
455 61 210
456 61 814
457 61 904
458 61 894
459 61 491
460 61 1467
461 61 248
462 61 114
463 61 1247
464 61 1421
465 61 1176
466 61 543
467 61 966
468 61 581
469 61 979
470 61 701
471 61 1607
472 61 452
473 61 1306
474 61 1126
475 61 370
476 61 2735
477 61 1517
478 61 811
479 61 696
480 61 536
481 61 1071
482 61 771
483 61 2127
484 61 1497
485 61 434
486 61 791
487 61 1191
488 61 1468
489 61 588
490 61 337
491 61 826
492 61 924
493 61 779
494 61 1386
495 61 2052
496 61 137
497 61 361
498 61 983
499 61 451
500 61 416
1 62 1783
2 62 1325
3 62 1415
4 62 1219
5 62 1917
6 62 1296
7 62 1154
8 62 3229
9 62 1826
10 62 1703
11 62 1936
12 62 753
13 62 582
14 62 1274
15 62 1649
16 62 1403
17 62 1245
18 62 1021
19 62 1528
20 62 1033
21 62 1222
22 62 866
23 62 1208
24 62 768
25 62 1611
26 62 1531
27 62 627
28 62 1308
29 62 3217
30 62 2117
31 62 1167
32 62 1837
33 62 1111
34 62 808
35 62 1117
36 62 2995
37 62 2165
38 62 2170
39 62 1076
40 62 879
41 62 1675
42 62 1027
43 62 1618
44 62 646
45 62 1446
46 62 890
47 62 1163
48 62 593
49 62 1093
50 62 1480
51 62 3593
52 62 219
53 62 2013
54 62 1830
55 62 1449
56 62 1399
57 62 3118
58 62 1534
59 62 1150
60 62 1379
61 62 2088
62 62 591
63 62 1571
64 62 1720
65 62 997
66 62 1195
67 62 1491
68 62 1550
69 62 750
70 62 897
71 62 1967
72 62 928
73 62 3092
74 62 2056
75 62 1175
76 62 566
77 62 870
78 62 866
79 62 1033
80 62 800
81 62 2145
82 62 802
83 62 1143
84 62 3032
85 62 1725
86 62 2944
87 62 2089
88 62 1406
89 62 2691
90 62 1504
91 62 1799
92 62 1480
93 62 2173
94 62 2002
95 62 3148
96 62 1325
97 62 1384
98 62 427
99 62 992
100 62 2115
101 62 2313
102 62 1848
103 62 553
104 62 1086
105 62 2963
106 62 2239
107 62 1867
108 62 1308
109 62 1979
110 62 1256
111 62 766
112 62 1150
113 62 733
114 62 1828
115 62 1812
116 62 1429
117 62 1576
118 62 1803
119 62 1161
120 62 1976
121 62 2186
122 62 2883
123 62 1042
124 62 935
125 62 1301
126 62 1236
127 62 1744
128 62 1401
129 62 1763
130 62 873
131 62 1122
132 62 1948
133 62 1729
134 62 947
135 62 888
136 62 627
137 62 1607
138 62 962
139 62 1891
140 62 2946
141 62 2635
142 62 2231
143 62 873
144 62 2090
145 62 713
146 62 643
147 62 2587
148 62 1661
149 62 1090
150 62 1663
151 62 899
152 62 599
153 62 1320
154 62 2541
155 62 1824
156 62 2597
157 62 607
158 62 1090
159 62 1667
160 62 1823
161 62 2315
162 62 1946
163 62 924
164 62 1541
165 62 783
166 62 2291
167 62 1612
168 62 1741
169 62 2097
170 62 1433
171 62 442
172 62 1677
173 62 1181
174 62 690
175 62 530
176 62 1411
177 62 1809
178 62 2221
179 62 1764
180 62 1896
181 62 1250
182 62 1605
183 62 756
184 62 2264
185 62 3107
186 62 1361
187 62 1202
188 62 1266
189 62 1321
190 62 1346
191 62 1198
192 62 1207
193 62 1960
194 62 784
195 62 1003
196 62 1077
197 62 946
198 62 1445
199 62 1727
200 62 1555
201 62 757
202 62 3337
203 62 3553
204 62 2324
205 62 1856
206 62 2012
207 62 1721
208 62 826
209 62 1211
210 62 767
211 62 1061
212 62 1991
213 62 1717
214 62 2390
215 62 1247
216 62 1525
217 62 2324
218 62 1519
219 62 920
220 62 762
221 62 1475
222 62 1222
223 62 1928
224 62 805
225 62 774
226 62 2527
227 62 1276
228 62 674
229 62 1034
230 62 1370
231 62 945
232 62 1410
233 62 618
234 62 2584
235 62 371
236 62 2134
237 62 703
238 62 997
239 62 2881
240 62 1130
241 62 1714
242 62 1523
243 62 598
244 62 2504
245 62 916
246 62 1865
247 62 1657
248 62 798
249 62 1498
250 62 1992
251 62 561
252 62 1976
253 62 1822
254 62 989
255 62 818
256 62 1396
257 62 3276
258 62 2253
259 62 356
260 62 2023
261 62 1529
262 62 1573
263 62 769
264 62 1473
265 62 790
266 62 2433
267 62 1866
268 62 1840
269 62 1748
270 62 1543
271 62 2037
272 62 1900
273 62 1417
274 62 2586
275 62 1299
276 62 1988
277 62 1663
278 62 2008
279 62 1525
280 62 1063
281 62 2173
282 62 1191
283 62 1099
284 62 1239
285 62 1492
286 62 1879
287 62 985
288 62 1687
289 62 1261
290 62 996
291 62 2268
292 62 1474
293 62 826
294 62 1696
295 62 1610
296 62 1102
297 62 604
298 62 2459
299 62 972
300 62 1686
301 62 1558
302 62 2044
303 62 1900
304 62 2145
305 62 1385
306 62 1920
307 62 1034
308 62 1391
309 62 2106
310 62 1599
311 62 1935
312 62 1015
313 62 1041
314 62 1441
315 62 712
316 62 1890
317 62 1230
318 62 2053
319 62 2582
320 62 1804
321 62 1443
322 62 1323
323 62 1900
324 62 1112
325 62 1425
326 62 2298
327 62 1532
328 62 1463
329 62 1802
330 62 1950
331 62 1587
332 62 2276
333 62 941
334 62 1947
335 62 1686
336 62 1590
337 62 2175
338 62 1594
339 62 623
340 62 600
341 62 1302
342 62 1753
343 62 2365
344 62 1085
345 62 1589
346 62 1942
347 62 2167
348 62 1482
349 62 2175
350 62 1946
351 62 2016
352 62 2994
353 62 972
354 62 1709
355 62 885
356 62 1781
357 62 1268
358 62 415
359 62 1833
360 62 2434
361 62 1960
362 62 2602
363 62 962
364 62 2061
365 62 2750
366 62 1096
367 62 1831
368 62 940
369 62 716
370 62 1284
371 62 638
372 62 1566
373 62 1556
374 62 1334
375 62 1458
376 62 1814
377 62 1321
378 62 2231
379 62 1124
380 62 767
381 62 2339
382 62 1079
383 62 938
384 62 1459
385 62 1119
386 62 1120
387 62 1417
388 62 1802
389 62 572
390 62 1976
391 62 1006
392 62 2079
393 62 1031
394 62 2051
395 62 930
396 62 1456
397 62 1096
398 62 988
399 62 676
400 62 1950
401 62 2386
402 62 593
403 62 840
404 62 815
405 62 2012
406 62 1952
407 62 1834
408 62 1969
409 62 1020
410 62 1287
411 62 975
412 62 1970
413 62 1497
414 62 1985
415 62 627
416 62 977
417 62 949
418 62 1398
419 62 1432
420 62 464
421 62 1505
422 62 1216
423 62 1756
424 62 712
425 62 2445
426 62 948
427 62 848
428 62 1557
429 62 1619
430 62 2177
431 62 1378
432 62 1674
433 62 3048
434 62 869
435 62 2664
436 62 1888
437 62 2891
438 62 703
439 62 1360
440 62 1604
441 62 1647
442 62 1098
443 62 1719
444 62 2422
445 62 1975
446 62 2274
447 62 1710
448 62 1690
449 62 1778
450 62 1601
451 62 950
452 62 2137
453 62 658
454 62 520
455 62 1216
456 62 1435
457 62 1255
458 62 993
459 62 1010
460 62 1430
461 62 803
462 62 2145
463 62 2150
464 62 1165
465 62 502
466 62 1355
467 62 1916
468 62 591
469 62 1261
470 62 1724
471 62 3065
472 62 973
473 62 2083
474 62 3055
475 62 917
476 62 1669
477 62 3241
478 62 2028
479 62 732
480 62 3282
481 62 427
482 62 2777
483 62 2800
484 62 837
485 62 1033
486 62 637
487 62 1498
488 62 2112
489 62 2960
490 62 2871
491 62 1085
492 62 2555
493 62 2977
494 62 959
495 62 2623
496 62 1619
497 62 1184
498 62 911
499 62 1948
500 62 879
1 63 307
2 63 407
3 63 324
4 63 711
5 63 1023
6 63 418
7 63 1194
8 63 308
9 63 291
10 63 472
11 63 547
12 63 934
13 63 455
14 63 762
15 63 334
16 63 132
17 63 584
18 63 1071
19 63 738
20 63 738
21 63 301
22 63 674
23 63 1269
24 63 788
25 63 812
26 63 758
27 63 158
28 63 705
29 63 272
30 63 873
31 63 958
32 63 789
33 63 457
34 63 505
35 63 1694
36 63 893
37 63 330
38 63 700
39 63 1240
40 63 510
41 63 591
42 63 370
43 63 713
44 63 101
45 63 626
46 63 412
47 63 571
48 63 649
49 63 542
50 63 569
51 63 365
52 63 370
53 63 1727
54 63 1903
55 63 711
56 63 233
57 63 1229
58 63 620
59 63 586
60 63 504
61 63 522
62 63 608
63 63 378
64 63 157
65 63 1271
66 63 506
67 63 942
68 63 402
69 63 751
70 63 909
71 63 682
72 63 397
73 63 1314
74 63 825
75 63 709
76 63 638
77 63 616
78 63 702
79 63 353
80 63 968
81 63 1684
82 63 493
83 63 543
84 63 854
85 63 210
86 63 717
87 63 1030
88 63 1061
89 63 683
90 63 413
91 63 442
92 63 369
93 63 1207
94 63 492
95 63 337
96 63 321
97 63 437
98 63 554
99 63 398
100 63 377
101 63 1167
102 63 827
103 63 393
104 63 927
105 63 370
106 63 369
107 63 277
108 63 504
109 63 708
110 63 595
111 63 246
112 63 355
113 63 364
114 63 327
115 63 242
116 63 449
117 63 266
118 63 1016
119 63 243
120 63 1126
121 63 660
122 63 972
123 63 531
124 63 1034
125 63 223
126 63 209
127 63 231
128 63 142
129 63 407
130 63 713
131 63 1119
132 63 274
133 63 560
134 63 383
135 63 845
136 63 325
137 63 835
138 63 866
139 63 440
140 63 883
141 63 363
142 63 1176
143 63 1040
144 63 687
145 63 850
146 63 529
147 63 302
148 63 586
149 63 882
150 63 253
151 63 411
152 63 316
153 63 364
154 63 1124
155 63 709
156 63 1219
157 63 357
158 63 484
159 63 275
160 63 749
161 63 180
162 63 583
163 63 688
164 63 517
165 63 907
166 63 992
167 63 1111
168 63 338
169 63 667
170 63 699
171 63 469
172 63 337
173 63 389
174 63 205
175 63 337
176 63 1003
177 63 1021
178 63 271
179 63 647
180 63 613
181 63 562
182 63 802
183 63 939
184 63 1573
185 63 364
186 63 656
187 63 324
188 63 857
189 63 561
190 63 453
191 63 471
192 63 819
193 63 566
194 63 736
195 63 562
196 63 437
197 63 654
198 63 485
199 63 940
200 63 390
201 63 804
202 63 344
203 63 690
204 63 817
205 63 938
206 63 1227
207 63 626
208 63 402
209 63 206
210 63 568
211 63 886
212 63 716
213 63 1006
214 63 481
215 63 897
216 63 773
217 63 1043
218 63 579
219 63 605
220 63 805
221 63 334
222 63 912
223 63 614
224 63 868
225 63 401
226 63 1112
227 63 300
228 63 304
229 63 1447
230 63 353
231 63 533
232 63 331
233 63 340
234 63 374
235 63 322
236 63 1023
237 63 130
238 63 1512
239 63 688
240 63 559
241 63 311
242 63 363
243 63 377
244 63 870
245 63 339
246 63 450
247 63 382
248 63 539
249 63 386
250 63 389
251 63 257
252 63 1199
253 63 629
254 63 538
255 63 374
256 63 991
257 63 692
258 63 584
259 63 559
260 63 791
261 63 403
262 63 391
263 63 449
264 63 1784
265 63 801
266 63 781
267 63 340
268 63 820
269 63 364
270 63 323
271 63 1048
272 63 708
273 63 446
274 63 360
275 63 874
276 63 559
277 63 1026
278 63 1496
279 63 1020
280 63 421
281 63 454
282 63 662
283 63 938
284 63 882
285 63 448
286 63 857
287 63 1013
288 63 728
289 63 863
290 63 777
291 63 810
292 63 362
293 63 279
294 63 520
295 63 1102
296 63 961
297 63 178
298 63 920
299 63 528
300 63 771
301 63 373
302 63 1522
303 63 619
304 63 1001
305 63 509
306 63 822
307 63 728
308 63 310
309 63 562
310 63 648
311 63 1247
312 63 1501
313 63 517
314 63 149
315 63 860
316 63 227
317 63 256
318 63 1170
319 63 1193
320 63 720
321 63 978
322 63 697
323 63 1039
324 63 1133
325 63 1499
326 63 309
327 63 1144
328 63 552
329 63 701
330 63 687
331 63 426
332 63 421
333 63 1274
334 63 422
335 63 537
336 63 769
337 63 1679
338 63 754
339 63 488
340 63 1018
341 63 399
342 63 495
343 63 399
344 63 1095
345 63 755
346 63 1513
347 63 767
348 63 1436
349 63 1067
350 63 1202
351 63 496
352 63 404
353 63 226
354 63 535
355 63 1004
356 63 840
357 63 838
358 63 560
359 63 351
360 63 1059
361 63 254
362 63 409
363 63 808
364 63 733
365 63 161
366 63 284
367 63 1451
368 63 238
369 63 780
370 63 725
371 63 654
372 63 648
373 63 414
374 63 423
375 63 469
376 63 436
377 63 305
378 63 350
379 63 890
380 63 302
381 63 172
382 63 378
383 63 324
384 63 327
385 63 454
386 63 937
387 63 184
388 63 722
389 63 988
390 63 880
391 63 391
392 63 826
393 63 897
394 63 977
395 63 740
396 63 1058
397 63 367
398 63 552
399 63 712
400 63 795
401 63 1237
402 63 555
403 63 271
404 63 361
405 63 1183
406 63 680
407 63 939
408 63 428
409 63 1112
410 63 558
411 63 415
412 63 434
413 63 892
414 63 1519
415 63 958
416 63 613
417 63 1063
418 63 559
419 63 959
420 63 557
421 63 297
422 63 446
423 63 330
424 63 1366
425 63 733
426 63 364
427 63 677
428 63 550
429 63 507
430 63 955
431 63 743
432 63 394
433 63 1214
434 63 405
435 63 345
436 63 265
437 63 735
438 63 522
439 63 471
440 63 530
441 63 664
442 63 629
443 63 537
444 63 319
445 63 2310
446 63 662
447 63 556
448 63 1074
449 63 362
450 63 614
451 63 339
452 63 1028
453 63 290
454 63 372
455 63 344
456 63 636
457 63 510
458 63 1247
459 63 283
460 63 1469
461 63 356
462 63 805
463 63 525
464 63 607
465 63 416
466 63 1051
467 63 933
468 63 603
469 63 880
470 63 1164
471 63 1127
472 63 341
473 63 714
474 63 301
475 63 350
476 63 686
477 63 295
478 63 1237
479 63 363
480 63 665
481 63 561
482 63 364
483 63 675
484 63 1770
485 63 768
486 63 321
487 63 1288
488 63 1077
489 63 454
490 63 528
491 63 464
492 63 1001
493 63 367
494 63 903
495 63 319
496 63 763
497 63 654
498 63 665
499 63 256
500 63 335
1 64 17
2 64 4
3 64 5
4 64 13
5 64 62
6 64 6
7 64 7
8 64 28
9 64 105
10 64 62
11 64 75
12 64 28
13 64 21
14 64 6
15 64 5
16 64 33
17 64 9
18 64 13
20 64 4
21 64 19
22 64 36
23 64 159
24 64 4
25 64 48
26 64 73
27 64 33
28 64 93
29 64 46
30 64 14
31 64 54
32 64 2
33 64 10
34 64 33
35 64 15
36 64 57
37 64 42
38 64 40
39 64 40
40 64 97
41 64 66
42 64 17
44 64 73
45 64 22
46 64 17
47 64 110
48 64 113
49 64 58
50 64 68
51 64 48
52 64 3
53 64 20
54 64 22
55 64 21
56 64 84
57 64 8
58 64 34
59 64 96
60 64 59
61 64 64
62 64 112
63 64 7
64 64 35
65 64 188
66 64 33
67 64 53
68 64 36
69 64 8
70 64 12
71 64 66
72 64 7
73 64 10
74 64 29
75 64 94
76 64 112
77 64 31
78 64 71
79 64 8
80 64 19
81 64 46
83 64 65
84 64 164
85 64 35
86 64 55
87 64 11
88 64 14
90 64 11
91 64 31
92 64 41
93 64 22
94 64 130
95 64 5
96 64 30
97 64 7
98 64 54
99 64 16
100 64 39
101 64 20
102 64 19
103 64 116
104 64 54
105 64 32
106 64 31
107 64 57
108 64 42
109 64 54
110 64 16
111 64 26
112 64 5
113 64 57
114 64 113
115 64 40
116 64 101
117 64 24
118 64 61
119 64 80
120 64 34
121 64 42
122 64 93
123 64 106
124 64 158
125 64 72
126 64 62
127 64 37
128 64 37
129 64 58
130 64 39
131 64 3
132 64 47
133 64 22
134 64 109
135 64 18
136 64 24
137 64 50
138 64 44
139 64 16
140 64 37
141 64 26
142 64 91
143 64 69
144 64 37
145 64 43
147 64 51
148 64 4
150 64 33
151 64 23
152 64 3
153 64 7
154 64 93
155 64 145
156 64 14
157 64 6
158 64 8
159 64 13
160 64 153
161 64 61
162 64 52
163 64 52
164 64 86
165 64 38
166 64 94
167 64 88
168 64 13
169 64 171
170 64 49
171 64 6
172 64 75
173 64 52
174 64 8
175 64 136
176 64 59
177 64 46
178 64 35
179 64 76
180 64 109
181 64 50
182 64 47
183 64 36
184 64 17
185 64 67
186 64 55
187 64 70
189 64 41
190 64 5
192 64 24
193 64 48
194 64 5
195 64 25
196 64 6
197 64 13
198 64 61
199 64 20
200 64 27
201 64 53
202 64 36
203 64 90
204 64 30
205 64 36
206 64 96
207 64 68
208 64 68
209 64 32
210 64 45
212 64 62
213 64 11
214 64 68
216 64 22
217 64 132
218 64 29
219 64 107
220 64 5
221 64 31
222 64 40
223 64 17
224 64 13
225 64 34
226 64 121
227 64 18
228 64 71
229 64 24
230 64 124
231 64 24
232 64 5
233 64 2
234 64 29
235 64 47
236 64 9
237 64 2
238 64 14
239 64 66
240 64 49
241 64 30
242 64 28
243 64 136
244 64 117
245 64 46
246 64 16
247 64 59
248 64 45
249 64 37
250 64 73
251 64 102
252 64 92
253 64 25
254 64 26
255 64 24
256 64 55
257 64 6
258 64 44
259 64 70
260 64 65
261 64 13
262 64 31
263 64 32
264 64 5
265 64 6
266 64 8
267 64 48
268 64 15
269 64 19
270 64 53
271 64 1
272 64 97
273 64 121
274 64 25
275 64 11
276 64 52
277 64 50
278 64 57
279 64 136
280 64 16
281 64 27
282 64 130
283 64 56
284 64 51
285 64 88
286 64 6
287 64 105
288 64 27
290 64 33
291 64 52
293 64 9
294 64 70
295 64 5
296 64 91
297 64 14
298 64 83
299 64 16
300 64 32
301 64 33
302 64 33
303 64 54
304 64 15
305 64 65
306 64 16
307 64 5
308 64 7
309 64 4
310 64 53
311 64 29
313 64 54
314 64 45
315 64 37
316 64 33
317 64 19
318 64 97
319 64 171
320 64 22
321 64 96
322 64 177
323 64 47
324 64 74
325 64 125
326 64 109
327 64 88
328 64 77
329 64 10
330 64 94
331 64 38
332 64 179
334 64 148
335 64 45
336 64 21
337 64 50
338 64 24
340 64 24
341 64 52
342 64 89
343 64 9
344 64 6
345 64 24
346 64 82
347 64 43
348 64 166
349 64 11
350 64 47
351 64 34
352 64 69
353 64 8
354 64 80
355 64 11
356 64 11
357 64 27
358 64 75
359 64 57
360 64 135
361 64 18
362 64 24
363 64 26
364 64 134
365 64 63
366 64 177
368 64 5
369 64 7
370 64 20
371 64 110
372 64 38
373 64 36
374 64 67
375 64 52
376 64 34
377 64 64
378 64 28
379 64 48
380 64 9
381 64 53
382 64 20
383 64 11
385 64 5
386 64 49
388 64 50
389 64 27
390 64 19
391 64 25
392 64 19
394 64 25
395 64 11
396 64 89
397 64 44
398 64 7
399 64 28
400 64 3
401 64 49
402 64 10
403 64 4
404 64 20
405 64 45
406 64 52
407 64 69
408 64 18
409 64 7
410 64 44
411 64 9
412 64 80
413 64 43
414 64 35
415 64 23
416 64 15
417 64 1
418 64 115
419 64 65
420 64 63
421 64 5
423 64 21
424 64 18
425 64 57
426 64 42
427 64 42
428 64 28
429 64 21
430 64 9
431 64 130
432 64 16
433 64 66
434 64 7
435 64 55
436 64 54
437 64 5
438 64 16
439 64 61
440 64 71
441 64 47
442 64 43
443 64 39
444 64 4
445 64 85
447 64 76
448 64 38
449 64 28
450 64 69
451 64 102
452 64 22
453 64 21
454 64 99
455 64 5
457 64 45
458 64 63
459 64 80
460 64 97
461 64 21
462 64 14
463 64 2
464 64 48
465 64 45
466 64 37
467 64 72
468 64 14
470 64 38
471 64 41
472 64 53
474 64 73
475 64 13
476 64 4
477 64 23
478 64 88
479 64 20
480 64 93
481 64 64
482 64 43
483 64 77
484 64 147
485 64 49
486 64 93
487 64 31
488 64 13
489 64 9
490 64 15
491 64 10
492 64 75
493 64 63
494 64 31
495 64 81
496 64 32
497 64 28
498 64 57
499 64 23
500 64 49
1 65 804
2 65 615
3 65 1010
4 65 1067
5 65 788
6 65 952
7 65 1165
8 65 1096
9 65 1118
10 65 1198
11 65 599
12 65 272
13 65 217
14 65 456
15 65 687
16 65 646
17 65 857
18 65 577
19 65 1012
20 65 1439
21 65 560
22 65 783
23 65 1691
24 65 402
25 65 317
26 65 469
27 65 386
28 65 1676
29 65 1029
30 65 297
31 65 1581
32 65 554
33 65 490
34 65 431
35 65 383
36 65 320
37 65 1894
38 65 918
39 65 1593
40 65 697
41 65 1105
42 65 543
43 65 942
44 65 689
45 65 841
46 65 445
47 65 981
48 65 1055
49 65 768
50 65 1295
51 65 1013
52 65 797
53 65 431
54 65 485
55 65 508
56 65 418
57 65 1627
58 65 269
59 65 1046
60 65 1195
61 65 570
62 65 508
63 65 1204
64 65 875
65 65 948
66 65 360
67 65 1015
68 65 582
69 65 437
70 65 915
71 65 266
72 65 241
73 65 1602
74 65 683
75 65 1658
76 65 301
77 65 481
78 65 1080
79 65 516
80 65 258
81 65 1247
82 65 347
83 65 549
84 65 852
85 65 1523
86 65 1490
87 65 831
88 65 238
89 65 1350
90 65 1803
91 65 1100
92 65 646
93 65 1502
94 65 1211
95 65 924
96 65 374
97 65 835
98 65 1201
99 65 459
100 65 1231
101 65 905
102 65 532
103 65 373
104 65 286
105 65 1630
106 65 1058
107 65 279
108 65 514
109 65 277
110 65 1073
111 65 188
112 65 620
113 65 1125
114 65 484
115 65 1464
116 65 910
117 65 569
118 65 584
119 65 978
120 65 808
121 65 1035
122 65 2172
123 65 587
124 65 1091
125 65 228
126 65 975
127 65 1515
128 65 343
129 65 1081
130 65 813
131 65 1126
132 65 1055
133 65 622
134 65 723
135 65 982
136 65 197
137 65 837
138 65 923
139 65 1409
140 65 324
141 65 571
142 65 1430
143 65 822
144 65 1065
145 65 590
146 65 568
147 65 1414
148 65 1048
149 65 398
150 65 880
151 65 485
152 65 484
153 65 765
154 65 1020
155 65 884
156 65 1862
157 65 547
158 65 496
159 65 615
160 65 914
161 65 508
162 65 657
163 65 1216
164 65 1264
165 65 322
166 65 2116
167 65 670
168 65 328
169 65 1523
170 65 392
171 65 607
172 65 1442
173 65 399
174 65 358
175 65 390
176 65 1570
177 65 929
178 65 615
179 65 1122
180 65 1845
181 65 1027
182 65 917
183 65 297
184 65 2135
185 65 372
186 65 518
187 65 1153
188 65 481
189 65 1042
190 65 942
191 65 435
192 65 1053
193 65 718
194 65 433
195 65 188
196 65 501
197 65 785
198 65 1131
199 65 688
200 65 586
201 65 618
202 65 1062
203 65 1448
204 65 743
205 65 1782
206 65 920
207 65 1118
208 65 1515
209 65 270
210 65 470
211 65 393
212 65 315
213 65 688
214 65 896
215 65 534
216 65 542
217 65 956
218 65 794
219 65 309
220 65 438
221 65 514
222 65 496
223 65 1789
224 65 274
225 65 1989
226 65 686
227 65 549
228 65 1844
229 65 815
230 65 736
231 65 273
232 65 721
233 65 522
234 65 619
235 65 2265
236 65 846
237 65 827
238 65 827
239 65 1439
240 65 759
241 65 679
242 65 738
243 65 533
244 65 1057
245 65 952
246 65 262
247 65 1971
248 65 482
249 65 2277
250 65 687
251 65 627
252 65 885
253 65 1105
254 65 184
255 65 882
256 65 1551
257 65 1211
258 65 1456
259 65 423
260 65 266
261 65 1835
262 65 581
263 65 1950
264 65 821
265 65 428
266 65 516
267 65 1178
268 65 1001
269 65 1213
270 65 1030
271 65 1796
272 65 339
273 65 496
274 65 561
275 65 737
276 65 647
277 65 764
278 65 400
279 65 1029
280 65 457
281 65 1024
282 65 372
283 65 261
284 65 471
285 65 921
286 65 695
287 65 859
288 65 473
289 65 497
290 65 571
291 65 824
292 65 1025
293 65 1991
294 65 617
295 65 631
296 65 1188
297 65 510
298 65 838
299 65 1369
300 65 489
301 65 803
302 65 920
303 65 968
304 65 906
305 65 1151
306 65 1715
307 65 1407
308 65 957
309 65 899
310 65 571
311 65 822
312 65 1658
313 65 800
314 65 317
315 65 641
316 65 1468
317 65 910
318 65 872
319 65 1186
320 65 552
321 65 917
322 65 1657
323 65 978
324 65 577
325 65 1314
326 65 1946
327 65 391
328 65 1214
329 65 497
330 65 346
331 65 585
332 65 651
333 65 715
334 65 403
335 65 529
336 65 405
337 65 1180
338 65 415
339 65 523
340 65 816
341 65 423
342 65 936
343 65 1037
344 65 1095
345 65 407
346 65 632
347 65 887
348 65 977
349 65 874
350 65 278
351 65 1362
352 65 429
353 65 305
354 65 607
355 65 981
356 65 913
357 65 1022
358 65 1245
359 65 1225
360 65 950
361 65 853
362 65 545
363 65 581
364 65 829
365 65 1817
366 65 1409
367 65 1529
368 65 137
369 65 455
370 65 1134
371 65 416
372 65 240
373 65 2337
374 65 522
375 65 1140
376 65 1102
377 65 1099
378 65 525
379 65 289
380 65 924
381 65 483
382 65 746
383 65 507
384 65 1046
385 65 399
386 65 300
387 65 310
388 65 1036
389 65 742
390 65 1767
391 65 690
392 65 495
393 65 387
394 65 791
395 65 981
396 65 1645
397 65 1462
398 65 599
399 65 894
400 65 579
401 65 773
402 65 464
403 65 330
404 65 884
405 65 1830
406 65 1039
407 65 592
408 65 660
409 65 291
410 65 430
411 65 210
412 65 707
413 65 1002
414 65 969
415 65 763
416 65 555
417 65 268
418 65 1021
419 65 673
420 65 1267
421 65 800
422 65 422
423 65 226
424 65 751
425 65 667
426 65 968
427 65 851
428 65 104
429 65 1527
430 65 1687
431 65 1678
432 65 788
433 65 2212
434 65 266
435 65 1096
436 65 234
437 65 1311
438 65 320
439 65 1167
440 65 708
441 65 523
442 65 703
443 65 529
444 65 359
445 65 2059
446 65 556
447 65 698
448 65 1219
449 65 210
450 65 942
451 65 580
452 65 1332
453 65 1124
454 65 368
455 65 619
456 65 874
457 65 374
458 65 431
459 65 429
460 65 1347
461 65 923
462 65 465
463 65 957
464 65 1358
465 65 255
466 65 309
467 65 500
468 65 517
469 65 477
470 65 1168
471 65 764
472 65 317
473 65 890
474 65 571
475 65 687
476 65 1273
477 65 1070
478 65 833
479 65 422
480 65 1574
481 65 1231
482 65 1100
483 65 1449
484 65 2391
485 65 486
486 65 1963
487 65 551
488 65 885
489 65 631
490 65 920
491 65 487
492 65 242
493 65 1684
494 65 578
495 65 981
496 65 313
497 65 1750
498 65 1077
499 65 866
500 65 1014
1 66 1879
2 66 1017
3 66 1436
4 66 1236
5 66 1254
6 66 1339
7 66 1152
8 66 1585
9 66 1897
10 66 891
11 66 625
12 66 786
13 66 737
14 66 1011
15 66 746
16 66 759
17 66 842
18 66 1570
19 66 1677
20 66 1239
21 66 997
22 66 453
23 66 2494
24 66 363
25 66 1685
26 66 1485
27 66 527
28 66 1512
29 66 1596
30 66 586
31 66 3747
32 66 570
33 66 508
34 66 962
35 66 1936
36 66 2143
37 66 574
38 66 1025
39 66 1758
40 66 2343
41 66 1842
42 66 780
43 66 1678
44 66 363
45 66 1008
46 66 642
47 66 1292
48 66 722
49 66 1763
50 66 1339
51 66 2133
52 66 1048
53 66 1733
54 66 937
55 66 758
56 66 852
57 66 2230
58 66 1329
59 66 1322
60 66 1437
61 66 508
62 66 1682
63 66 1465
64 66 1195
65 66 1740
66 66 919
67 66 1314
68 66 1325
69 66 335
70 66 1091
71 66 1244
72 66 1420
73 66 2283
74 66 1445
75 66 1501
76 66 2052
77 66 794
78 66 850
79 66 793
80 66 1490
81 66 695
82 66 656
83 66 698
84 66 2809
85 66 1377
86 66 2860
87 66 984
88 66 336
89 66 1608
90 66 2142
91 66 1668
92 66 1534
93 66 914
94 66 1539
95 66 1415
96 66 544
97 66 720
98 66 1546
99 66 1549
100 66 950
101 66 1388
102 66 1078
103 66 1152
104 66 1640
105 66 1442
106 66 2606
107 66 760
108 66 2460
109 66 1299
110 66 1146
111 66 600
112 66 1083
113 66 2278
114 66 1483
115 66 1400
116 66 1392
117 66 1509
118 66 1206
119 66 358
120 66 1697
121 66 1034
122 66 1424
123 66 1515
124 66 2205
125 66 1149
126 66 884
127 66 1386
128 66 1522
129 66 1496
130 66 456
131 66 1130
132 66 2285
133 66 641
134 66 1682
135 66 1226
136 66 915
137 66 2538
138 66 429
139 66 2202
140 66 2110
141 66 1341
142 66 1926
143 66 2039
144 66 1008
145 66 1239
146 66 1003
147 66 1366
148 66 1857
149 66 2143
150 66 615
151 66 868
152 66 364
153 66 160
154 66 1322
155 66 876
156 66 2078
157 66 357
158 66 457
159 66 1098
160 66 901
161 66 1994
162 66 541
163 66 1320
164 66 1357
165 66 749
166 66 851
167 66 1320
168 66 1592
169 66 1393
170 66 1305
171 66 1773
172 66 2331
173 66 669
174 66 348
175 66 1117
176 66 1577
177 66 561
178 66 1232
179 66 1830
180 66 1929
181 66 440
182 66 2534
183 66 795
184 66 2146
185 66 936
186 66 1433
187 66 1548
188 66 1651
189 66 406
190 66 1356
191 66 2213
192 66 826
193 66 564
194 66 335
195 66 2213
196 66 483
197 66 739
198 66 1388
199 66 1514
200 66 1278
201 66 1275
202 66 1577
203 66 1315
204 66 904
205 66 1036
206 66 1774
207 66 1807
208 66 354
209 66 611
210 66 1170
211 66 2197
212 66 1290
213 66 1510
214 66 374
215 66 1676
216 66 367
217 66 650
218 66 1121
219 66 1644
220 66 302
221 66 919
222 66 938
223 66 2101
224 66 1444
225 66 2361
226 66 1948
227 66 1027
228 66 1718
229 66 1327
230 66 2306
231 66 458
232 66 996
233 66 367
234 66 1232
235 66 2531
236 66 887
237 66 1067
238 66 1339
239 66 2875
240 66 1783
241 66 1198
242 66 1846
243 66 1067
244 66 2348
245 66 1403
246 66 858
247 66 1431
248 66 1140
249 66 702
250 66 1646
251 66 1188
252 66 1859
253 66 1631
254 66 2223
255 66 1702
256 66 1562
257 66 2739
258 66 503
259 66 1197
260 66 1666
261 66 2251
262 66 1226
263 66 2414
264 66 2203
265 66 320
266 66 854
267 66 544
268 66 974
269 66 2876
270 66 1421
271 66 1013
272 66 2427
273 66 1776
274 66 1307
275 66 481
276 66 660
277 66 1073
278 66 1600
279 66 1997
280 66 1530
281 66 1128
282 66 1541
283 66 1618
284 66 1348
285 66 1388
286 66 2077
287 66 1569
288 66 1225
289 66 1669
290 66 664
291 66 1144
292 66 679
293 66 1482
294 66 1610
295 66 1137
296 66 916
297 66 644
298 66 817
299 66 1210
300 66 1201
301 66 1880
302 66 1309
303 66 1021
304 66 989
305 66 1325
306 66 1409
307 66 1262
308 66 1329
309 66 1389
310 66 1501
311 66 1632
312 66 1062
313 66 1706
314 66 1652
315 66 1248
316 66 1396
317 66 892
318 66 1831
319 66 1429
320 66 447
321 66 990
322 66 826
323 66 567
324 66 955
325 66 1551
326 66 2129
327 66 2275
328 66 1362
329 66 475
330 66 2477
331 66 1300
332 66 1211
333 66 2541
334 66 1981
335 66 1254
336 66 1219
337 66 738
338 66 1184
339 66 961
340 66 2343
341 66 649
342 66 1341
343 66 2212
344 66 1133
345 66 1179
346 66 1205
347 66 1077
348 66 1031
349 66 939
350 66 771
351 66 1037
352 66 1003
353 66 945
354 66 1674
355 66 1137
356 66 970
357 66 884
358 66 1611
359 66 521
360 66 686
361 66 2015
362 66 1302
363 66 655
364 66 1899
365 66 1266
366 66 2038
367 66 1698
368 66 282
369 66 297
370 66 1245
371 66 962
372 66 1264
373 66 720
374 66 1406
375 66 1320
376 66 1773
377 66 1517
378 66 1210
379 66 1620
380 66 1033
381 66 2052
382 66 2058
383 66 1429
384 66 719
385 66 719
386 66 1687
387 66 1084
388 66 979
389 66 2335
390 66 1517
391 66 2098
392 66 615
393 66 2271
394 66 1185
395 66 1237
396 66 1871
397 66 1277
398 66 1264
399 66 718
400 66 587
401 66 789
402 66 330
403 66 458
404 66 1741
405 66 1173
406 66 2202
407 66 1151
408 66 1246
409 66 356
410 66 1059
411 66 1380
412 66 1650
413 66 1324
414 66 1359
415 66 2266
416 66 1274
417 66 383
418 66 1284
419 66 868
420 66 1610
421 66 980
422 66 2248
423 66 1111
424 66 957
425 66 714
426 66 1394
427 66 448
428 66 1200
429 66 3097
430 66 974
431 66 838
432 66 807
433 66 1882
434 66 1459
435 66 682
436 66 744
437 66 510
438 66 907
439 66 1271
440 66 792
441 66 1443
442 66 922
443 66 1248
444 66 1703
445 66 2588
446 66 1640
447 66 750
448 66 968
449 66 1176
450 66 1058
451 66 1148
452 66 943
453 66 2405
454 66 1151
455 66 1117
456 66 1600
457 66 965
458 66 1628
459 66 1747
460 66 1570
461 66 1707
462 66 618
463 66 1412
464 66 1849
465 66 938
466 66 625
467 66 996
468 66 327
469 66 1648
470 66 994
471 66 1482
472 66 1332
473 66 1708
474 66 955
475 66 1347
476 66 2139
477 66 1572
478 66 1887
479 66 2183
480 66 2419
481 66 1566
482 66 641
483 66 2831
484 66 1534
485 66 1208
486 66 1746
487 66 1863
488 66 948
489 66 2391
490 66 1151
491 66 498
492 66 1736
493 66 1795
494 66 693
495 66 1015
496 66 1707
497 66 691
498 66 2273
499 66 1999
500 66 1358
1 67 1266
2 67 466
3 67 676
4 67 930
5 67 839
6 67 944
7 67 772
8 67 1031
9 67 1539
10 67 481
11 67 691
12 67 701
13 67 822
14 67 873
15 67 1688
16 67 1077
17 67 468
18 67 1077
19 67 715
20 67 2435
21 67 457
22 67 534
23 67 1560
24 67 627
25 67 807
26 67 601
27 67 685
28 67 1734
29 67 1079
30 67 853
31 67 1537
32 67 938
33 67 247
34 67 959
35 67 940
36 67 538
37 67 1129
38 67 1008
39 67 931
40 67 874
41 67 1959
42 67 798
43 67 678
44 67 681
45 67 1244
46 67 397
47 67 819
48 67 2210
49 67 1289
50 67 445
51 67 475
52 67 1116
53 67 860
54 67 1261
55 67 1621
56 67 175
57 67 1534
58 67 940
59 67 810
60 67 437
61 67 236
62 67 313
63 67 1067
64 67 1647
65 67 715
66 67 728
67 67 793
68 67 1284
69 67 633
70 67 877
71 67 1260
72 67 418
73 67 1620
74 67 1251
75 67 1745
76 67 1032
77 67 1049
78 67 1211
79 67 838
80 67 594
81 67 1866
82 67 573
83 67 751
84 67 2664
85 67 373
86 67 1218
87 67 706
88 67 985
89 67 2117
90 67 1401
91 67 1266
92 67 202
93 67 401
94 67 676
95 67 544
96 67 1017
97 67 1321
98 67 817
99 67 662
100 67 718
101 67 1274
102 67 579
103 67 342
104 67 1333
105 67 965
106 67 2376
107 67 1562
108 67 740
109 67 1194
110 67 409
111 67 381
112 67 809
113 67 3526
114 67 1597
115 67 336
116 67 1368
117 67 560
118 67 1204
119 67 911
120 67 1304
121 67 806
122 67 1450
123 67 1589
124 67 915
125 67 599
126 67 955
127 67 374
128 67 1559
129 67 1076
130 67 544
131 67 785
132 67 989
133 67 795
134 67 1040
135 67 986
136 67 469
137 67 1282
138 67 627
139 67 2014
140 67 537
141 67 1261
142 67 2581
143 67 1637
144 67 817
145 67 629
146 67 480
147 67 1203
148 67 410
149 67 745
150 67 924
151 67 1159
152 67 403
153 67 796
154 67 1916
155 67 1489
156 67 1204
157 67 365
158 67 228
159 67 516
160 67 1438
161 67 719
162 67 676
163 67 658
164 67 450
165 67 701
166 67 490
167 67 1155
168 67 965
169 67 1145
170 67 1418
171 67 974
172 67 976
173 67 400
174 67 336
175 67 359
176 67 1127
177 67 870
178 67 1131
179 67 1883
180 67 910
181 67 1187
182 67 1251
183 67 757
184 67 1016
185 67 1519
186 67 1547
187 67 1454
188 67 425
189 67 1194
190 67 976
191 67 1291
192 67 572
193 67 719
194 67 654
195 67 930
196 67 222
197 67 439
198 67 408
199 67 1854
200 67 1291
201 67 614
202 67 1017
203 67 1742
204 67 1267
205 67 821
206 67 565
207 67 1881
208 67 1558
209 67 202
210 67 1137
211 67 719
212 67 1305
213 67 1842
214 67 1037
215 67 436
216 67 1551
217 67 1369
218 67 1296
219 67 778
220 67 619
221 67 720
222 67 845
223 67 2477
224 67 617
225 67 642
226 67 1012
227 67 465
228 67 1460
229 67 1124
230 67 1337
231 67 808
232 67 1085
233 67 395
234 67 1188
235 67 1629
236 67 681
237 67 329
238 67 1163
239 67 1208
240 67 1278
241 67 2003
242 67 1223
243 67 722
244 67 1489
245 67 929
246 67 564
247 67 1767
248 67 1169
249 67 1707
250 67 1572
251 67 1542
252 67 559
253 67 771
254 67 918
255 67 1282
256 67 1121
257 67 1625
258 67 763
259 67 1180
260 67 556
261 67 1343
262 67 1208
263 67 636
264 67 725
265 67 609
266 67 1567
267 67 1197
268 67 737
269 67 1402
270 67 744
271 67 1708
272 67 1992
273 67 749
274 67 1126
275 67 291
276 67 744
277 67 969
278 67 705
279 67 927
280 67 591
281 67 1171
282 67 1102
283 67 1289
284 67 1541
285 67 1413
286 67 1490
287 67 628
288 67 756
289 67 437
290 67 1155
291 67 850
292 67 386
293 67 631
294 67 667
295 67 1082
296 67 1654
297 67 565
298 67 1154
299 67 412
300 67 766
301 67 1274
302 67 598
303 67 403
304 67 710
305 67 422
306 67 1706
307 67 2481
308 67 619
309 67 381
310 67 827
311 67 1310
312 67 2044
313 67 1330
314 67 1474
315 67 603
316 67 368
317 67 434
318 67 581
319 67 383
320 67 1965
321 67 1317
322 67 3088
323 67 878
324 67 413
325 67 1662
326 67 1208
327 67 244
328 67 450
329 67 2071
330 67 1952
331 67 1220
332 67 2242
333 67 1054
334 67 1880
335 67 624
336 67 1056
337 67 1919
338 67 1011
339 67 493
340 67 917
341 67 380
342 67 2472
343 67 1057
344 67 802
345 67 1080
346 67 1457
347 67 1024
348 67 1592
349 67 723
350 67 786
351 67 1195
352 67 1512
353 67 502
354 67 701
355 67 949
356 67 742
357 67 516
358 67 846
359 67 1177
360 67 1407
361 67 413
362 67 963
363 67 1140
364 67 1093
365 67 1057
366 67 1853
367 67 1377
368 67 509
369 67 625
370 67 913
371 67 520
372 67 901
373 67 1743
374 67 1351
375 67 423
376 67 1217
377 67 1445
378 67 1253
379 67 1362
380 67 1289
381 67 721
382 67 1063
383 67 754
384 67 419
385 67 558
386 67 1288
387 67 487
388 67 407
389 67 845
390 67 1728
391 67 1091
392 67 570
393 67 776
394 67 718
395 67 976
396 67 1681
397 67 1226
398 67 502
399 67 550
400 67 999
401 67 1754
402 67 511
403 67 427
404 67 1359
405 67 2013
406 67 1154
407 67 1213
408 67 582
409 67 174
410 67 409
411 67 422
412 67 1647
413 67 757
414 67 664
415 67 895
416 67 515
417 67 182
418 67 1119
419 67 1186
420 67 758
421 67 659
422 67 1316
423 67 212
424 67 796
425 67 1610
426 67 978
427 67 554
428 67 443
429 67 568
430 67 1672
431 67 1937
432 67 1213
433 67 1667
434 67 394
435 67 1081
436 67 1494
437 67 548
438 67 703
439 67 415
440 67 1041
441 67 828
442 67 1830
443 67 620
444 67 259
445 67 312
446 67 1546
447 67 1094
448 67 999
449 67 219
450 67 906
451 67 1694
452 67 1297
453 67 981
454 67 371
455 67 821
456 67 761
457 67 716
458 67 1294
459 67 1203
460 67 1728
461 67 1359
462 67 575
463 67 352
464 67 1507
465 67 982
466 67 1246
467 67 501
468 67 469
469 67 463
470 67 1004
471 67 1474
472 67 1024
473 67 2373
474 67 762
475 67 628
476 67 1273
477 67 1017
478 67 574
479 67 427
480 67 1714
481 67 811
482 67 1110
483 67 1284
484 67 1281
485 67 1302
486 67 1429
487 67 768
488 67 734
489 67 1254
490 67 1020
491 67 257
492 67 1004
493 67 1487
494 67 1194
495 67 811
496 67 759
497 67 867
498 67 1312
499 67 419
500 67 944
1 68 1869
2 68 856
3 68 691
4 68 1478
5 68 1269
6 68 684
7 68 1782
8 68 928
9 68 1613
10 68 1007
11 68 330
12 68 1366
13 68 957
14 68 972
15 68 1064
16 68 548
17 68 1043
18 68 331
19 68 774
20 68 2079
21 68 972
22 68 1080
23 68 1403
24 68 248
25 68 616
26 68 513
27 68 570
28 68 788
29 68 920
30 68 1146
31 68 2533
32 68 1293
33 68 752
34 68 873
35 68 1111
36 68 1247
37 68 535
38 68 1302
39 68 1920
40 68 1414
41 68 1423
42 68 1498
43 68 843
44 68 266
45 68 1157
46 68 948
47 68 802
48 68 2617
49 68 1852
50 68 612
51 68 963
52 68 877
53 68 1280
54 68 1966
55 68 1098
56 68 1430
57 68 2196
58 68 844
59 68 784
60 68 1278
61 68 718
62 68 1467
63 68 1544
64 68 2028
65 68 1750
66 68 571
67 68 987
68 68 326
69 68 280
70 68 1090
71 68 1734
72 68 581
73 68 2243
74 68 1493
75 68 778
76 68 1413
77 68 654
78 68 951
79 68 1602
80 68 691
81 68 1589
82 68 1403
83 68 1086
84 68 2052
85 68 1839
86 68 1584
87 68 561
88 68 835
89 68 1289
90 68 743
91 68 1197
92 68 1048
93 68 1728
94 68 1556
95 68 1185
96 68 1690
97 68 686
98 68 1032
99 68 955
100 68 772
101 68 1811
102 68 228
103 68 773
104 68 2362
105 68 968
106 68 1442
107 68 699
108 68 3232
109 68 1763
110 68 1020
111 68 452
112 68 549
113 68 1392
114 68 1100
115 68 1932
116 68 2073
117 68 1218
118 68 932
119 68 1508
120 68 1101
121 68 1695
122 68 1177
123 68 1773
124 68 820
125 68 1097
126 68 1373
127 68 1924
128 68 1460
129 68 779
130 68 1055
131 68 1781
132 68 1094
133 68 1168
134 68 1078
135 68 1027
136 68 577
137 68 1750
138 68 1080
139 68 1021
140 68 1234
141 68 806
142 68 1224
143 68 1588
144 68 1703
145 68 953
146 68 301
147 68 1366
148 68 1908
149 68 956
150 68 874
151 68 1226
152 68 645
153 68 559
154 68 1156
155 68 1363
156 68 1007
157 68 731
158 68 723
159 68 890
160 68 1395
161 68 2110
162 68 344
163 68 1535
164 68 625
165 68 1406
166 68 1130
167 68 615
168 68 701
169 68 1126
170 68 817
171 68 847
172 68 2163
173 68 808
174 68 371
175 68 741
176 68 1201
177 68 884
178 68 807
179 68 1341
180 68 907
181 68 763
182 68 1786
183 68 1313
184 68 1328
185 68 1041
186 68 712
187 68 1385
188 68 441
189 68 774
190 68 700
191 68 947
192 68 1148
193 68 351
194 68 276
195 68 1218
196 68 759
197 68 1360
198 68 1262
199 68 1904
200 68 333
201 68 957
202 68 951
203 68 492
204 68 2401
205 68 1973
206 68 339
207 68 1339
208 68 940
209 68 647
210 68 918
211 68 891
212 68 1849
213 68 1934
214 68 938
215 68 461
216 68 1495
217 68 1537
218 68 994
219 68 1696
220 68 287
221 68 852
222 68 1239
223 68 1443
224 68 699
225 68 2883
226 68 602
227 68 967
228 68 2848
229 68 1743
230 68 822
231 68 518
232 68 2243
233 68 651
234 68 826
235 68 2284
236 68 564
237 68 796
238 68 1789
239 68 1511
240 68 1849
241 68 1243
242 68 725
243 68 1419
244 68 806
245 68 1043
246 68 2482
247 68 361
248 68 878
249 68 1339
250 68 1140
251 68 1110
252 68 342
253 68 583
254 68 1258
255 68 649
256 68 1185
257 68 712
258 68 2186
259 68 465
260 68 421
261 68 743
262 68 307
263 68 2793
264 68 1744
265 68 261
266 68 1550
267 68 1692
268 68 929
269 68 1584
270 68 1153
271 68 1316
272 68 1953
273 68 902
274 68 836
275 68 1093
276 68 325
277 68 1923
278 68 2095
279 68 1014
280 68 1013
281 68 1640
282 68 1236
283 68 2182
284 68 1854
285 68 2171
286 68 785
287 68 699
288 68 388
289 68 437
290 68 1191
291 68 1682
292 68 811
293 68 756
294 68 784
295 68 1194
296 68 1715
297 68 610
298 68 1140
299 68 1148
300 68 388
301 68 696
302 68 297
303 68 1321
304 68 596
305 68 1225
306 68 1495
307 68 2026
308 68 691
309 68 2619
310 68 1879
311 68 1087
312 68 1305
313 68 1844
314 68 1445
315 68 968
316 68 1871
317 68 617
318 68 336
319 68 876
320 68 536
321 68 426
322 68 1942
323 68 866
324 68 1073
325 68 814
326 68 1286
327 68 1063
328 68 671
329 68 482
330 68 1957
331 68 328
332 68 1243
333 68 1078
334 68 1030
335 68 416
336 68 882
337 68 1583
338 68 835
339 68 294
340 68 1886
341 68 788
342 68 1289
343 68 1395
344 68 1807
345 68 877
346 68 1087
347 68 1327
348 68 1529
349 68 587
350 68 1331
351 68 2212
352 68 1034
353 68 680
354 68 754
355 68 1083
356 68 862
357 68 1138
358 68 1050
359 68 1734
360 68 1517
361 68 1540
362 68 617
363 68 1258
364 68 586
365 68 1310
366 68 1482
367 68 1615
368 68 770
369 68 247
370 68 1574
371 68 652
372 68 818
373 68 1283
374 68 545
375 68 1266
376 68 1232
377 68 1375
378 68 1704
379 68 2238
380 68 2419
381 68 2212
382 68 1556
383 68 1026
384 68 833
385 68 916
386 68 2353
387 68 1490
388 68 1340
389 68 1917
390 68 1361
391 68 1581
392 68 1428
393 68 914
394 68 2228
395 68 1075
396 68 1168
397 68 1445
398 68 540
399 68 895
400 68 1228
401 68 1271
402 68 509
403 68 762
404 68 608
405 68 1970
406 68 955
407 68 935
408 68 1557
409 68 486
410 68 919
411 68 582
412 68 1178
413 68 955
414 68 270
415 68 1917
416 68 552
417 68 489
418 68 1399
419 68 1750
420 68 1083
421 68 713
422 68 1001
423 68 257
424 68 1767
425 68 1467
426 68 1032
427 68 1048
428 68 895
429 68 1101
430 68 1264
431 68 1404
432 68 1189
433 68 796
434 68 592
435 68 889
436 68 675
437 68 839
438 68 603
439 68 1200
440 68 1486
441 68 1800
442 68 636
443 68 407
444 68 1738
445 68 1488
446 68 1376
447 68 1625
448 68 1232
449 68 267
450 68 478
451 68 1901
452 68 2002
453 68 814
454 68 744
455 68 530
456 68 1557
457 68 576
458 68 1181
459 68 1359
460 68 810
461 68 601
462 68 1397
463 68 2643
464 68 1177
465 68 247
466 68 1107
467 68 949
468 68 462
469 68 431
470 68 1269
471 68 1333
472 68 659
473 68 749
474 68 835
475 68 523
476 68 893
477 68 903
478 68 374
479 68 602
480 68 938
481 68 1062
482 68 893
483 68 1611
484 68 1101
485 68 839
486 68 2844
487 68 1325
488 68 510
489 68 886
490 68 703
491 68 731
492 68 810
493 68 1961
494 68 1246
495 68 1049
496 68 621
497 68 737
498 68 672
499 68 1613
500 68 1022
1 69 1578
2 69 593
3 69 1904
4 69 1414
5 69 1616
6 69 1687
7 69 1207
8 69 2152
9 69 1645
10 69 1033
11 69 1387
12 69 1164
13 69 1026
14 69 1061
15 69 1617
16 69 670
17 69 1535
18 69 1322
19 69 2142
20 69 1724
21 69 515
22 69 904
23 69 700
24 69 1789
25 69 1240
26 69 1485
27 69 511
28 69 1329
29 69 2101
30 69 1253
31 69 3182
32 69 218
33 69 609
34 69 1475
35 69 2203
36 69 2651
37 69 1970
38 69 1881
39 69 1640
40 69 2000
41 69 496
42 69 1724
43 69 2103
44 69 994
45 69 2235
46 69 1032
47 69 1475
48 69 441
49 69 711
50 69 2194
51 69 566
52 69 1802
53 69 1270
54 69 741
55 69 1434
56 69 960
57 69 1700
58 69 1062
59 69 1509
60 69 1922
61 69 1064
62 69 2000
63 69 2324
64 69 2606
65 69 1617
66 69 467
67 69 997
68 69 1297
69 69 1731
70 69 1550
71 69 1911
72 69 1432
73 69 1789
74 69 1585
75 69 1272
76 69 1299
77 69 945
78 69 952
79 69 1715
80 69 1152
81 69 1554
82 69 741
83 69 1017
84 69 2473
85 69 2760
86 69 1865
87 69 1640
88 69 1471
89 69 2431
90 69 1387
91 69 1999
92 69 799
93 69 3927
94 69 1732
95 69 1978
96 69 858
97 69 2664
98 69 1805
99 69 982
100 69 1185
101 69 1049
102 69 1031
103 69 1038
104 69 1519
105 69 560
106 69 830
107 69 1671
108 69 1907
109 69 1975
110 69 827
111 69 429
112 69 1270
113 69 1801
114 69 2776
115 69 2667
116 69 1292
117 69 616
118 69 994
119 69 1924
120 69 2010
121 69 2556
122 69 1324
123 69 2234
124 69 1305
125 69 1423
126 69 1209
127 69 2595
128 69 2124
129 69 1174
130 69 909
131 69 1212
132 69 1294
133 69 1137
134 69 2432
135 69 1435
136 69 647
137 69 1178
138 69 745
139 69 878
140 69 2772
141 69 1585
142 69 781
143 69 1112
144 69 2536
145 69 845
146 69 683
147 69 1451
148 69 703
149 69 708
150 69 1284
151 69 904
152 69 1010
153 69 1644
154 69 1817
155 69 1605
156 69 789
157 69 1049
158 69 654
159 69 1334
160 69 1515
161 69 2676
162 69 1333
163 69 700
164 69 2183
165 69 1134
166 69 1200
167 69 1060
168 69 1613
169 69 1304
170 69 704
171 69 1637
172 69 2345
173 69 600
174 69 640
175 69 1080
176 69 944
177 69 1137
178 69 838
179 69 447
180 69 2247
181 69 1094
182 69 1125
183 69 1194
184 69 2520
185 69 841
186 69 1857
187 69 1866
188 69 2830
189 69 954
190 69 1608
191 69 1912
192 69 944
193 69 1325
194 69 1760
195 69 1404
196 69 637
197 69 1373
198 69 1819
199 69 1127
200 69 1373
201 69 795
202 69 2074
203 69 2021
204 69 1237
205 69 2153
206 69 1573
207 69 489
208 69 857
209 69 614
210 69 946
211 69 760
212 69 1945
213 69 1055
214 69 1741
215 69 2964
216 69 963
217 69 2244
218 69 1253
219 69 186
220 69 1742
221 69 325
222 69 2647
223 69 1360
224 69 1102
225 69 1185
226 69 1354
227 69 541
228 69 1726
229 69 1068
230 69 2190
231 69 837
232 69 2130
233 69 1049
234 69 1563
235 69 1583
236 69 1618
237 69 961
238 69 1072
239 69 1837
240 69 675
241 69 1228
242 69 1535
243 69 2073
244 69 2028
245 69 1027
246 69 2105
247 69 1507
248 69 881
249 69 910
250 69 850
251 69 1317
252 69 1570
253 69 1683
254 69 1479
255 69 1598
256 69 929
257 69 2495
258 69 1545
259 69 727
260 69 2288
261 69 1432
262 69 1407
263 69 1185
264 69 2473
265 69 1861
266 69 1459
267 69 639
268 69 1514
269 69 1738
270 69 1302
271 69 970
272 69 2041
273 69 1408
274 69 1567
275 69 791
276 69 1303
277 69 896
278 69 2943
279 69 1547
280 69 902
281 69 1230
282 69 1386
283 69 1562
284 69 1643
285 69 1412
286 69 1391
287 69 1258
288 69 478
289 69 2857
290 69 1289
291 69 1756
292 69 1136
293 69 1735
294 69 937
295 69 709
296 69 1189
297 69 605
298 69 899
299 69 2286
300 69 466
301 69 1509
302 69 2821
303 69 2238
304 69 1604
305 69 1877
306 69 631
307 69 1682
308 69 1942
309 69 1197
310 69 1392
311 69 1928
312 69 1688
313 69 725
314 69 2072
315 69 817
316 69 2692
317 69 1549
318 69 1536
319 69 1216
320 69 1926
321 69 1007
322 69 1780
323 69 1150
324 69 1503
325 69 3411
326 69 1296
327 69 2418
328 69 2197
329 69 1840
330 69 2126
331 69 1425
332 69 1055
333 69 1667
334 69 1137
335 69 1183
336 69 1240
337 69 1623
338 69 1218
339 69 754
340 69 1357
341 69 611
342 69 985
343 69 1536
344 69 1296
345 69 1194
346 69 1896
347 69 1796
348 69 1995
349 69 1542
350 69 1329
351 69 2493
352 69 774
353 69 895
354 69 994
355 69 1471
356 69 1422
357 69 1008
358 69 1780
359 69 658
360 69 2209
361 69 1322
362 69 2108
363 69 1373
364 69 1311
365 69 1250
366 69 1644
367 69 1707
368 69 1063
369 69 1799
370 69 1553
371 69 1403
372 69 1107
373 69 1009
374 69 1370
375 69 1882
376 69 2001
377 69 1883
378 69 1273
379 69 1589
380 69 2429
381 69 2654
382 69 1305
383 69 974
384 69 1192
385 69 1966
386 69 1530
387 69 1210
388 69 2301
389 69 1364
390 69 601
391 69 1364
392 69 1733
393 69 738
394 69 556
395 69 1461
396 69 1020
397 69 1532
398 69 1291
399 69 1788
400 69 255
401 69 2562
402 69 798
403 69 513
404 69 1480
405 69 2025
406 69 2244
407 69 1043
408 69 2596
409 69 1659
410 69 1558
411 69 1382
412 69 926
413 69 931
414 69 2861
415 69 1286
416 69 1313
417 69 1645
418 69 1240
419 69 1000
420 69 1854
421 69 1230
422 69 2003
423 69 665
424 69 1947
425 69 1362
426 69 1078
427 69 918
428 69 972
429 69 755
430 69 952
431 69 2165
432 69 1740
433 69 941
434 69 1424
435 69 593
436 69 1695
437 69 1977
438 69 472
439 69 1790
440 69 1009
441 69 1376
442 69 2396
443 69 1207
444 69 2396
445 69 516
446 69 1374
447 69 1038
448 69 2457
449 69 636
450 69 3905
451 69 546
452 69 1016
453 69 1174
454 69 1080
455 69 1272
456 69 927
457 69 414
458 69 1560
459 69 839
460 69 3504
461 69 1508
462 69 1742
463 69 1180
464 69 1692
465 69 1386
466 69 1806
467 69 569
468 69 801
469 69 2939
470 69 2378
471 69 2247
472 69 729
473 69 1052
474 69 2277
475 69 1757
476 69 1582
477 69 2098
478 69 1502
479 69 1374
480 69 1254
481 69 1844
482 69 623
483 69 1887
484 69 2819
485 69 988
486 69 1667
487 69 1595
488 69 1621
489 69 1767
490 69 925
491 69 657
492 69 179
493 69 1576
494 69 1201
495 69 409
496 69 1291
497 69 1455
498 69 2449
499 69 1289
500 69 1070
10 70 609
13 70 4
14 70 223
18 70 31
19 70 527
22 70 265
27 70 40
30 70 172
34 70 279
43 70 579
44 70 199
46 70 360
58 70 232
67 70 254
72 70 59
99 70 138
110 70 337
111 70 5
112 70 327
117 70 210
130 70 238
138 70 475
145 70 732
146 70 11
152 70 115
157 70 126
159 70 55
176 70 309
177 70 200
192 70 898
201 70 730
210 70 758
221 70 374
233 70 95
237 70 334
245 70 549
248 70 753
251 70 96
253 70 759
256 70 333
268 70 905
275 70 59
280 70 159
292 70 13
294 70 399
315 70 716
317 70 144
323 70 218
335 70 219
336 70 97
338 70 98
339 70 30
345 70 122
353 70 5
354 70 505
356 70 896
357 70 936
368 70 305
372 70 208
383 70 1
384 70 9
398 70 555
402 70 157
403 70 251
411 70 66
413 70 251
416 70 647
424 70 6
426 70 555
427 70 255
434 70 60
438 70 164
443 70 238
455 70 345
465 70 314
468 70 155
472 70 43
500 70 543
1 71 2974
2 71 1162
3 71 1230
4 71 1995
5 71 3495
6 71 2450
7 71 1899
8 71 1726
9 71 3151
10 71 65
11 71 1478
12 71 1677
13 71 1613
14 71 341
15 71 1591
16 71 963
17 71 1657
18 71 1137
19 71 72
20 71 3146
21 71 1275
22 71 36
23 71 3890
24 71 1791
25 71 1731
26 71 2167
27 71 847
28 71 2105
29 71 1935
30 71 518
31 71 5456
32 71 1101
33 71 732
34 71 201
35 71 3432
36 71 3772
37 71 3281
38 71 2157
39 71 3907
40 71 2131
41 71 1590
42 71 1587
43 71 70
44 71 144
45 71 1912
46 71 107
47 71 1337
48 71 3669
49 71 3092
50 71 1671
51 71 929
52 71 2878
53 71 2731
54 71 1931
55 71 3067
56 71 2249
57 71 6597
58 71 77
59 71 1317
60 71 3475
61 71 1308
62 71 1940
63 71 2077
64 71 2067
65 71 1924
66 71 1965
67 71 252
68 71 1836
69 71 1758
70 71 2766
71 71 2115
72 71 68
73 71 6733
74 71 1186
75 71 2077
76 71 2937
77 71 1521
78 71 1641
79 71 1581
80 71 1781
81 71 2859
82 71 1595
83 71 2087
84 71 3626
85 71 1747
86 71 2349
87 71 1965
88 71 1467
89 71 3654
90 71 2203
91 71 3636
92 71 1830
93 71 4692
94 71 3012
95 71 2363
96 71 1780
97 71 2665
98 71 1715
99 71 126
100 71 1682
101 71 2126
102 71 1489
103 71 1629
104 71 2419
105 71 3676
106 71 1543
107 71 781
108 71 1824
109 71 2014
110 71 35
111 71 387
112 71 39
113 71 3167
114 71 2316
115 71 1613
116 71 2207
117 71 35
118 71 2557
119 71 2469
120 71 2136
121 71 3767
122 71 2485
123 71 2337
124 71 2672
125 71 1536
126 71 2689
127 71 1705
128 71 1482
129 71 2966
130 71 32
131 71 1925
132 71 2265
133 71 1425
134 71 2917
135 71 1942
136 71 1590
137 71 2772
138 71 27
139 71 2079
140 71 3677
141 71 2357
142 71 2442
143 71 2450
144 71 3779
145 71 27
146 71 560
147 71 2257
148 71 1891
149 71 2907
150 71 1637
151 71 2155
152 71 7
153 71 1892
154 71 2282
155 71 1951
156 71 2763
157 71 5
158 71 716
159 71 1092
160 71 1926
161 71 2044
162 71 1491
163 71 2707
164 71 1605
165 71 1605
166 71 2805
167 71 2064
168 71 2224
169 71 1901
170 71 1990
171 71 2424
172 71 1887
173 71 1315
174 71 1429
175 71 1559
176 71 177
177 71 125
178 71 1728
179 71 1658
180 71 3499
181 71 2568
182 71 2767
183 71 1597
184 71 5045
185 71 2295
186 71 1575
187 71 3312
188 71 1355
189 71 2511
190 71 2485
191 71 3199
192 71 45
193 71 1456
194 71 1894
195 71 1962
196 71 694
197 71 2112
198 71 3386
199 71 2562
200 71 1812
201 71 24
202 71 1845
203 71 3076
204 71 2117
205 71 2372
206 71 2222
207 71 1657
208 71 2428
209 71 986
210 71 96
211 71 2853
212 71 2143
213 71 2623
214 71 1905
215 71 1381
216 71 2043
217 71 3095
218 71 1876
219 71 1822
220 71 1858
221 71 54
222 71 1983
223 71 2798
224 71 1877
225 71 2300
226 71 2351
227 71 1290
228 71 1699
229 71 3308
230 71 1848
231 71 752
232 71 2040
233 71 5
234 71 2391
235 71 4537
236 71 1879
237 71 149
238 71 3210
239 71 2408
240 71 3030
241 71 2434
242 71 809
243 71 2635
244 71 2831
245 71 14
246 71 1222
247 71 2256
248 71 72
249 71 3468
250 71 2669
251 71 903
252 71 2312
253 71 113
254 71 2015
255 71 1600
256 71 169
257 71 2549
258 71 1993
259 71 990
260 71 2540
261 71 2177
262 71 1826
263 71 2353
264 71 1322
265 71 1879
266 71 3267
267 71 2729
268 71 92
269 71 1557
270 71 1709
271 71 2315
272 71 3092
273 71 2354
274 71 2419
275 71 784
276 71 1419
277 71 2208
278 71 3094
279 71 1421
280 71 120
281 71 3102
282 71 3103
283 71 2405
284 71 2673
285 71 2200
286 71 2054
287 71 1854
288 71 2446
289 71 1444
290 71 1955
291 71 1158
292 71 1659
293 71 4307
294 71 53
295 71 1803
296 71 3124
297 71 349
298 71 2417
299 71 2724
300 71 2361
301 71 837
302 71 3221
303 71 2565
304 71 1820
305 71 3406
306 71 1134
307 71 3073
308 71 1217
309 71 1792
310 71 1892
311 71 2071
312 71 3187
313 71 3110
314 71 1505
315 71 15
316 71 1709
317 71 126
318 71 2208
319 71 2462
320 71 1906
321 71 1589
322 71 3538
323 71 129
324 71 2168
325 71 2258
326 71 2131
327 71 2674
328 71 1610
329 71 1906
330 71 2990
331 71 1797
332 71 3670
333 71 2223
334 71 1181
335 71 52
336 71 732
337 71 2857
338 71 794
339 71 567
340 71 2620
341 71 1209
342 71 2428
343 71 3284
344 71 2076
345 71 790
346 71 2282
347 71 2212
348 71 3228
349 71 1831
350 71 1113
351 71 3854
352 71 2187
353 71 1026
354 71 45
355 71 2730
356 71 91
357 71 42
358 71 1629
359 71 2756
360 71 2871
361 71 1792
362 71 1846
363 71 2016
364 71 2342
365 71 2857
366 71 2642
367 71 1752
368 71 83
369 71 1922
370 71 2101
371 71 1155
372 71 83
373 71 3421
374 71 2769
375 71 3300
376 71 3677
377 71 3214
378 71 1746
379 71 2410
380 71 3615
381 71 2070
382 71 2438
383 71 1396
384 71 1579
385 71 3012
386 71 2312
387 71 1354
388 71 2534
389 71 2704
390 71 1132
391 71 2494
392 71 1610
393 71 2963
394 71 2087
395 71 2022
396 71 2473
397 71 1772
398 71 27
399 71 1168
400 71 1205
401 71 2866
402 71 9
403 71 104
404 71 1714
405 71 3998
406 71 2680
407 71 2646
408 71 3201
409 71 1853
410 71 1668
411 71 70
412 71 2648
413 71 260
414 71 3526
415 71 2653
416 71 17
417 71 1885
418 71 1376
419 71 3414
420 71 1617
421 71 1637
422 71 3081
423 71 1686
424 71 2597
425 71 2902
426 71 13
427 71 49
428 71 1779
429 71 3555
430 71 2363
431 71 3833
432 71 1801
433 71 2096
434 71 57
435 71 2499
436 71 705
437 71 4993
438 71 71
439 71 3280
440 71 5352
441 71 1970
442 71 2536
443 71 41
444 71 2022
445 71 1849
446 71 2495
447 71 5667
448 71 2498
449 71 1583
450 71 2477
451 71 2351
452 71 1543
453 71 2044
454 71 1531
455 71 33
456 71 1538
457 71 1930
458 71 3028
459 71 2368
460 71 2304
461 71 1628
462 71 1486
463 71 1710
464 71 1585
465 71 190
466 71 1676
467 71 1522
468 71 17
469 71 1373
470 71 2530
471 71 4252
472 71 386
473 71 2509
474 71 896
475 71 2188
476 71 2164
477 71 1794
478 71 2256
479 71 2781
480 71 1074
481 71 1669
482 71 2556
483 71 2437
484 71 3111
485 71 2220
486 71 1657
487 71 1726
488 71 1911
489 71 3619
490 71 1914
491 71 743
492 71 2238
493 71 2165
494 71 2046
495 71 1966
496 71 1678
497 71 683
498 71 2865
499 71 1798
500 71 21
10 72 480
13 72 122
14 72 215
16 72 22
18 72 124
19 72 225
22 72 514
25 72 46
26 72 42
27 72 156
30 72 405
33 72 8
34 72 281
43 72 221
44 72 236
46 72 205
47 72 76
58 72 401
59 72 71
67 72 317
70 72 9
72 72 471
96 72 28
99 72 159
102 72 34
107 72 103
110 72 466
111 72 110
112 72 374
117 72 900
118 72 7
130 72 506
136 72 15
138 72 500
145 72 446
146 72 88
152 72 144
153 72 34
157 72 148
158 72 4
159 72 262
170 72 2
176 72 393
177 72 961
192 72 591
196 72 4
201 72 400
210 72 721
221 72 587
233 72 154
237 72 312
245 72 739
248 72 752
251 72 165
253 72 680
256 72 426
259 72 135
268 72 662
275 72 416
277 72 4
280 72 161
284 72 5
291 72 3
292 72 63
294 72 838
295 72 15
297 72 4
315 72 504
317 72 577
323 72 955
335 72 688
336 72 120
338 72 129
339 72 88
345 72 110
353 72 86
354 72 862
355 72 19
356 72 690
357 72 598
368 72 77
372 72 429
383 72 267
384 72 68
398 72 437
399 72 83
402 72 103
403 72 203
407 72 7
411 72 523
413 72 291
416 72 457
419 72 25
426 72 761
427 72 515
434 72 510
436 72 98
438 72 269
443 72 642
455 72 382
464 72 4
465 72 146
468 72 101
472 72 265
491 72 5
496 72 41
500 72 834
10 73 658
14 73 201
18 73 104
19 73 562
22 73 362
27 73 54
30 73 85
34 73 860
43 73 554
44 73 101
46 73 646
58 73 282
67 73 446
72 73 417
99 73 509
107 73 8
110 73 278
111 73 24
112 73 203
117 73 731
130 73 351
138 73 456
145 73 816
146 73 48
152 73 468
157 73 433
159 73 86
176 73 314
177 73 450
192 73 135
201 73 784
210 73 461
221 73 457
233 73 461
237 73 654
245 73 822
248 73 470
251 73 202
253 73 550
256 73 321
259 73 2
268 73 651
275 73 25
280 73 550
294 73 252
315 73 776
317 73 164
323 73 470
335 73 579
336 73 144
338 73 168
339 73 47
345 73 173
353 73 95
354 73 260
356 73 689
357 73 139
368 73 728
372 73 279
383 73 28
398 73 426
402 73 287
403 73 279
411 73 471
413 73 397
416 73 417
426 73 836
427 73 352
434 73 450
436 73 3
438 73 478
443 73 603
455 73 205
465 73 404
468 73 266
472 73 51
500 73 870
1 74 1010
2 74 1002
3 74 784
4 74 1068
5 74 2230
6 74 673
7 74 1945
8 74 1546
9 74 1249
10 74 65
11 74 1735
12 74 1004
13 74 1158
14 74 72
15 74 1638
16 74 1091
17 74 864
18 74 1250
19 74 524
20 74 1595
21 74 774
22 74 55
23 74 1932
24 74 1604
25 74 1011
26 74 1185
27 74 579
28 74 1091
29 74 1548
30 74 258
31 74 2894
32 74 1682
33 74 976
34 74 312
35 74 693
36 74 1363
37 74 1012
38 74 1262
39 74 1007
40 74 1927
41 74 1155
42 74 774
43 74 498
44 74 231
45 74 2322
46 74 697
47 74 515
48 74 1657
49 74 1985
50 74 1193
51 74 1578
52 74 1274
53 74 728
54 74 2135
55 74 1067
56 74 1315
57 74 1609
58 74 24
59 74 504
60 74 2541
61 74 1167
62 74 993
63 74 1547
64 74 2117
65 74 3164
66 74 1704
67 74 947
68 74 974
69 74 1625
70 74 1278
71 74 944
72 74 38
73 74 1605
74 74 1449
75 74 1121
76 74 2176
77 74 1116
78 74 445
79 74 861
80 74 1265
81 74 1830
82 74 636
83 74 797
84 74 1471
85 74 1309
86 74 1368
87 74 1019
88 74 2094
89 74 902
90 74 1797
91 74 1145
92 74 1081
93 74 698
94 74 1069
95 74 791
96 74 850
97 74 1853
98 74 1731
99 74 598
100 74 295
101 74 1648
102 74 679
103 74 940
104 74 985
105 74 1538
106 74 815
107 74 989
108 74 1625
109 74 1039
111 74 420
112 74 20
113 74 831
114 74 1877
115 74 1316
116 74 2054
117 74 42
118 74 1646
119 74 961
120 74 1580
121 74 734
122 74 1039
123 74 1372
124 74 1754
125 74 984
126 74 1289
127 74 1300
128 74 1149
129 74 1537
130 74 50
131 74 1921
132 74 776
133 74 886
134 74 892
135 74 713
136 74 771
137 74 969
138 74 11
139 74 1855
140 74 1324
141 74 1603
142 74 1736
143 74 1471
144 74 692
145 74 51
146 74 796
147 74 1744
148 74 2067
149 74 924
150 74 517
151 74 1047
152 74 16
153 74 966
154 74 2533
155 74 723
156 74 2255
157 74 30
158 74 999
159 74 944
160 74 822
161 74 2364
162 74 1683
163 74 2014
164 74 1215
165 74 979
166 74 844
167 74 1094
168 74 1235
169 74 1477
170 74 243
171 74 2392
172 74 1588
173 74 749
174 74 513
175 74 858
176 74 454
177 74 238
178 74 1157
179 74 1188
180 74 1496
181 74 1691
182 74 921
183 74 995
184 74 1618
185 74 1511
186 74 1589
187 74 764
188 74 1636
189 74 1803
190 74 653
191 74 1535
192 74 3
193 74 1659
194 74 1621
195 74 640
196 74 907
197 74 1193
198 74 2510
199 74 1294
200 74 1036
201 74 52
202 74 1575
203 74 1229
204 74 1996
205 74 1788
206 74 1282
207 74 1225
208 74 861
209 74 606
210 74 101
211 74 898
212 74 1032
213 74 1299
214 74 569
215 74 1692
216 74 1191
217 74 671
218 74 2102
219 74 1212
220 74 1624
221 74 23
222 74 577
223 74 2117
224 74 1224
225 74 2579
226 74 1110
227 74 772
228 74 572
229 74 2055
230 74 1128
231 74 680
232 74 2081
233 74 22
234 74 1666
235 74 1769
236 74 1069
237 74 607
238 74 2093
239 74 1350
240 74 1991
241 74 1419
242 74 473
243 74 1516
244 74 1940
245 74 13
246 74 475
247 74 1947
248 74 100
249 74 1320
250 74 891
251 74 732
252 74 1303
254 74 670
255 74 1197
256 74 495
257 74 2062
258 74 1296
259 74 1581
260 74 846
261 74 1724
262 74 1005
263 74 2527
264 74 1202
265 74 1604
266 74 557
267 74 1763
268 74 144
269 74 907
270 74 2021
271 74 523
272 74 2602
273 74 1170
274 74 1680
275 74 434
276 74 1656
277 74 1649
278 74 1742
279 74 640
280 74 557
281 74 1418
282 74 566
283 74 1037
284 74 1757
285 74 2020
286 74 1974
287 74 2426
288 74 1533
289 74 1600
290 74 1135
291 74 1086
292 74 452
293 74 981
294 74 57
295 74 1326
296 74 903
297 74 804
298 74 1561
299 74 2490
300 74 1578
301 74 503
302 74 851
303 74 1776
304 74 989
305 74 2557
306 74 1829
307 74 1531
308 74 749
309 74 508
310 74 1128
311 74 1551
312 74 1403
313 74 1838
314 74 1182
315 74 46
316 74 1311
317 74 313
318 74 1365
319 74 1210
320 74 810
321 74 824
322 74 1659
323 74 249
324 74 1262
325 74 2149
326 74 1092
327 74 1801
328 74 1139
329 74 844
330 74 2616
331 74 984
332 74 1717
333 74 398
334 74 1550
335 74 156
336 74 521
337 74 1891
338 74 522
339 74 803
340 74 1886
341 74 709
342 74 901
343 74 1478
344 74 1870
345 74 531
346 74 3003
347 74 1224
348 74 2321
349 74 1013
350 74 819
351 74 2020
352 74 1501
353 74 740
354 74 53
355 74 1232
356 74 156
357 74 6
358 74 1681
359 74 1671
360 74 720
361 74 956
362 74 1220
363 74 1169
364 74 2219
365 74 1399
366 74 1479
367 74 1823
368 74 75
369 74 1632
370 74 984
371 74 919
372 74 36
373 74 1268
374 74 1281
375 74 2450
376 74 1133
377 74 803
378 74 1158
379 74 1010
380 74 2340
381 74 2394
382 74 610
383 74 1000
384 74 431
385 74 796
386 74 1075
387 74 1370
388 74 1732
389 74 1906
390 74 1872
391 74 593
392 74 1229
393 74 893
394 74 1841
395 74 727
396 74 2214
397 74 1688
398 74 3
399 74 1102
400 74 1788
401 74 1025
402 74 16
403 74 189
404 74 1088
405 74 1244
406 74 1542
407 74 1580
408 74 2056
409 74 983
410 74 1488
411 74 50
412 74 836
413 74 938
414 74 973
415 74 1884
416 74 4
417 74 942
418 74 1607
419 74 1365
420 74 1722
421 74 1224
422 74 1549
423 74 1236
424 74 1695
425 74 1730
426 74 9
427 74 69
428 74 211
429 74 2394
430 74 504
431 74 350
432 74 2910
433 74 1799
434 74 57
435 74 549
436 74 995
437 74 1206
438 74 59
439 74 2568
440 74 1408
441 74 1120
442 74 1450
443 74 157
444 74 1757
445 74 624
446 74 1361
447 74 1375
448 74 776
449 74 1297
450 74 1739
451 74 297
452 74 1451
453 74 1419
454 74 897
455 74 19
456 74 792
457 74 1736
458 74 1042
459 74 1255
460 74 2250
461 74 1187
462 74 1228
463 74 481
464 74 976
465 74 277
466 74 993
467 74 1103
468 74 25
469 74 1736
470 74 738
471 74 947
472 74 519
473 74 961
474 74 1178
475 74 1286
476 74 1410
477 74 1515
478 74 1274
479 74 655
480 74 2653
481 74 1761
482 74 553
483 74 1304
484 74 1811
485 74 292
486 74 591
487 74 1384
488 74 1028
489 74 1782
490 74 996
491 74 994
492 74 1335
493 74 494
494 74 1153
495 74 1189
496 74 966
497 74 990
498 74 994
499 74 942
500 74 9
1 75 581
3 75 192
4 75 477
5 75 713
6 75 332
7 75 127
8 75 455
9 75 705
11 75 59
12 75 35
15 75 92
17 75 115
18 75 34
20 75 720
23 75 847
24 75 106
25 75 49
28 75 221
29 75 447
31 75 730
32 75 5
35 75 309
36 75 539
37 75 207
38 75 253
39 75 848
40 75 185
41 75 208
42 75 80
45 75 279
47 75 63
48 75 428
49 75 320
50 75 179
51 75 239
52 75 1368
53 75 364
54 75 62
55 75 142
56 75 108
57 75 358
59 75 64
60 75 171
62 75 186
63 75 261
64 75 378
65 75 362
68 75 224
69 75 121
70 75 15
71 75 142
73 75 314
74 75 91
75 75 210
76 75 601
77 75 3
78 75 62
79 75 81
80 75 57
81 75 249
84 75 505
85 75 272
86 75 450
87 75 176
88 75 94
89 75 257
90 75 280
91 75 64
92 75 112
93 75 407
94 75 984
95 75 365
96 75 198
97 75 24
98 75 124
100 75 161
101 75 140
103 75 17
104 75 529
105 75 332
106 75 1159
107 75 126
108 75 249
109 75 135
113 75 380
114 75 505
115 75 267
116 75 268
118 75 274
119 75 354
120 75 365
121 75 253
122 75 684
123 75 406
124 75 529
126 75 1
127 75 268
129 75 215
131 75 144
132 75 401
134 75 176
135 75 22
137 75 344
139 75 590
140 75 544
141 75 47
142 75 883
143 75 249
144 75 286
147 75 418
148 75 233
149 75 123
151 75 257
154 75 888
155 75 113
156 75 314
160 75 98
161 75 196
162 75 80
163 75 243
164 75 185
165 75 39
166 75 231
167 75 10
168 75 56
169 75 197
170 75 58
171 75 392
172 75 326
175 75 14
178 75 184
179 75 190
180 75 394
181 75 438
182 75 338
183 75 36
184 75 514
185 75 292
186 75 245
187 75 624
188 75 178
189 75 468
190 75 347
191 75 199
193 75 78
194 75 114
195 75 172
197 75 474
198 75 133
199 75 574
200 75 247
202 75 459
203 75 152
204 75 223
205 75 257
206 75 43
207 75 208
208 75 296
209 75 6
211 75 115
212 75 132
213 75 555
214 75 110
215 75 162
216 75 154
217 75 257
218 75 213
219 75 547
220 75 115
222 75 446
223 75 226
224 75 71
225 75 132
226 75 281
228 75 442
229 75 407
230 75 520
232 75 313
234 75 55
235 75 1358
236 75 170
238 75 463
239 75 454
240 75 340
241 75 316
242 75 297
243 75 374
244 75 1241
246 75 271
247 75 132
249 75 86
250 75 227
252 75 40
254 75 158
255 75 763
257 75 304
258 75 127
259 75 5
260 75 651
261 75 276
262 75 225
263 75 113
264 75 653
265 75 108
266 75 694
267 75 173
269 75 295
270 75 220
271 75 149
272 75 466
274 75 65
276 75 68
277 75 165
278 75 376
279 75 711
282 75 300
283 75 463
284 75 133
285 75 274
286 75 266
287 75 404
288 75 568
289 75 174
290 75 200
293 75 186
295 75 82
296 75 93
298 75 110
299 75 595
300 75 528
301 75 273
302 75 227
303 75 170
304 75 173
305 75 185
306 75 943
307 75 732
308 75 196
309 75 429
311 75 401
312 75 12
313 75 315
316 75 273
318 75 47
319 75 232
320 75 248
321 75 352
322 75 368
324 75 297
325 75 240
326 75 245
327 75 167
328 75 173
329 75 222
330 75 434
331 75 244
332 75 674
333 75 194
334 75 172
337 75 249
340 75 1333
342 75 232
343 75 267
344 75 131
346 75 324
347 75 243
348 75 339
349 75 159
350 75 177
351 75 623
352 75 249
355 75 14
358 75 98
359 75 138
360 75 232
361 75 632
362 75 384
363 75 184
364 75 270
365 75 216
366 75 390
367 75 441
369 75 116
370 75 474
371 75 106
373 75 98
374 75 133
375 75 142
376 75 42
377 75 639
378 75 124
379 75 504
380 75 672
381 75 184
382 75 424
383 75 4
385 75 259
386 75 472
387 75 7
388 75 182
389 75 1384
390 75 1015
391 75 428
393 75 118
394 75 721
395 75 23
396 75 141
397 75 172
400 75 1
401 75 297
404 75 839
405 75 486
406 75 1446
407 75 310
408 75 274
410 75 37
412 75 211
414 75 214
415 75 1360
418 75 212
419 75 183
420 75 131
422 75 179
424 75 912
425 75 90
429 75 622
430 75 159
431 75 286
432 75 431
433 75 441
435 75 266
436 75 118
437 75 747
439 75 164
440 75 528
442 75 452
444 75 137
445 75 211
446 75 243
447 75 567
448 75 76
450 75 296
451 75 216
452 75 52
453 75 450
454 75 19
458 75 765
459 75 408
460 75 233
461 75 735
463 75 416
464 75 215
466 75 379
467 75 24
469 75 164
470 75 73
471 75 264
473 75 284
474 75 304
475 75 855
476 75 736
477 75 482
478 75 39
479 75 846
480 75 577
481 75 124
482 75 246
483 75 490
484 75 388
485 75 7
486 75 402
488 75 184
489 75 500
490 75 706
492 75 410
493 75 219
494 75 181
495 75 345
496 75 27
497 75 72
498 75 580
499 75 594
1 76 2418
3 76 1196
4 76 1751
5 76 2444
6 76 2370
7 76 809
8 76 2429
9 76 1410
11 76 861
12 76 593
14 76 6
15 76 109
17 76 459
18 76 90
20 76 1595
23 76 2137
24 76 531
25 76 215
28 76 937
29 76 2335
31 76 1244
32 76 343
35 76 2145
36 76 776
37 76 1739
38 76 922
39 76 1160
40 76 3177
41 76 2989
42 76 424
45 76 1935
47 76 769
48 76 1927
49 76 2636
50 76 1070
51 76 1119
52 76 2053
53 76 2675
54 76 140
55 76 985
56 76 1383
57 76 3810
59 76 781
60 76 1886
62 76 1078
63 76 1979
64 76 1311
65 76 1842
68 76 1158
69 76 465
70 76 4
71 76 619
73 76 3857
74 76 971
75 76 944
76 76 2274
77 76 13
78 76 206
79 76 441
80 76 24
81 76 3011
83 76 11
84 76 984
85 76 2233
86 76 1981
87 76 1104
88 76 529
89 76 2079
90 76 1019
91 76 455
92 76 1385
93 76 1327
94 76 1023
95 76 1468
96 76 649
97 76 127
98 76 510
100 76 1430
101 76 1752
103 76 64
104 76 1146
105 76 1806
106 76 2044
107 76 487
108 76 1895
109 76 659
113 76 1145
114 76 2044
115 76 2248
116 76 1197
118 76 1825
119 76 2109
120 76 1199
121 76 2850
122 76 1523
123 76 1667
124 76 1306
126 76 5
127 76 2135
129 76 738
131 76 788
132 76 1997
134 76 753
135 76 342
137 76 2195
139 76 2417
140 76 790
141 76 97
142 76 3059
143 76 1339
144 76 2797
147 76 745
148 76 1030
149 76 1061
150 76 7
151 76 951
154 76 1502
155 76 465
156 76 1370
160 76 415
161 76 887
162 76 875
163 76 1256
164 76 1040
165 76 523
166 76 2114
167 76 252
168 76 157
169 76 751
170 76 464
171 76 1670
172 76 1442
173 76 2
175 76 85
178 76 532
179 76 3006
180 76 3075
181 76 1403
182 76 2247
183 76 572
184 76 4114
185 76 705
186 76 2044
187 76 1945
188 76 888
189 76 1387
190 76 2303
191 76 2426
193 76 862
194 76 502
195 76 1258
197 76 1597
198 76 1969
199 76 2031
200 76 1245
202 76 2355
203 76 754
204 76 748
205 76 1389
206 76 640
207 76 2973
208 76 1506
209 76 8
211 76 1007
212 76 624
213 76 1987
214 76 1475
215 76 882
216 76 1282
217 76 1965
218 76 1113
219 76 2005
220 76 462
222 76 1382
223 76 2346
224 76 18
225 76 2110
226 76 3033
228 76 2234
229 76 1442
230 76 1273
231 76 6
232 76 2425
234 76 96
235 76 1442
236 76 1065
238 76 1408
239 76 1955
240 76 2469
241 76 1665
242 76 739
243 76 2050
244 76 1986
246 76 2217
247 76 1230
249 76 1827
250 76 1724
251 76 4
252 76 662
254 76 1267
255 76 876
257 76 3035
258 76 936
259 76 15
260 76 2067
261 76 964
262 76 1239
263 76 2155
264 76 1621
265 76 493
266 76 2017
267 76 3056
269 76 461
270 76 1369
271 76 1122
272 76 2578
274 76 93
276 76 899
277 76 1497
278 76 1704
279 76 1502
281 76 56
282 76 1514
283 76 1145
284 76 359
285 76 1129
286 76 1610
287 76 2095
288 76 2292
289 76 897
290 76 1221
293 76 1738
295 76 375
296 76 2354
298 76 920
299 76 702
300 76 2233
301 76 731
302 76 1799
303 76 2303
304 76 1081
305 76 1808
306 76 1667
307 76 1609
308 76 1213
309 76 1601
311 76 1176
312 76 1458
313 76 2627
316 76 2203
318 76 678
319 76 836
320 76 476
321 76 1232
322 76 1178
324 76 1841
325 76 1516
326 76 1770
327 76 2729
328 76 1059
329 76 438
330 76 2591
331 76 1170
332 76 1726
333 76 1396
334 76 2570
336 76 11
337 76 2928
338 76 6
340 76 1949
341 76 3
342 76 1259
343 76 1265
344 76 776
345 76 13
346 76 2827
347 76 908
348 76 1668
349 76 1073
350 76 1576
351 76 2015
352 76 716
355 76 6
358 76 524
359 76 3155
360 76 1928
361 76 2557
362 76 887
363 76 1087
364 76 1008
365 76 1669
366 76 1351
367 76 2235
369 76 454
370 76 1846
371 76 523
373 76 1728
374 76 1455
375 76 2004
376 76 422
377 76 1977
378 76 388
379 76 1132
380 76 2635
381 76 915
382 76 1079
383 76 23
385 76 1242
386 76 1112
387 76 69
388 76 2304
389 76 2073
390 76 1681
391 76 991
392 76 78
393 76 948
394 76 1225
395 76 378
396 76 2807
397 76 1145
400 76 323
401 76 2929
404 76 865
405 76 2214
406 76 1578
407 76 1831
408 76 3272
410 76 480
412 76 1839
414 76 1858
415 76 2004
418 76 1350
419 76 1818
420 76 501
422 76 2412
423 76 14
424 76 1522
425 76 588
429 76 1779
430 76 1041
431 76 531
432 76 1629
433 76 1298
435 76 1807
436 76 528
437 76 1059
439 76 1940
440 76 3073
442 76 703
444 76 1574
445 76 1456
446 76 1134
447 76 3047
448 76 1855
449 76 26
450 76 1376
451 76 1882
452 76 342
453 76 2207
454 76 75
456 76 3
458 76 416
459 76 907
460 76 1514
461 76 891
462 76 90
463 76 1699
464 76 731
466 76 1792
467 76 15
469 76 956
470 76 1893
471 76 650
473 76 2783
474 76 2266
475 76 1142
476 76 1607
477 76 2403
478 76 656
479 76 594
480 76 963
481 76 514
482 76 1894
483 76 2022
484 76 2374
485 76 44
486 76 2120
488 76 1136
489 76 1625
490 76 2844
492 76 740
493 76 1663
494 76 1200
495 76 1120
496 76 238
497 76 531
498 76 1652
499 76 2557
1 77 1012
3 77 482
4 77 652
5 77 535
6 77 621
7 77 1123
8 77 2645
9 77 1180
11 77 491
12 77 192
15 77 179
17 77 343
18 77 9
20 77 1110
23 77 891
24 77 196
25 77 102
28 77 1602
29 77 2627
31 77 1624
32 77 107
35 77 1479
36 77 912
37 77 1001
38 77 416
39 77 686
40 77 567
41 77 891
42 77 602
45 77 856
47 77 270
48 77 1798
49 77 983
50 77 1160
51 77 771
52 77 782
53 77 1294
54 77 177
55 77 518
56 77 690
57 77 2026
59 77 307
60 77 1767
62 77 936
63 77 1722
64 77 822
65 77 475
68 77 666
69 77 209
70 77 18
71 77 1326
73 77 2148
74 77 374
75 77 1639
76 77 2077
78 77 959
79 77 597
80 77 11
81 77 707
84 77 964
85 77 541
86 77 881
87 77 724
88 77 478
89 77 1092
90 77 1463
91 77 939
92 77 346
93 77 1072
94 77 738
95 77 923
96 77 278
97 77 49
98 77 467
100 77 335
101 77 1354
103 77 27
104 77 193
105 77 1556
106 77 852
107 77 344
108 77 1154
109 77 1305
113 77 1590
114 77 598
115 77 608
116 77 527
118 77 667
119 77 739
120 77 1797
121 77 1499
122 77 504
123 77 406
124 77 1551
127 77 594
129 77 936
131 77 1123
132 77 931
134 77 2064
135 77 141
137 77 1333
139 77 640
140 77 845
141 77 69
142 77 1074
143 77 1177
144 77 1544
147 77 1030
148 77 1450
149 77 1313
151 77 1208
154 77 2053
155 77 223
156 77 977
160 77 230
161 77 930
162 77 493
163 77 1623
164 77 1207
165 77 188
166 77 672
167 77 42
168 77 221
169 77 812
170 77 808
171 77 2116
172 77 522
175 77 24
178 77 800
179 77 884
180 77 1087
181 77 1524
182 77 1339
183 77 179
184 77 751
185 77 1465
186 77 798
187 77 896
188 77 1173
189 77 1536
190 77 614
191 77 1670
193 77 516
194 77 203
195 77 589
197 77 421
198 77 1766
199 77 870
200 77 631
202 77 2637
203 77 736
204 77 460
205 77 1072
206 77 528
207 77 936
208 77 1116
211 77 1327
212 77 1332
213 77 893
214 77 836
215 77 1155
216 77 683
217 77 599
218 77 1282
219 77 998
220 77 227
222 77 1246
223 77 2516
224 77 15
225 77 998
226 77 1949
228 77 359
229 77 825
230 77 847
232 77 1143
234 77 67
235 77 1481
236 77 702
238 77 746
239 77 882
240 77 962
241 77 797
242 77 804
243 77 1188
244 77 2882
246 77 1581
247 77 971
249 77 973
250 77 892
252 77 473
254 77 564
255 77 1379
257 77 3805
258 77 297
260 77 2229
261 77 1465
262 77 669
263 77 1069
264 77 1189
265 77 202
266 77 701
267 77 1746
269 77 815
270 77 2034
271 77 826
272 77 1270
274 77 70
276 77 524
277 77 1432
278 77 1347
279 77 1143
281 77 5
282 77 1692
283 77 193
284 77 1088
285 77 509
286 77 1397
287 77 591
288 77 635
289 77 1135
290 77 1087
293 77 2145
295 77 83
296 77 1693
298 77 1227
299 77 939
300 77 595
301 77 783
302 77 605
303 77 796
304 77 687
305 77 1716
306 77 1410
307 77 1129
308 77 448
309 77 887
311 77 1939
312 77 470
313 77 1015
316 77 558
318 77 516
319 77 741
320 77 797
321 77 632
322 77 2208
324 77 1162
325 77 1006
326 77 970
327 77 1891
328 77 1176
329 77 770
330 77 1245
331 77 634
332 77 964
333 77 1266
334 77 449
337 77 722
340 77 583
342 77 518
343 77 1418
344 77 1230
346 77 1265
347 77 425
348 77 929
349 77 730
350 77 366
351 77 244
352 77 1524
355 77 25
358 77 511
359 77 1733
360 77 604
361 77 787
362 77 650
363 77 999
364 77 1444
365 77 622
366 77 958
367 77 795
369 77 197
370 77 634
371 77 902
373 77 998
374 77 362
375 77 1691
376 77 1029
377 77 879
378 77 717
379 77 185
380 77 806
381 77 971
382 77 770
385 77 732
386 77 203
387 77 68
388 77 786
389 77 608
390 77 1433
391 77 772
393 77 1282
394 77 234
395 77 148
396 77 597
397 77 1680
400 77 103
401 77 680
404 77 1371
405 77 350
406 77 361
407 77 658
408 77 980
410 77 87
412 77 927
414 77 579
415 77 613
418 77 908
419 77 605
420 77 526
422 77 1598
424 77 1516
425 77 312
429 77 575
430 77 879
431 77 1322
432 77 749
433 77 1092
435 77 578
436 77 328
437 77 1314
439 77 1683
440 77 1491
442 77 2026
444 77 772
445 77 915
446 77 702
447 77 1603
448 77 1385
450 77 752
451 77 943
452 77 120
453 77 865
454 77 22
458 77 865
459 77 1669
460 77 1043
461 77 1311
463 77 906
464 77 537
466 77 572
469 77 1073
470 77 1381
471 77 672
473 77 1284
474 77 1212
475 77 672
476 77 576
477 77 2602
478 77 472
479 77 531
480 77 1632
481 77 527
482 77 578
483 77 843
484 77 2600
485 77 3
486 77 340
488 77 698
489 77 1194
490 77 1632
492 77 1031
493 77 1511
494 77 1079
495 77 570
496 77 121
497 77 232
498 77 846
499 77 803
1 78 672
3 78 15
4 78 123
5 78 1333
6 78 453
12 78 54
20 78 645
21 78 2
23 78 2411
24 78 3
26 78 5
28 78 176
31 78 1912
33 78 34
34 78 8
35 78 1126
36 78 1877
37 78 2165
38 78 362
39 78 910
40 78 781
41 78 130
42 78 6
45 78 757
48 78 1226
49 78 210
50 78 91
51 78 258
52 78 1661
53 78 1205
54 78 3
55 78 565
56 78 19
57 78 1878
62 78 907
63 78 1145
64 78 187
65 78 847
69 78 4
71 78 687
73 78 1873
75 78 171
76 78 1699
79 78 3
84 78 842
85 78 121
86 78 1762
88 78 30
89 78 687
90 78 14
91 78 32
93 78 2360
94 78 84
95 78 929
98 78 9
100 78 164
104 78 552
105 78 1878
106 78 1666
108 78 913
109 78 653
113 78 1953
114 78 743
115 78 104
119 78 859
121 78 1397
122 78 974
123 78 1661
124 78 553
125 78 4
126 78 6
127 78 113
128 78 6
129 78 723
132 78 572
133 78 31
134 78 263
135 78 211
137 78 2073
139 78 1325
140 78 1841
142 78 1970
143 78 126
144 78 1378
146 78 5
147 78 939
154 78 1268
156 78 1289
158 78 33
161 78 262
164 78 107
165 78 48
166 78 1740
167 78 131
168 78 136
169 78 833
171 78 2274
172 78 3339
173 78 6
179 78 128
180 78 1081
182 78 2048
183 78 52
184 78 2971
185 78 64
186 78 581
190 78 399
191 78 366
194 78 8
196 78 22
197 78 1072
199 78 233
203 78 289
204 78 1126
205 78 672
207 78 123
208 78 1715
209 78 37
212 78 660
213 78 237
214 78 4
216 78 136
217 78 288
218 78 4
220 78 6
222 78 347
223 78 455
225 78 545
226 78 1509
227 78 2
228 78 406
229 78 371
230 78 1358
231 78 59
232 78 431
235 78 2693
238 78 350
239 78 1737
240 78 213
241 78 1312
242 78 3
243 78 1168
244 78 496
246 78 1500
247 78 130
250 78 75
255 78 47
257 78 1226
261 78 12
263 78 551
264 78 551
265 78 4
266 78 169
267 78 179
269 78 830
270 78 1119
272 78 2823
273 78 41
278 78 1861
279 78 557
282 78 2023
283 78 546
284 78 51
286 78 1710
287 78 1484
293 78 2244
296 78 819
298 78 8
299 78 1126
301 78 4
302 78 760
303 78 822
306 78 433
307 78 630
308 78 14
309 78 798
312 78 33
313 78 212
314 78 5
316 78 111
319 78 1236
320 78 8
322 78 1105
324 78 232
325 78 1626
326 78 341
327 78 486
328 78 111
329 78 4
330 78 2851
332 78 1751
333 78 1367
334 78 1448
339 78 1
340 78 1011
341 78 7
342 78 1143
343 78 1333
346 78 196
347 78 355
348 78 1221
351 78 408
352 78 67
358 78 5
359 78 162
360 78 302
361 78 33
362 78 1591
364 78 1382
365 78 42
366 78 1063
367 78 228
368 78 3
369 78 3
370 78 107
374 78 64
376 78 23
379 78 561
380 78 1316
381 78 280
385 78 366
386 78 570
388 78 856
389 78 946
390 78 434
392 78 250
394 78 10
395 78 194
396 78 161
397 78 29
401 78 965
404 78 46
405 78 564
406 78 1039
408 78 1468
410 78 134
412 78 87
414 78 736
415 78 996
418 78 47
420 78 6
422 78 381
423 78 3
424 78 1521
425 78 316
428 78 42
429 78 923
431 78 1768
432 78 1333
433 78 1184
435 78 288
437 78 2367
440 78 881
442 78 1057
444 78 758
445 78 719
446 78 2110
447 78 910
448 78 191
449 78 3
450 78 1340
451 78 199
452 78 142
453 78 355
456 78 55
458 78 1954
459 78 1362
460 78 1602
461 78 46
462 78 258
463 78 805
466 78 581
470 78 198
471 78 1147
473 78 733
474 78 1412
475 78 53
476 78 915
479 78 1135
480 78 1868
481 78 6
482 78 296
483 78 1684
484 78 755
485 78 32
486 78 428
489 78 914
490 78 1860
491 78 24
492 78 278
493 78 399
495 78 797
497 78 66
499 78 43
1 79 878
3 79 149
4 79 1197
5 79 1253
6 79 1835
10 79 23
12 79 955
13 79 1
14 79 39
15 79 4
17 79 9
19 79 14
20 79 2278
21 79 27
23 79 1928
24 79 226
26 79 97
28 79 1906
31 79 3323
33 79 79
34 79 43
35 79 2589
36 79 2644
37 79 1894
38 79 2151
39 79 855
40 79 2191
41 79 1072
42 79 55
43 79 13
44 79 3
45 79 2613
48 79 921
49 79 1260
50 79 579
51 79 862
52 79 1434
53 79 685
55 79 1008
56 79 199
57 79 3016
62 79 4067
63 79 3093
64 79 724
65 79 1622
69 79 219
71 79 1610
73 79 3118
75 79 1930
76 79 4004
79 79 59
83 79 81
84 79 1095
85 79 660
86 79 2634
88 79 183
89 79 758
90 79 244
91 79 398
92 79 44
93 79 2026
94 79 470
95 79 970
96 79 33
97 79 62
100 79 1640
102 79 22
104 79 1140
105 79 1345
106 79 1682
108 79 1807
109 79 1634
113 79 1976
114 79 2672
115 79 603
116 79 3
118 79 188
119 79 2024
121 79 2065
122 79 1679
123 79 1297
124 79 1993
125 79 73
126 79 80
127 79 616
128 79 111
129 79 1441
132 79 2518
133 79 50
134 79 1106
135 79 980
136 79 7
137 79 2210
139 79 3735
140 79 2701
142 79 2079
143 79 2727
144 79 2079
146 79 4
147 79 1464
150 79 75
154 79 1052
156 79 701
158 79 100
161 79 1066
163 79 151
164 79 550
165 79 936
166 79 1311
167 79 926
168 79 460
169 79 2097
170 79 3
171 79 2155
172 79 1473
173 79 141
174 79 30
179 79 1112
180 79 1306
181 79 4
182 79 2161
183 79 921
184 79 1831
185 79 622
186 79 2434
189 79 4
190 79 1836
191 79 1900
194 79 236
195 79 5
196 79 103
197 79 1413
199 79 1264
203 79 1266
204 79 1808
205 79 2018
207 79 1096
208 79 1167
209 79 97
212 79 1649
213 79 1247
214 79 62
216 79 519
217 79 1911
218 79 75
220 79 225
222 79 1462
223 79 2300
225 79 1336
226 79 3016
227 79 31
228 79 2840
229 79 3314
230 79 1927
231 79 152
232 79 1969
235 79 2621
238 79 3433
239 79 2503
240 79 1304
241 79 1628
242 79 24
243 79 581
244 79 751
246 79 1386
247 79 1576
249 79 214
250 79 1522
254 79 10
255 79 704
257 79 2582
259 79 2
261 79 242
263 79 1379
264 79 1803
265 79 250
266 79 904
267 79 1543
269 79 1204
270 79 1536
272 79 1353
273 79 85
277 79 148
278 79 1281
279 79 410
282 79 2511
283 79 1187
284 79 313
285 79 3
286 79 2414
287 79 1663
290 79 6
291 79 55
293 79 1492
296 79 1228
298 79 158
299 79 2659
301 79 44
302 79 1876
303 79 1813
306 79 1034
307 79 2330
308 79 118
309 79 2060
312 79 950
313 79 1367
314 79 98
316 79 617
319 79 3379
320 79 110
322 79 2131
324 79 1070
325 79 1254
326 79 2021
327 79 657
328 79 578
329 79 112
330 79 1408
332 79 987
333 79 1843
334 79 1463
339 79 8
340 79 2612
341 79 132
342 79 2398
343 79 1702
346 79 498
347 79 2058
348 79 2287
351 79 1471
352 79 601
359 79 1516
360 79 1988
361 79 418
362 79 1539
363 79 2
364 79 1856
365 79 259
366 79 842
367 79 1105
368 79 13
369 79 211
370 79 1184
371 79 15
373 79 207
374 79 888
376 79 355
378 79 1
379 79 1195
380 79 2673
381 79 1126
382 79 8
385 79 1848
386 79 1126
388 79 1896
389 79 2769
390 79 1102
391 79 3
392 79 945
394 79 20
395 79 969
396 79 1071
397 79 177
401 79 1739
404 79 678
405 79 1134
406 79 1810
407 79 203
408 79 1620
410 79 1403
412 79 1583
414 79 1915
415 79 2708
418 79 150
422 79 1777
423 79 140
424 79 1562
425 79 1168
428 79 93
429 79 1843
431 79 2105
432 79 1275
433 79 1105
435 79 840
437 79 726
440 79 890
442 79 3120
444 79 717
445 79 1773
446 79 1975
447 79 896
448 79 548
449 79 147
450 79 1031
451 79 400
452 79 981
453 79 1091
456 79 390
458 79 1751
459 79 2487
460 79 1228
461 79 690
462 79 893
463 79 2000
464 79 56
466 79 3676
470 79 543
471 79 1284
472 79 3
473 79 1394
474 79 1898
475 79 221
476 79 1163
479 79 2372
480 79 2937
482 79 797
483 79 2614
484 79 2779
485 79 125
486 79 2807
489 79 2713
490 79 2450
491 79 102
492 79 1377
493 79 2933
494 79 3
495 79 1473
497 79 972
498 79 5
499 79 374
1 80 394
3 80 128
4 80 589
5 80 1464
6 80 767
10 80 13
12 80 611
13 80 19
14 80 9
15 80 14
17 80 15
19 80 64
20 80 1101
21 80 39
23 80 268
24 80 118
26 80 102
28 80 432
31 80 1381
32 80 6
33 80 92
34 80 10
35 80 686
36 80 210
37 80 161
38 80 874
39 80 934
40 80 590
41 80 328
42 80 99
43 80 66
44 80 6
45 80 492
48 80 332
49 80 1093
50 80 604
51 80 831
52 80 438
53 80 317
54 80 36
55 80 536
56 80 92
57 80 795
62 80 254
63 80 382
64 80 350
65 80 834
68 80 37
69 80 110
71 80 416
73 80 821
75 80 440
76 80 165
79 80 85
83 80 119
84 80 1455
85 80 174
86 80 403
87 80 5
88 80 161
89 80 253
90 80 262
91 80 396
92 80 45
93 80 208
94 80 675
95 80 1274
96 80 19
97 80 110
100 80 318
104 80 139
105 80 373
106 80 1099
108 80 321
109 80 424
113 80 739
114 80 519
115 80 156
118 80 171
119 80 1211
121 80 1075
122 80 716
123 80 835
124 80 625
125 80 42
126 80 332
127 80 178
128 80 39
129 80 1167
132 80 435
133 80 69
134 80 1125
135 80 490
136 80 6
137 80 1081
139 80 815
140 80 201
142 80 329
143 80 246
144 80 1057
145 80 4
147 80 1036
150 80 128
154 80 729
156 80 427
158 80 94
161 80 794
163 80 143
164 80 549
165 80 662
166 80 1349
167 80 359
168 80 402
169 80 433
170 80 6
171 80 595
172 80 344
173 80 63
174 80 6
178 80 35
179 80 347
180 80 838
181 80 19
182 80 1045
183 80 636
184 80 1061
185 80 488
186 80 968
189 80 12
190 80 789
191 80 759
194 80 114
196 80 97
197 80 327
199 80 467
200 80 53
201 80 3
203 80 289
204 80 324
205 80 679
207 80 373
208 80 709
209 80 107
212 80 417
213 80 427
214 80 44
216 80 333
217 80 247
218 80 71
220 80 106
222 80 451
223 80 557
225 80 403
226 80 486
227 80 36
228 80 930
229 80 189
230 80 407
231 80 158
232 80 470
235 80 1032
236 80 4
238 80 196
239 80 425
240 80 1066
241 80 638
242 80 20
243 80 367
244 80 864
246 80 739
247 80 232
249 80 141
250 80 250
255 80 102
257 80 294
261 80 255
262 80 46
263 80 426
264 80 726
265 80 103
266 80 296
267 80 360
269 80 295
270 80 308
272 80 368
273 80 164
277 80 141
278 80 646
279 80 434
281 80 32
282 80 537
283 80 166
284 80 341
286 80 1032
287 80 552
290 80 94
291 80 61
293 80 822
295 80 14
296 80 1689
297 80 1
298 80 164
299 80 1523
301 80 25
302 80 835
303 80 231
304 80 4
306 80 485
307 80 1162
308 80 131
309 80 333
312 80 551
313 80 1045
314 80 41
315 80 5
316 80 168
319 80 1111
320 80 88
322 80 668
324 80 464
325 80 1114
326 80 286
327 80 642
328 80 549
329 80 72
330 80 349
331 80 42
332 80 1223
333 80 560
334 80 955
336 80 17
338 80 11
340 80 311
341 80 48
342 80 341
343 80 1103
345 80 16
346 80 615
347 80 906
348 80 686
349 80 6
351 80 321
352 80 413
359 80 351
360 80 248
361 80 386
362 80 425
363 80 72
364 80 2099
365 80 338
366 80 803
367 80 369
368 80 13
369 80 112
370 80 646
373 80 137
374 80 518
376 80 404
378 80 10
379 80 155
380 80 1019
381 80 815
385 80 424
386 80 144
388 80 229
389 80 318
390 80 413
392 80 563
394 80 45
395 80 546
396 80 214
397 80 213
400 80 7
401 80 1015
404 80 108
405 80 689
406 80 566
407 80 162
408 80 760
410 80 1394
412 80 263
414 80 845
415 80 301
418 80 94
419 80 7
422 80 811
423 80 69
424 80 394
425 80 766
428 80 384
429 80 488
431 80 691
432 80 1317
433 80 519
435 80 482
437 80 647
440 80 240
442 80 760
444 80 566
445 80 296
446 80 1187
447 80 239
448 80 727
449 80 45
450 80 867
451 80 1157
452 80 310
453 80 292
456 80 151
458 80 395
459 80 395
460 80 1148
461 80 100
462 80 534
463 80 318
464 80 61
466 80 957
470 80 731
471 80 274
472 80 3
473 80 369
474 80 318
475 80 249
476 80 267
479 80 1165
480 80 600
482 80 467
483 80 448
484 80 523
485 80 116
486 80 955
488 80 5
489 80 688
490 80 579
491 80 86
492 80 769
493 80 329
494 80 71
495 80 222
497 80 245
499 80 379
2 81 45
3 81 192
7 81 747
8 81 526
11 81 568
24 81 476
29 81 494
54 81 683
60 81 537
61 81 454
66 81 209
68 81 356
69 81 456
74 81 93
78 81 335
80 81 440
81 81 390
82 81 964
87 81 605
101 81 32
103 81 771
126 81 498
128 81 519
131 81 745
133 81 852
141 81 308
148 81 376
150 81 216
155 81 726
160 81 669
162 81 587
175 81 765
187 81 429
188 81 507
193 81 565
194 81 503
198 81 537
200 81 374
202 81 512
206 81 959
215 81 499
220 81 487
224 81 474
234 81 308
236 81 662
249 81 51
252 81 915
258 81 32
260 81 172
262 81 416
265 81 523
271 81 703
273 81 635
274 81 321
276 81 566
288 81 17
289 81 503
300 81 16
304 81 672
305 81 555
308 81 194
310 81 897
314 81 519
318 81 928
331 81 384
337 81 369
344 81 804
349 81 676
350 81 90
369 81 467
373 81 53
375 81 497
377 81 443
387 81 816
409 81 1337
417 81 1333
421 81 734
430 81 684
439 81 524
441 81 959
454 81 751
456 81 21
457 81 180
467 81 266
469 81 506
477 81 543
478 81 851
487 81 647
488 81 626
2 82 451
3 82 1310
7 82 2592
8 82 1423
9 82 201
11 82 676
12 82 4
24 82 1593
29 82 1427
33 82 2
54 82 2337
60 82 1642
61 82 1365
66 82 1252
68 82 2319
69 82 1633
74 82 1745
78 82 1216
80 82 1840
81 82 1825
82 82 1174
87 82 2231
92 82 3
98 82 121
101 82 1536
103 82 1049
120 82 574
126 82 1404
128 82 1446
131 82 2713
133 82 1061
141 82 943
148 82 894
149 82 161
150 82 971
151 82 38
155 82 1475
158 82 1
160 82 1413
162 82 650
163 82 8
165 82 2
175 82 1106
181 82 6
183 82 4
187 82 2158
188 82 2034
189 82 22
193 82 646
194 82 1647
195 82 51
196 82 2
198 82 1677
200 82 2309
202 82 1456
206 82 1585
209 82 21
211 82 157
215 82 1987
219 82 5
220 82 1610
224 82 1917
234 82 990
236 82 2221
249 82 939
252 82 1647
254 82 38
258 82 2000
260 82 1833
262 82 2227
265 82 1620
271 82 1952
273 82 1372
274 82 981
276 82 656
288 82 1198
289 82 1987
290 82 537
291 82 5
300 82 1221
304 82 2313
305 82 1589
308 82 1388
310 82 1372
311 82 574
314 82 1388
318 82 1550
320 82 27
321 82 141
329 82 42
331 82 2252
337 82 1780
344 82 2567
349 82 2281
350 82 1038
358 82 104
363 82 481
369 82 1670
373 82 945
374 82 9
375 82 1636
377 82 2143
378 82 231
382 82 16
387 82 1272
391 82 14
392 82 26
393 82 156
409 82 589
417 82 619
420 82 98
421 82 1102
428 82 57
430 82 1862
432 82 8
439 82 1707
441 82 1422
448 82 18
454 82 1096
456 82 655
457 82 1304
462 82 26
467 82 769
469 82 2061
470 82 15
476 82 3
477 82 1350
478 82 1559
481 82 108
487 82 1715
488 82 2344
491 82 4
494 82 503
498 82 231
3 83 1301
7 83 1861
8 83 403
9 83 104
11 83 1984
24 83 1439
29 83 396
54 83 2123
60 83 2189
66 83 235
68 83 1149
69 83 1424
74 83 209
78 83 593
80 83 994
81 83 1100
82 83 1207
87 83 1756
101 83 124
103 83 1666
120 83 49
126 83 658
128 83 131
131 83 1831
141 83 1562
148 83 1105
149 83 35
151 83 4
155 83 1276
160 83 1366
162 83 2002
175 83 1610
178 83 4
181 83 17
187 83 600
188 83 689
189 83 17
193 83 2015
194 83 1412
198 83 2216
200 83 1222
202 83 384
206 83 1571
211 83 30
215 83 657
219 83 17
220 83 1449
224 83 963
234 83 1529
236 83 1773
249 83 342
252 83 1570
258 83 46
260 83 377
262 83 1201
265 83 1460
271 83 2851
273 83 556
274 83 1595
276 83 2037
288 83 259
289 83 693
290 83 31
300 83 287
303 83 2
304 83 1727
305 83 2311
308 83 1313
310 83 1167
311 83 51
314 83 129
318 83 1571
321 83 55
331 83 1231
337 83 1057
344 83 1857
349 83 1775
350 83 212
363 83 31
369 83 1495
373 83 356
375 83 2318
377 83 614
378 83 5
387 83 1521
388 83 7
393 83 38
394 83 3
409 83 845
417 83 910
430 83 2683
439 83 2177
441 83 1180
454 83 1687
456 83 36
457 83 211
467 83 924
469 83 617
477 83 398
478 83 1581
487 83 1071
488 83 1806
494 83 24
498 83 35
1 84 2015
3 84 173
4 84 2545
5 84 1333
6 84 3773
7 84 2
8 84 157
9 84 975
12 84 1143
13 84 82
15 84 2112
17 84 1139
18 84 2044
20 84 3218
22 84 1
23 84 1890
25 84 1799
28 84 2523
29 84 162
30 84 40
31 84 721
32 84 464
33 84 1
35 84 1354
36 84 3515
37 84 2462
38 84 2840
39 84 1648
40 84 1531
41 84 2422
42 84 2043
45 84 3230
46 84 20
47 84 1660
48 84 1943
49 84 2606
50 84 1401
51 84 1462
52 84 2170
53 84 3266
55 84 2064
56 84 1470
57 84 4948
58 84 232
59 84 1690
60 84 5
62 84 1927
63 84 1703
64 84 2995
65 84 1286
68 84 78
70 84 378
71 84 3047
73 84 5058
74 84 1374
75 84 2565
76 84 2758
77 84 902
78 84 49
79 84 2076
81 84 1273
84 84 2560
85 84 1523
86 84 2094
87 84 35
88 84 2139
89 84 1313
90 84 3150
91 84 1704
92 84 1887
93 84 2630
94 84 2502
95 84 1665
96 84 1480
97 84 1087
98 84 1434
99 84 112
100 84 1020
101 84 1893
102 84 595
104 84 1951
105 84 5317
106 84 2589
107 84 2012
108 84 3322
109 84 2980
111 84 10
113 84 1842
114 84 3388
115 84 1490
116 84 1690
118 84 2550
119 84 2082
120 84 976
121 84 4116
122 84 2653
123 84 2088
124 84 2976
127 84 1504
129 84 1838
130 84 4
131 84 4
132 84 3004
134 84 543
135 84 831
136 84 42
137 84 3017
138 84 7
139 84 2632
140 84 3644
141 84 4
142 84 3355
143 84 2079
144 84 4017
145 84 94
146 84 21
147 84 1191
148 84 1281
149 84 1739
151 84 1803
153 84 589
154 84 3570
155 84 6
156 84 1752
158 84 3
160 84 3
161 84 2253
163 84 1304
164 84 1486
165 84 1091
166 84 2756
167 84 454
168 84 1114
169 84 2273
170 84 1980
171 84 1003
172 84 2532
173 84 85
176 84 663
178 84 913
179 84 2318
180 84 2316
181 84 2075
182 84 2981
183 84 1150
184 84 3526
185 84 2034
186 84 3139
187 84 755
188 84 136
189 84 2046
190 84 3865
191 84 1293
195 84 1208
196 84 5
197 84 2630
198 84 5
199 84 1643
200 84 90
201 84 78
202 84 140
203 84 3363
204 84 3435
205 84 2730
206 84 29
207 84 2338
208 84 1405
210 84 30
211 84 1770
212 84 2957
213 84 1649
214 84 2164
215 84 137
216 84 1220
217 84 2490
218 84 1723
219 84 2401
222 84 2662
223 84 3474
225 84 2385
226 84 1739
228 84 2517
229 84 925
230 84 1542
231 84 3
232 84 2095
234 84 1
235 84 4332
236 84 54
238 84 925
239 84 2084
240 84 2581
241 84 2098
242 84 1571
243 84 1887
244 84 2179
245 84 3
246 84 2227
247 84 1615
248 84 19
249 84 706
250 84 1768
251 84 985
252 84 21
254 84 1182
255 84 1625
256 84 682
257 84 1341
258 84 825
259 84 1176
260 84 1235
261 84 3010
262 84 88
263 84 2363
264 84 2184
266 84 1957
267 84 2125
268 84 1404
269 84 2500
270 84 2091
272 84 2592
274 84 6
275 84 215
277 84 1673
278 84 2036
279 84 798
280 84 108
281 84 305
282 84 2840
283 84 1926
284 84 1880
285 84 1681
286 84 1095
287 84 1868
288 84 1715
289 84 139
290 84 1195
292 84 887
293 84 2437
295 84 1820
296 84 1889
298 84 2046
299 84 1246
300 84 1702
301 84 1496
302 84 1376
303 84 2631
304 84 41
305 84 5
306 84 1889
307 84 3183
308 84 168
309 84 782
311 84 912
312 84 763
313 84 2538
315 84 81
316 84 1474
317 84 1339
318 84 32
319 84 3424
320 84 1424
321 84 1422
322 84 1738
324 84 2391
325 84 2209
326 84 1623
327 84 3108
328 84 1446
329 84 1437
330 84 2632
331 84 101
332 84 3400
333 84 1865
334 84 2893
336 84 628
337 84 1313
338 84 648
339 84 25
340 84 1878
341 84 100
342 84 2492
343 84 2341
344 84 1
345 84 663
346 84 1785
347 84 2970
348 84 3034
349 84 48
350 84 1519
351 84 1398
352 84 1904
355 84 359
356 84 1382
358 84 1403
359 84 1977
360 84 2559
361 84 2057
362 84 1397
363 84 1223
364 84 2105
365 84 2699
366 84 1916
367 84 2629
370 84 2531
371 84 1028
372 84 238
373 84 660
374 84 2147
375 84 4
376 84 1773
377 84 822
378 84 1980
379 84 1956
380 84 2702
381 84 2250
382 84 2115
383 84 1114
384 84 950
385 84 2093
386 84 1954
388 84 2684
389 84 1873
390 84 1873
391 84 2165
393 84 1651
394 84 2227
395 84 853
396 84 1506
397 84 2888
400 84 477
401 84 1099
404 84 1668
405 84 2813
406 84 3148
407 84 2528
408 84 1997
410 84 395
412 84 1741
414 84 1408
415 84 1891
418 84 1230
419 84 2094
420 84 1347
422 84 1268
423 84 10
424 84 3799
425 84 1865
426 84 4
427 84 2
429 84 2619
431 84 1671
432 84 2104
433 84 3060
435 84 2593
436 84 1934
437 84 3187
439 84 8
440 84 2143
442 84 1570
444 84 792
445 84 1645
446 84 2291
447 84 2176
448 84 1566
449 84 16
450 84 3367
451 84 2289
452 84 1728
453 84 2891
458 84 2884
459 84 1645
460 84 2234
461 84 1608
463 84 744
464 84 1539
466 84 2362
469 84 123
470 84 1589
471 84 2288
473 84 2539
474 84 1932
475 84 1972
476 84 3852
477 84 147
478 84 26
479 84 2746
480 84 3541
481 84 1386
482 84 2603
483 84 2135
484 84 2041
485 84 107
486 84 2563
488 84 47
489 84 1379
490 84 3855
491 84 3
492 84 1637
493 84 2814
494 84 1264
495 84 1988
496 84 1798
497 84 1365
498 84 1371
499 84 2035
500 84 2
1 85 628
3 85 51
4 85 755
5 85 1809
6 85 652
8 85 79
9 85 234
12 85 126
13 85 43
15 85 425
17 85 484
18 85 436
20 85 1645
23 85 414
25 85 914
28 85 2053
29 85 88
30 85 13
31 85 732
32 85 84
35 85 1972
36 85 972
37 85 434
38 85 373
39 85 680
40 85 756
41 85 874
42 85 166
45 85 1603
47 85 601
48 85 995
49 85 531
50 85 393
51 85 414
52 85 417
53 85 951
55 85 477
56 85 648
57 85 2955
58 85 11
59 85 568
61 85 2
62 85 1248
63 85 962
64 85 905
65 85 1727
70 85 93
71 85 1599
73 85 3035
74 85 65
75 85 2041
76 85 1589
77 85 27
78 85 17
79 85 155
81 85 84
84 85 1319
85 85 481
86 85 1749
87 85 8
88 85 412
89 85 529
90 85 1095
91 85 890
92 85 699
93 85 952
94 85 1383
95 85 1640
96 85 600
97 85 114
98 85 170
99 85 22
100 85 337
101 85 86
102 85 3
104 85 392
105 85 700
106 85 607
107 85 192
108 85 745
109 85 1590
113 85 1760
114 85 2017
115 85 519
116 85 522
118 85 1515
119 85 713
120 85 1093
121 85 2841
122 85 401
123 85 398
124 85 1783
127 85 480
129 85 1213
132 85 2112
134 85 636
135 85 85
137 85 2228
139 85 601
140 85 975
141 85 3
142 85 1139
143 85 1702
144 85 2857
145 85 16
146 85 1
147 85 349
148 85 333
149 85 234
151 85 453
152 85 1
153 85 6
154 85 1632
156 85 858
157 85 1
161 85 304
163 85 1075
164 85 378
165 85 148
166 85 756
167 85 88
168 85 87
169 85 1244
170 85 326
171 85 1531
172 85 697
173 85 6
176 85 48
178 85 736
179 85 897
180 85 2103
181 85 316
182 85 2192
183 85 139
184 85 1119
185 85 1002
186 85 897
187 85 73
188 85 4
189 85 320
190 85 658
191 85 260
195 85 1226
197 85 2128
199 85 567
201 85 19
202 85 70
203 85 281
204 85 1137
205 85 1373
206 85 5
207 85 921
208 85 1493
210 85 2
211 85 257
212 85 1537
213 85 575
214 85 406
215 85 7
216 85 570
217 85 936
218 85 1201
219 85 605
222 85 432
223 85 1280
225 85 649
226 85 1272
228 85 1300
229 85 1236
230 85 2495
232 85 1680
233 85 2
234 85 4
235 85 2534
236 85 4
238 85 1116
239 85 1726
240 85 512
241 85 578
242 85 1393
243 85 828
244 85 440
245 85 2
246 85 947
247 85 252
248 85 9
249 85 72
250 85 303
251 85 177
252 85 4
254 85 1272
255 85 740
256 85 56
257 85 1989
258 85 73
259 85 140
260 85 269
261 85 1077
263 85 687
264 85 1651
266 85 290
267 85 1555
268 85 193
269 85 736
270 85 953
272 85 1018
274 85 6
275 85 77
277 85 677
278 85 1176
279 85 734
280 85 18
281 85 10
282 85 446
283 85 388
284 85 1226
285 85 490
286 85 1559
287 85 649
288 85 175
289 85 5
290 85 252
292 85 52
293 85 1482
295 85 168
296 85 623
298 85 898
299 85 1068
300 85 147
301 85 1390
302 85 687
303 85 923
304 85 2
306 85 1710
307 85 1706
308 85 71
309 85 317
311 85 1042
312 85 153
313 85 497
315 85 6
316 85 489
317 85 91
318 85 5
319 85 653
320 85 201
321 85 455
322 85 1813
324 85 1312
325 85 1005
326 85 602
327 85 848
328 85 389
329 85 171
330 85 1081
332 85 608
333 85 1670
334 85 541
336 85 251
337 85 77
338 85 270
339 85 2
340 85 1102
341 85 4
342 85 703
343 85 225
345 85 250
346 85 1427
347 85 406
348 85 744
349 85 6
350 85 290
351 85 750
352 85 996
355 85 112
356 85 196
358 85 175
359 85 1483
360 85 1036
361 85 1029
362 85 693
363 85 251
364 85 2070
365 85 781
366 85 697
367 85 611
370 85 746
371 85 669
372 85 11
373 85 72
374 85 119
376 85 878
377 85 65
378 85 206
379 85 387
380 85 849
381 85 248
382 85 790
383 85 349
384 85 34
385 85 1460
386 85 371
388 85 916
389 85 1110
390 85 1789
391 85 823
393 85 229
394 85 561
395 85 82
396 85 1551
397 85 551
400 85 74
401 85 1110
404 85 808
405 85 865
406 85 1651
407 85 1433
408 85 654
410 85 85
412 85 306
414 85 700
415 85 1126
418 85 512
419 85 1357
420 85 177
422 85 259
424 85 1477
425 85 166
426 85 3
429 85 2016
431 85 466
432 85 1137
433 85 1673
435 85 1165
436 85 197
437 85 849
440 85 662
442 85 388
444 85 776
445 85 1092
446 85 887
447 85 701
448 85 443
450 85 947
451 85 932
452 85 181
453 85 449
458 85 797
459 85 2430
460 85 1107
461 85 790
463 85 331
464 85 767
466 85 323
469 85 9
470 85 443
471 85 392
473 85 529
474 85 537
475 85 612
476 85 914
477 85 87
478 85 7
479 85 2300
480 85 938
481 85 159
482 85 1133
483 85 1820
484 85 1568
485 85 24
486 85 1263
488 85 7
489 85 511
490 85 903
492 85 924
493 85 714
494 85 232
495 85 1148
496 85 951
497 85 204
498 85 507
499 85 1052
500 85 4
1 86 822
3 86 44
4 86 1533
5 86 1230
6 86 737
8 86 120
9 86 1959
12 86 1071
13 86 8
15 86 756
17 86 488
18 86 1765
20 86 857
22 86 4
23 86 1744
24 86 3
25 86 466
28 86 1238
29 86 115
31 86 1682
32 86 92
35 86 1492
36 86 797
37 86 772
38 86 297
39 86 958
40 86 874
41 86 757
42 86 1612
45 86 1651
46 86 5
47 86 1665
48 86 1276
49 86 1550
50 86 619
51 86 1053
52 86 1665
53 86 1787
55 86 1588
56 86 284
57 86 1601
58 86 80
59 86 1701
62 86 2080
63 86 1185
64 86 184
65 86 1379
69 86 3
70 86 179
71 86 838
73 86 1631
74 86 1002
75 86 1241
76 86 539
77 86 354
78 86 58
79 86 1606
81 86 522
84 86 1365
85 86 1556
86 86 1211
87 86 15
88 86 1333
89 86 1005
90 86 919
91 86 1264
92 86 1210
93 86 2012
94 86 986
95 86 1752
96 86 295
97 86 892
98 86 815
99 86 54
100 86 604
101 86 272
102 86 92
104 86 1023
105 86 1702
106 86 1709
107 86 466
108 86 1754
109 86 793
113 86 1431
114 86 1745
115 86 1584
116 86 486
118 86 1063
119 86 707
120 86 1181
121 86 505
122 86 1401
123 86 1532
124 86 1361
127 86 1696
129 86 976
130 86 2
132 86 1473
134 86 1560
135 86 310
136 86 4
137 86 2224
139 86 689
140 86 764
142 86 1015
143 86 492
144 86 545
145 86 5
147 86 1111
148 86 258
149 86 1169
151 86 741
153 86 72
154 86 2470
156 86 1170
161 86 1047
163 86 852
164 86 670
165 86 1107
166 86 2005
167 86 112
168 86 307
169 86 2494
170 86 1335
171 86 1739
172 86 474
173 86 6
176 86 423
178 86 1526
179 86 790
180 86 561
181 86 1011
182 86 2199
183 86 1111
184 86 924
185 86 1363
186 86 1348
187 86 129
188 86 11
189 86 1023
190 86 765
191 86 1415
193 86 3
194 86 4
195 86 780
197 86 2347
199 86 1410
201 86 11
202 86 130
203 86 1342
204 86 1402
205 86 687
206 86 15
207 86 785
208 86 725
210 86 21
211 86 1171
212 86 838
213 86 1413
214 86 2333
215 86 18
216 86 1026
217 86 1078
218 86 838
219 86 954
220 86 2
222 86 800
223 86 1936
225 86 2440
226 86 2342
228 86 1795
229 86 1073
230 86 382
232 86 1742
235 86 1767
236 86 14
238 86 1015
239 86 1213
240 86 1489
241 86 1659
242 86 803
243 86 1571
244 86 2145
246 86 1333
247 86 1255
248 86 6
249 86 722
250 86 1465
251 86 585
252 86 10
254 86 756
255 86 1162
256 86 429
257 86 1198
258 86 106
259 86 301
260 86 1688
261 86 938
263 86 2327
264 86 719
265 86 4
266 86 689
267 86 889
268 86 340
269 86 1630
270 86 2390
272 86 1961
275 86 170
276 86 4
277 86 1416
278 86 1784
279 86 727
280 86 48
281 86 233
282 86 1550
283 86 985
284 86 2056
285 86 511
286 86 259
287 86 661
288 86 1133
289 86 18
290 86 866
292 86 134
293 86 1898
295 86 435
296 86 2500
298 86 1298
299 86 1706
300 86 1120
301 86 831
302 86 479
303 86 721
304 86 25
306 86 1451
307 86 835
308 86 51
309 86 1335
311 86 1140
312 86 1044
313 86 1514
315 86 11
316 86 1614
317 86 551
318 86 10
319 86 1932
320 86 1647
321 86 595
322 86 2528
324 86 1200
325 86 1171
326 86 2031
327 86 319
328 86 723
329 86 1708
330 86 2031
332 86 1292
333 86 1641
334 86 2241
336 86 890
337 86 488
338 86 861
340 86 801
341 86 2
342 86 918
343 86 1702
345 86 897
346 86 2453
347 86 287
348 86 1802
349 86 14
350 86 800
351 86 908
352 86 1367
355 86 198
356 86 352
358 86 871
359 86 894
360 86 1086
361 86 1166
362 86 1777
363 86 854
364 86 1300
365 86 1591
366 86 1746
367 86 1467
369 86 5
370 86 1545
371 86 1565
372 86 75
373 86 731
374 86 941
376 86 1233
377 86 122
378 86 752
379 86 1059
380 86 934
381 86 969
382 86 436
383 86 764
384 86 141
385 86 1534
386 86 965
388 86 714
389 86 794
390 86 1476
391 86 421
393 86 1096
394 86 883
395 86 307
396 86 853
397 86 1072
400 86 102
401 86 1051
404 86 1193
405 86 1248
406 86 1269
407 86 1075
408 86 1978
410 86 161
412 86 1445
414 86 420
415 86 817
418 86 1034
419 86 1455
420 86 918
422 86 1430
424 86 493
425 86 303
427 86 6
429 86 2262
431 86 1771
432 86 1574
433 86 1187
435 86 1055
436 86 475
437 86 1280
440 86 1844
442 86 1013
444 86 764
445 86 892
446 86 1468
447 86 1940
448 86 321
450 86 505
451 86 1561
452 86 855
453 86 643
458 86 1668
459 86 1203
460 86 1180
461 86 1160
463 86 1297
464 86 2560
466 86 1028
469 86 16
470 86 319
471 86 616
473 86 573
474 86 1754
475 86 1091
476 86 1152
477 86 114
478 86 16
479 86 824
480 86 1566
481 86 930
482 86 1084
483 86 1245
484 86 1182
485 86 46
486 86 1737
488 86 15
489 86 2857
490 86 1425
492 86 788
493 86 1790
494 86 847
495 86 2383
496 86 487
497 86 664
498 86 1426
499 86 1053
1 87 5
18 87 5
27 87 5
32 87 7
40 87 5
41 87 1
54 87 7
61 87 6
65 87 1
92 87 3
94 87 2
102 87 7
110 87 3
113 87 3
120 87 10
139 87 7
161 87 4
174 87 5
176 87 4
179 87 2
181 87 10
189 87 7
206 87 4
207 87 7
244 87 4
252 87 1
256 87 4
264 87 4
294 87 3
306 87 4
311 87 4
318 87 1
354 87 2
367 87 16
381 87 7
390 87 5
392 87 6
400 87 6
462 87 9
471 87 6
473 87 7
478 87 4
493 87 12
495 87 8
1 88 3405
2 88 1024
3 88 2731
4 88 2660
5 88 3779
6 88 3460
7 88 2038
8 88 1862
9 88 2603
10 88 1163
11 88 2160
12 88 950
13 88 1284
14 88 1643
15 88 1529
16 88 1411
17 88 1403
18 88 1974
19 88 1467
20 88 712
21 88 1029
22 88 1103
23 88 2855
24 88 2959
25 88 1858
26 88 1844
27 88 1050
28 88 1647
29 88 1840
30 88 1868
31 88 1546
32 88 1120
33 88 1014
34 88 1517
35 88 3370
36 88 3791
37 88 3110
38 88 3035
39 88 3184
40 88 2419
41 88 2120
42 88 1264
43 88 1451
44 88 1081
45 88 2768
46 88 1580
47 88 1411
48 88 1879
49 88 2635
50 88 2054
51 88 2647
52 88 3212
53 88 2334
54 88 3037
55 88 3134
56 88 2000
57 88 1711
58 88 1868
59 88 1440
60 88 2172
61 88 1106
62 88 2597
63 88 2191
64 88 2220
65 88 3265
66 88 1935
67 88 2072
68 88 2124
69 88 2934
70 88 3837
71 88 2616
72 88 2091
73 88 1810
74 88 1414
75 88 1646
76 88 4548
77 88 1874
78 88 2743
79 88 1279
80 88 1966
81 88 2023
82 88 1455
83 88 2231
84 88 4513
85 88 1796
86 88 3570
87 88 1635
88 88 2303
89 88 3162
90 88 1759
91 88 3000
92 88 1169
93 88 2184
94 88 2369
95 88 3412
96 88 1337
97 88 682
98 88 4325
99 88 917
100 88 3048
101 88 1766
102 88 1233
103 88 1697
104 88 2095
105 88 2179
106 88 1259
107 88 1534
108 88 1951
109 88 2548
110 88 1432
111 88 1411
112 88 1131
113 88 3077
114 88 3905
115 88 1863
116 88 2475
117 88 2179
118 88 1970
119 88 2754
120 88 1835
121 88 3153
122 88 2292
123 88 2833
124 88 2096
125 88 1693
126 88 1356
127 88 1812
128 88 1460
129 88 4382
130 88 1098
131 88 2007
132 88 2217
133 88 3327
134 88 2219
135 88 1983
136 88 1094
137 88 4131
138 88 1615
139 88 3314
140 88 3763
141 88 1906
142 88 4450
143 88 1247
144 88 3084
145 88 1933
146 88 647
147 88 3526
148 88 2497
149 88 940
150 88 902
151 88 1286
152 88 952
153 88 2463
154 88 5784
155 88 1360
156 88 2135
157 88 979
158 88 1060
159 88 875
160 88 1384
161 88 1971
162 88 2222
163 88 1681
164 88 1972
165 88 928
166 88 1987
167 88 3945
168 88 1273
169 88 2820
170 88 2232
171 88 2432
172 88 1735
173 88 847
174 88 792
175 88 1838
176 88 1994
177 88 2344
178 88 1055
179 88 2151
180 88 3490
181 88 1723
182 88 4128
183 88 964
184 88 2718
185 88 2483
186 88 2197
187 88 1835
188 88 1640
189 88 1738
190 88 3401
191 88 3305
192 88 2410
193 88 2201
194 88 2898
195 88 1436
196 88 1031
197 88 3064
198 88 2000
199 88 2640
200 88 2093
201 88 1941
202 88 1800
203 88 2930
204 88 2538
205 88 3738
206 88 2832
207 88 2165
208 88 2109
209 88 780
210 88 1010
211 88 908
212 88 2511
213 88 2697
214 88 3008
215 88 1688
216 88 1810
217 88 2920
218 88 1740
219 88 1970
220 88 2916
221 88 745
222 88 2055
223 88 3571
224 88 1988
225 88 3070
226 88 2684
227 88 1067
228 88 2528
229 88 1743
230 88 3696
231 88 1039
232 88 3963
233 88 961
234 88 1885
235 88 2832
236 88 1757
237 88 2019
238 88 1657
239 88 3539
240 88 2754
241 88 2650
242 88 1824
243 88 1828
244 88 3705
245 88 1753
246 88 2331
247 88 2571
248 88 1032
249 88 3053
250 88 2560
251 88 1245
252 88 2952
253 88 3033
254 88 1499
255 88 2714
256 88 1887
257 88 4856
258 88 1592
259 88 1987
260 88 1996
261 88 1875
262 88 2086
263 88 2978
264 88 1900
265 88 2878
266 88 2948
267 88 3227
268 88 812
269 88 1767
270 88 5138
271 88 1596
272 88 4355
273 88 1585
274 88 1903
275 88 681
276 88 2168
277 88 2074
278 88 3311
279 88 1608
280 88 957
281 88 1635
282 88 1951
283 88 2105
284 88 2571
285 88 2533
286 88 2494
287 88 1709
288 88 1613
289 88 1653
290 88 2114
291 88 1898
292 88 1192
293 88 2591
294 88 911
295 88 1537
296 88 1995
297 88 854
298 88 2015
299 88 2276
300 88 1655
301 88 1852
302 88 2890
303 88 3198
304 88 1763
305 88 2120
306 88 2212
307 88 758
308 88 2739
309 88 1366
310 88 2264
311 88 1781
312 88 2246
313 88 2586
314 88 1419
315 88 1875
316 88 1801
317 88 1394
318 88 2919
319 88 2018
320 88 2193
321 88 2513
322 88 3274
323 88 2254
324 88 1554
325 88 2948
326 88 1919
327 88 3100
328 88 1977
329 88 2183
330 88 4355
331 88 2225
332 88 2967
333 88 3553
334 88 2818
335 88 1752
336 88 1621
337 88 2015
338 88 1625
339 88 673
340 88 3330
341 88 828
342 88 851
343 88 2453
344 88 2077
345 88 1751
346 88 1653
347 88 3068
348 88 1993
349 88 1762
350 88 2153
351 88 1269
352 88 2431
353 88 1804
354 88 847
355 88 3669
356 88 814
357 88 2392
358 88 4314
359 88 3398
360 88 2987
361 88 2152
362 88 2383
363 88 2143
364 88 2878
365 88 2465
366 88 2361
367 88 2274
368 88 1418
369 88 2925
370 88 2801
371 88 1507
372 88 1866
373 88 3060
374 88 2113
375 88 2200
376 88 2998
377 88 1934
378 88 1855
379 88 2120
380 88 2744
381 88 1941
382 88 2747
383 88 2871
384 88 1234
385 88 2172
386 88 2063
387 88 2518
388 88 3260
389 88 3312
390 88 2293
391 88 2743
392 88 1126
393 88 947
394 88 2044
395 88 1935
396 88 3904
397 88 2551
398 88 1260
399 88 1305
400 88 1175
401 88 2442
402 88 669
403 88 1206
404 88 2723
405 88 2380
406 88 3409
407 88 1931
408 88 2202
409 88 1083
410 88 2413
411 88 2015
412 88 2567
413 88 2086
414 88 2872
415 88 3296
416 88 1244
417 88 1080
418 88 2412
419 88 2498
420 88 4296
421 88 1347
422 88 3389
423 88 1334
424 88 1453
425 88 2409
426 88 1818
427 88 1197
428 88 1574
429 88 1734
430 88 1607
431 88 3171
432 88 2228
433 88 3318
434 88 2042
435 88 2546
436 88 1443
437 88 2809
438 88 940
439 88 2155
440 88 2542
441 88 2207
442 88 3434
443 88 1870
444 88 1808
445 88 1697
446 88 2174
447 88 2703
448 88 2272
449 88 1364
450 88 2811
451 88 2645
452 88 3365
453 88 3215
454 88 1706
455 88 1144
456 88 2708
457 88 1978
458 88 3377
459 88 3759
460 88 2861
461 88 2664
462 88 1181
463 88 1420
464 88 2035
465 88 1813
466 88 1802
467 88 725
468 88 662
469 88 1651
470 88 2242
471 88 3462
472 88 2214
473 88 3357
474 88 2339
475 88 2018
476 88 1486
477 88 1942
478 88 2913
479 88 2763
480 88 3563
481 88 4317
482 88 2532
483 88 3519
484 88 3666
485 88 1389
486 88 2579
487 88 1837
488 88 1688
489 88 1783
490 88 3158
491 88 1014
492 88 2528
493 88 2706
494 88 2107
495 88 3583
496 88 1821
497 88 3012
498 88 1475
499 88 2185
500 88 1791
1 89 1451
2 89 472
3 89 567
4 89 1154
5 89 1840
6 89 1384
7 89 1915
8 89 2218
9 89 1400
10 89 974
11 89 208
12 89 929
13 89 701
14 89 605
15 89 1085
16 89 534
17 89 618
18 89 479
19 89 670
20 89 705
21 89 582
22 89 1047
23 89 1668
24 89 1127
25 89 543
26 89 1101
27 89 296
28 89 1968
29 89 2186
30 89 1348
31 89 2314
32 89 518
33 89 1263
34 89 1412
35 89 1410
36 89 980
37 89 2087
38 89 832
39 89 983
40 89 626
41 89 1871
42 89 1094
43 89 668
44 89 323
45 89 1561
46 89 553
47 89 1024
48 89 878
49 89 1454
50 89 993
51 89 2078
52 89 1663
53 89 1189
54 89 441
55 89 1777
56 89 1552
57 89 1910
58 89 157
59 89 1022
60 89 1155
61 89 422
62 89 1493
63 89 2679
64 89 1273
65 89 887
66 89 643
67 89 1421
68 89 1137
69 89 1080
70 89 867
71 89 197
72 89 389
73 89 1956
74 89 445
75 89 1958
76 89 1434
77 89 502
78 89 664
79 89 1111
80 89 1216
81 89 1600
82 89 919
83 89 924
84 89 595
85 89 1398
86 89 1393
87 89 649
88 89 675
89 89 644
90 89 596
91 89 1088
92 89 1128
93 89 1834
94 89 999
95 89 1222
96 89 1555
97 89 518
98 89 575
99 89 737
100 89 2130
101 89 1182
102 89 524
103 89 1212
104 89 1538
105 89 2536
106 89 1422
107 89 1084
108 89 1000
109 89 199
110 89 545
111 89 341
112 89 262
113 89 3301
114 89 1746
115 89 1351
116 89 761
117 89 1083
118 89 1752
119 89 1286
120 89 446
121 89 855
122 89 456
123 89 891
124 89 1456
125 89 861
126 89 1179
127 89 1393
128 89 286
129 89 1082
130 89 1027
131 89 1906
132 89 324
133 89 568
134 89 707
135 89 806
136 89 490
137 89 2412
138 89 577
139 89 1397
140 89 961
141 89 759
142 89 2418
143 89 812
144 89 826
145 89 588
146 89 249
147 89 525
148 89 1554
149 89 390
150 89 272
151 89 622
152 89 612
153 89 525
154 89 797
155 89 464
156 89 585
157 89 661
158 89 1208
159 89 426
160 89 492
161 89 981
162 89 205
163 89 790
164 89 972
165 89 924
166 89 1967
167 89 387
168 89 763
169 89 1872
170 89 839
171 89 665
172 89 2642
173 89 680
174 89 511
175 89 1229
176 89 458
177 89 411
178 89 724
179 89 1877
180 89 3213
181 89 733
182 89 2527
183 89 923
184 89 645
185 89 1222
186 89 1305
187 89 1053
188 89 1463
189 89 741
190 89 1355
191 89 1337
192 89 1018
193 89 233
194 89 1122
195 89 666
196 89 1285
197 89 1792
198 89 1149
199 89 1333
200 89 1132
201 89 619
202 89 2244
203 89 1012
204 89 1267
205 89 1391
206 89 1152
207 89 1953
208 89 1661
209 89 562
210 89 772
211 89 405
212 89 189
213 89 1334
214 89 1518
215 89 1378
216 89 1102
217 89 1416
218 89 1195
219 89 1133
220 89 1178
221 89 852
222 89 1369
223 89 1569
224 89 1173
225 89 902
226 89 1127
227 89 609
228 89 1653
229 89 865
230 89 965
231 89 448
232 89 1551
233 89 644
234 89 797
235 89 1378
236 89 601
237 89 753
238 89 959
239 89 1497
240 89 1415
241 89 978
242 89 572
243 89 1256
244 89 1503
245 89 1193
246 89 827
247 89 1437
248 89 761
249 89 916
250 89 1440
251 89 1363
252 89 1104
253 89 428
254 89 727
255 89 1243
256 89 516
257 89 813
258 89 1041
259 89 568
260 89 743
261 89 655
262 89 1078
263 89 883
264 89 1473
265 89 1161
266 89 2327
267 89 2085
268 89 799
269 89 1926
270 89 1938
271 89 1009
272 89 2661
273 89 783
274 89 709
275 89 582
276 89 237
277 89 789
278 89 1555
279 89 1454
280 89 723
281 89 487
282 89 1297
283 89 1495
284 89 1432
285 89 677
286 89 1114
287 89 920
288 89 1261
289 89 1466
290 89 319
291 89 349
292 89 445
293 89 672
294 89 1071
295 89 984
296 89 421
297 89 468
298 89 466
299 89 305
300 89 1361
301 89 582
302 89 1347
303 89 358
304 89 661
305 89 1192
306 89 1395
307 89 733
308 89 636
309 89 953
310 89 812
311 89 447
312 89 1457
313 89 1460
314 89 287
315 89 659
316 89 1380
317 89 788
318 89 1125
319 89 2619
320 89 615
321 89 1704
322 89 873
323 89 388
324 89 1524
325 89 1942
326 89 692
327 89 933
328 89 975
329 89 598
330 89 2831
331 89 1134
332 89 679
333 89 380
334 89 995
335 89 812
336 89 1378
337 89 1586
338 89 1410
339 89 269
340 89 487
341 89 629
342 89 1033
343 89 717
344 89 1937
345 89 1453
346 89 716
347 89 759
348 89 667
349 89 712
350 89 1321
351 89 1973
352 89 1171
353 89 753
354 89 1173
355 89 909
356 89 729
357 89 1037
358 89 577
359 89 2043
360 89 1434
361 89 342
362 89 897
363 89 298
364 89 1780
365 89 1110
366 89 853
367 89 1555
368 89 1241
369 89 1138
370 89 1127
371 89 529
372 89 166
373 89 980
374 89 533
375 89 1180
376 89 1102
377 89 954
378 89 372
379 89 1538
380 89 2111
381 89 1018
382 89 790
383 89 1004
384 89 417
385 89 434
386 89 1527
387 89 722
388 89 365
389 89 441
390 89 1408
391 89 792
392 89 1052
393 89 406
394 89 983
395 89 870
396 89 1620
397 89 1613
398 89 1133
399 89 504
400 89 564
401 89 1174
402 89 259
403 89 391
404 89 1268
405 89 1165
406 89 1832
407 89 1683
408 89 496
409 89 844
410 89 341
411 89 358
412 89 1501
413 89 1413
414 89 1448
415 89 437
416 89 1160
417 89 849
418 89 776
419 89 455
420 89 573
421 89 1134
422 89 1328
423 89 1046
424 89 2490
425 89 1786
426 89 1150
427 89 954
428 89 1208
429 89 814
430 89 1022
431 89 1715
432 89 360
433 89 925
434 89 339
435 89 1041
436 89 1041
437 89 1264
438 89 665
439 89 1140
440 89 1067
441 89 821
442 89 543
443 89 832
444 89 1661
445 89 814
446 89 1259
447 89 1100
448 89 1495
449 89 1012
450 89 1527
451 89 946
452 89 2217
453 89 854
454 89 1190
455 89 282
456 89 781
457 89 663
458 89 1048
459 89 824
460 89 1950
461 89 1194
462 89 1205
463 89 989
464 89 718
465 89 699
466 89 442
467 89 1148
468 89 268
469 89 1448
470 89 1462
471 89 388
472 89 462
473 89 1619
474 89 689
475 89 1646
476 89 1334
477 89 2203
478 89 1166
479 89 1196
480 89 2399
481 89 591
482 89 1014
483 89 1489
484 89 568
485 89 775
486 89 1718
487 89 958
488 89 668
489 89 2380
490 89 371
491 89 1239
492 89 594
493 89 2051
494 89 354
495 89 992
496 89 585
497 89 1068
498 89 756
499 89 323
500 89 1131
1 90 638
2 90 615
3 90 311
4 90 784
5 90 948
6 90 1061
7 90 729
8 90 1170
9 90 813
10 90 673
11 90 266
12 90 575
13 90 556
14 90 233
15 90 961
16 90 364
17 90 624
18 90 285
19 90 666
20 90 649
21 90 765
22 90 386
23 90 802
24 90 913
25 90 888
26 90 1127
27 90 295
28 90 1253
29 90 1101
30 90 889
31 90 1928
32 90 303
33 90 619
34 90 191
35 90 512
36 90 998
37 90 331
38 90 1561
39 90 911
40 90 461
41 90 528
42 90 324
43 90 651
44 90 451
45 90 1278
46 90 573
47 90 750
48 90 402
49 90 1158
50 90 993
51 90 822
52 90 665
53 90 694
54 90 997
55 90 1499
56 90 642
57 90 1198
58 90 1079
59 90 679
60 90 343
61 90 1033
62 90 533
63 90 429
64 90 275
65 90 1043
66 90 1027
67 90 918
68 90 794
69 90 903
70 90 217
71 90 1024
72 90 317
73 90 1176
74 90 632
75 90 1311
76 90 400
77 90 390
78 90 480
79 90 325
80 90 355
81 90 739
82 90 792
83 90 601
84 90 1060
85 90 1650
86 90 679
87 90 570
88 90 1890
89 90 1390
90 90 196
91 90 1233
92 90 678
93 90 467
94 90 559
95 90 808
96 90 569
97 90 632
98 90 481
99 90 485
100 90 545
101 90 1212
102 90 309
103 90 822
104 90 298
105 90 1015
106 90 769
107 90 666
108 90 1324
109 90 1002
110 90 192
111 90 636
112 90 331
113 90 1005
114 90 1180
115 90 1621
116 90 1070
117 90 681
118 90 793
119 90 790
120 90 854
121 90 874
122 90 1380
123 90 639
124 90 540
125 90 1169
126 90 158
127 90 1562
128 90 742
129 90 320
130 90 409
131 90 709
132 90 409
133 90 372
134 90 411
135 90 751
136 90 343
137 90 1852
138 90 432
139 90 1256
140 90 984
141 90 811
142 90 857
143 90 694
144 90 858
145 90 621
146 90 364
147 90 1571
148 90 837
149 90 543
150 90 882
151 90 357
152 90 429
153 90 264
154 90 677
155 90 696
156 90 880
157 90 438
158 90 643
159 90 1109
160 90 669
161 90 189
162 90 304
163 90 405
164 90 1015
165 90 569
166 90 974
167 90 664
168 90 763
169 90 607
170 90 769
171 90 574
172 90 978
173 90 384
174 90 195
175 90 802
176 90 581
177 90 1440
178 90 312
179 90 541
180 90 823
181 90 552
182 90 1868
183 90 533
184 90 346
185 90 837
186 90 486
187 90 318
188 90 466
189 90 513
190 90 1069
191 90 697
192 90 649
193 90 274
194 90 913
195 90 329
196 90 656
197 90 486
198 90 377
199 90 249
200 90 788
201 90 617
202 90 1138
203 90 1082
204 90 363
205 90 410
206 90 309
207 90 530
208 90 547
209 90 607
210 90 374
211 90 562
212 90 969
213 90 223
214 90 1472
215 90 472
216 90 655
217 90 836
218 90 1210
219 90 449
220 90 930
221 90 346
222 90 807
223 90 606
224 90 395
225 90 783
226 90 701
227 90 812
228 90 654
229 90 829
230 90 278
231 90 170
232 90 858
233 90 466
234 90 775
235 90 764
236 90 548
237 90 468
238 90 797
239 90 738
240 90 1182
241 90 394
242 90 719
243 90 551
244 90 422
245 90 705
246 90 1714
247 90 1114
248 90 360
249 90 724
250 90 412
251 90 278
252 90 335
253 90 735
254 90 310
255 90 476
256 90 495
257 90 595
258 90 676
259 90 877
260 90 904
261 90 166
262 90 766
263 90 744
264 90 929
265 90 977
266 90 1020
267 90 334
268 90 523
269 90 326
270 90 391
271 90 1034
272 90 594
273 90 169
274 90 848
275 90 473
276 90 290
277 90 331
278 90 345
279 90 787
280 90 520
281 90 452
282 90 753
283 90 323
284 90 663
285 90 1069
286 90 563
287 90 616
288 90 638
289 90 510
290 90 869
291 90 413
292 90 266
293 90 700
294 90 601
295 90 619
296 90 379
297 90 162
298 90 306
299 90 779
300 90 595
301 90 780
302 90 459
303 90 311
304 90 589
305 90 352
306 90 697
307 90 699
308 90 314
309 90 1105
310 90 688
311 90 825
312 90 600
313 90 1216
314 90 832
315 90 594
316 90 1578
317 90 534
318 90 327
319 90 1872
320 90 1472
321 90 1711
322 90 1211
323 90 1451
324 90 1034
325 90 811
326 90 376
327 90 1912
328 90 963
329 90 1481
330 90 623
331 90 811
332 90 1195
333 90 751
334 90 436
335 90 640
336 90 560
337 90 801
338 90 593
339 90 399
340 90 1214
341 90 409
342 90 453
343 90 1098
344 90 680
345 90 580
346 90 1234
347 90 1658
348 90 936
349 90 561
350 90 508
351 90 299
352 90 835
353 90 222
354 90 611
355 90 205
356 90 565
357 90 668
358 90 504
359 90 329
360 90 847
361 90 818
362 90 711
363 90 870
364 90 1033
365 90 495
366 90 1283
367 90 1574
368 90 888
369 90 933
370 90 828
371 90 373
372 90 1042
373 90 794
374 90 357
375 90 365
376 90 1239
377 90 337
378 90 460
379 90 310
380 90 862
381 90 199
382 90 320
383 90 611
384 90 336
385 90 706
386 90 304
387 90 494
388 90 305
389 90 1206
390 90 705
391 90 348
392 90 240
393 90 576
394 90 466
395 90 741
396 90 290
397 90 657
398 90 1006
399 90 213
400 90 303
401 90 2056
402 90 574
403 90 503
404 90 426
405 90 1376
406 90 711
407 90 839
408 90 1327
409 90 683
410 90 479
411 90 332
412 90 428
413 90 944
414 90 438
415 90 1162
416 90 1094
417 90 671
418 90 808
419 90 1390
420 90 488
421 90 480
422 90 705
423 90 441
424 90 480
425 90 627
426 90 676
427 90 396
428 90 564
429 90 1767
430 90 1104
431 90 369
432 90 496
433 90 708
434 90 293
435 90 541
436 90 686
437 90 540
438 90 340
439 90 375
440 90 416
441 90 738
442 90 445
443 90 634
444 90 538
445 90 876
446 90 743
447 90 430
448 90 922
449 90 483
450 90 250
451 90 370
452 90 367
453 90 1328
454 90 857
455 90 296
456 90 762
457 90 1018
458 90 322
459 90 555
460 90 758
461 90 385
462 90 229
463 90 1023
464 90 553
465 90 313
466 90 688
467 90 568
468 90 511
469 90 494
470 90 872
471 90 487
472 90 338
473 90 1376
474 90 496
475 90 721
476 90 538
477 90 1133
478 90 332
479 90 412
480 90 1377
481 90 455
482 90 538
483 90 665
484 90 645
485 90 491
486 90 695
487 90 589
488 90 558
489 90 395
490 90 695
491 90 722
492 90 1361
493 90 1380
494 90 913
495 90 1114
496 90 865
497 90 537
498 90 554
499 90 770
500 90 673
1 91 1328
2 91 757
3 91 1170
4 91 1690
5 91 1849
6 91 934
7 91 1119
8 91 1099
9 91 1042
10 91 843
11 91 880
12 91 929
13 91 503
14 91 685
15 91 787
16 91 485
17 91 849
18 91 1763
19 91 1080
20 91 405
21 91 746
22 91 682
23 91 862
24 91 565
25 91 1112
26 91 1220
27 91 515
28 91 290
29 91 1089
30 91 880
31 91 995
32 91 1207
33 91 323
34 91 448
35 91 1225
36 91 2053
37 91 1765
38 91 741
39 91 3272
40 91 2109
41 91 1181
42 91 1215
43 91 1113
44 91 380
45 91 658
46 91 1247
47 91 471
48 91 488
49 91 601
50 91 866
51 91 1888
52 91 1266
53 91 563
54 91 406
55 91 682
56 91 625
57 91 1718
58 91 715
59 91 443
60 91 1296
61 91 426
62 91 1332
63 91 1236
64 91 2227
65 91 1737
66 91 1596
67 91 284
68 91 1196
69 91 504
70 91 672
71 91 1306
72 91 447
73 91 1785
74 91 697
75 91 298
76 91 861
77 91 644
78 91 774
79 91 1206
80 91 812
81 91 1389
82 91 580
83 91 421
84 91 2642
85 91 1028
86 91 1431
87 91 360
88 91 977
89 91 876
90 91 866
91 91 1021
92 91 707
93 91 401
94 91 1220
95 91 1069
96 91 836
97 91 748
98 91 764
99 91 759
100 91 887
101 91 858
102 91 903
103 91 1167
104 91 1826
105 91 874
106 91 1269
107 91 796
108 91 584
109 91 1336
110 91 770
111 91 726
112 91 542
113 91 1398
114 91 701
115 91 985
116 91 506
117 91 1136
118 91 575
119 91 1644
120 91 1109
121 91 1618
122 91 2828
123 91 303
124 91 1794
125 91 470
126 91 901
127 91 914
128 91 736
129 91 894
130 91 683
131 91 1124
132 91 1117
133 91 537
134 91 1627
135 91 1225
136 91 339
137 91 1189
138 91 987
139 91 686
140 91 2021
141 91 1001
142 91 961
143 91 1146
144 91 1656
145 91 551
146 91 441
147 91 365
148 91 369
149 91 1405
150 91 1419
151 91 1201
152 91 410
153 91 228
154 91 916
155 91 407
156 91 406
157 91 408
158 91 360
159 91 524
160 91 404
161 91 834
162 91 862
163 91 780
164 91 895
165 91 881
166 91 415
167 91 947
168 91 527
169 91 432
170 91 968
171 91 2337
172 91 1310
173 91 646
174 91 489
175 91 1214
176 91 1003
177 91 528
178 91 361
179 91 1098
180 91 937
181 91 969
182 91 1221
183 91 978
184 91 1377
185 91 1047
186 91 773
187 91 315
188 91 297
189 91 926
190 91 1004
191 91 851
192 91 699
193 91 862
194 91 570
195 91 1017
196 91 344
197 91 562
198 91 1353
199 91 755
200 91 1212
201 91 564
202 91 1139
203 91 1026
204 91 1748
205 91 1771
206 91 1254
207 91 1210
208 91 355
209 91 672
210 91 804
211 91 1503
212 91 1304
213 91 723
214 91 372
215 91 304
216 91 1422
217 91 1372
218 91 1073
219 91 1115
220 91 620
221 91 297
222 91 1224
223 91 989
224 91 785
225 91 713
226 91 1910
227 91 828
228 91 1376
229 91 1056
230 91 1201
231 91 542
232 91 2489
233 91 371
234 91 1030
235 91 851
236 91 396
237 91 877
238 91 997
239 91 1425
240 91 554
241 91 495
242 91 1356
243 91 1254
244 91 1482
245 91 178
246 91 1117
247 91 590
248 91 863
249 91 953
250 91 550
251 91 1544
252 91 1252
253 91 921
254 91 1068
255 91 1055
256 91 982
257 91 1073
258 91 1338
259 91 767
260 91 1867
261 91 876
262 91 1197
263 91 775
264 91 636
265 91 602
266 91 851
267 91 1764
268 91 354
269 91 1782
270 91 657
271 91 1477
272 91 1814
273 91 687
274 91 1002
275 91 965
276 91 832
277 91 1159
278 91 1150
279 91 2112
280 91 752
281 91 805
282 91 1721
283 91 1862
284 91 1728
285 91 499
286 91 902
287 91 432
288 91 516
289 91 252
290 91 1223
291 91 957
292 91 811
293 91 404
294 91 875
295 91 904
296 91 1355
297 91 390
298 91 685
299 91 1740
300 91 500
301 91 1454
302 91 1450
303 91 564
304 91 394
305 91 1373
306 91 1846
307 91 445
308 91 1212
309 91 331
310 91 519
311 91 1110
312 91 997
313 91 560
314 91 694
315 91 596
316 91 999
317 91 847
318 91 1318
319 91 669
320 91 1190
321 91 440
322 91 1251
323 91 508
324 91 819
325 91 1643
326 91 1767
327 91 1598
328 91 907
329 91 1189
330 91 1774
331 91 1133
332 91 2243
333 91 1922
334 91 1220
335 91 1053
336 91 946
337 91 1328
338 91 880
339 91 414
340 91 1089
341 91 629
342 91 1407
343 91 731
344 91 1149
345 91 867
346 91 636
347 91 720
348 91 688
349 91 378
350 91 433
351 91 1001
352 91 1112
353 91 1392
354 91 880
355 91 635
356 91 341
357 91 755
358 91 676
359 91 1718
360 91 1259
361 91 1770
362 91 942
363 91 1311
364 91 326
365 91 1143
366 91 1555
367 91 1523
368 91 416
369 91 535
370 91 1671
371 91 393
372 91 742
373 91 950
374 91 1493
375 91 1390
376 91 1021
377 91 311
378 91 912
379 91 1870
380 91 1536
381 91 782
382 91 891
383 91 330
384 91 846
385 91 782
386 91 1885
387 91 1406
388 91 546
389 91 1124
390 91 1852
391 91 898
392 91 486
393 91 1438
394 91 1685
395 91 1265
396 91 575
397 91 1697
398 91 340
399 91 873
400 91 1202
401 91 1858
402 91 597
403 91 458
404 91 1071
405 91 480
406 91 788
407 91 612
408 91 776
409 91 1023
410 91 954
411 91 460
412 91 486
413 91 258
414 91 1390
415 91 1195
416 91 383
417 91 1100
418 91 1022
419 91 1810
420 91 769
421 91 440
422 91 841
423 91 605
424 91 955
425 91 1109
426 91 208
427 91 664
428 91 488
429 91 890
430 91 1441
431 91 1996
432 91 686
433 91 539
434 91 465
435 91 1545
436 91 830
437 91 916
438 91 307
439 91 1286
440 91 342
441 91 498
442 91 288
443 91 1011
444 91 400
445 91 562
446 91 1706
447 91 371
448 91 885
449 91 587
450 91 762
451 91 822
452 91 431
453 91 851
454 91 1204
455 91 493
456 91 573
457 91 1528
458 91 1395
459 91 2008
460 91 1697
461 91 1072
462 91 495
463 91 355
464 91 372
465 91 694
466 91 827
467 91 1227
468 91 604
469 91 275
470 91 908
471 91 621
472 91 841
473 91 607
474 91 1288
475 91 627
476 91 2110
477 91 1183
478 91 1330
479 91 1886
480 91 2463
481 91 690
482 91 1495
483 91 1420
484 91 1830
485 91 1188
486 91 1436
487 91 1055
488 91 401
489 91 536
490 91 1900
491 91 383
492 91 1418
493 91 1350
494 91 1251
495 91 727
496 91 1041
497 91 990
498 91 534
499 91 1734
500 91 191
1 92 1071
2 92 1043
3 92 1266
4 92 1481
5 92 1125
6 92 2152
7 92 1870
8 92 2308
9 92 1868
10 92 1414
11 92 1679
12 92 1354
13 92 1144
14 92 904
15 92 2268
16 92 574
17 92 1355
18 92 1458
19 92 770
20 92 1677
21 92 946
22 92 1415
23 92 1610
24 92 1500
25 92 1414
26 92 1701
27 92 562
28 92 920
29 92 2327
30 92 667
31 92 3601
32 92 1194
33 92 1017
34 92 1123
35 92 1828
36 92 1659
37 92 771
38 92 2096
39 92 3192
40 92 2096
41 92 1303
42 92 1862
43 92 769
44 92 690
45 92 2898
46 92 523
47 92 957
48 92 618
49 92 2004
50 92 2123
51 92 1459
52 92 1914
53 92 3061
54 92 1490
55 92 3868
56 92 2084
57 92 1515
58 92 1338
59 92 961
60 92 1113
61 92 1277
62 92 1781
63 92 1902
64 92 2244
65 92 2284
66 92 2034
67 92 1306
68 92 1200
69 92 1499
70 92 1399
71 92 1210
72 92 538
73 92 1666
74 92 1473
75 92 943
76 92 1666
77 92 1308
78 92 1170
79 92 2033
80 92 1501
81 92 2158
82 92 767
83 92 1041
84 92 2865
85 92 1903
86 92 3277
87 92 577
88 92 1844
89 92 2468
90 92 1064
91 92 1731
92 92 1754
93 92 1115
94 92 1914
95 92 1887
96 92 1480
97 92 1163
98 92 1868
99 92 1275
100 92 1297
101 92 1535
102 92 804
103 92 1145
104 92 1941
105 92 1965
106 92 2385
107 92 1675
108 92 2069
109 92 1262
110 92 952
111 92 771
112 92 953
113 92 1237
114 92 2132
115 92 2019
116 92 1824
117 92 1576
118 92 1105
119 92 1958
120 92 2088
121 92 2523
122 92 2010
123 92 2798
124 92 1740
125 92 1362
126 92 2078
127 92 1990
128 92 1411
129 92 2376
130 92 1361
131 92 1899
132 92 3075
133 92 1030
134 92 1637
135 92 1160
136 92 240
137 92 2432
138 92 1016
139 92 2686
140 92 1563
141 92 1042
142 92 1363
143 92 1658
144 92 2564
145 92 1030
146 92 1072
147 92 1588
148 92 1067
149 92 1374
150 92 1711
151 92 1558
152 92 315
153 92 1372
154 92 1374
155 92 1755
156 92 1179
157 92 284
158 92 1047
159 92 1062
160 92 1761
161 92 3104
162 92 1649
163 92 1446
164 92 2021
165 92 1304
166 92 1484
167 92 1381
168 92 963
169 92 1919
170 92 1154
171 92 1610
172 92 1162
173 92 915
174 92 653
175 92 1140
176 92 1925
177 92 1666
178 92 1252
179 92 1318
180 92 1547
181 92 962
182 92 2390
183 92 1345
184 92 2313
185 92 1191
186 92 2718
187 92 2263
188 92 1433
189 92 1044
190 92 2150
191 92 1116
192 92 607
193 92 1716
194 92 1519
195 92 1452
196 92 1067
197 92 1441
198 92 1038
199 92 1462
200 92 1198
201 92 892
202 92 2239
203 92 580
204 92 2605
205 92 1480
206 92 1908
207 92 1308
208 92 1371
209 92 565
210 92 1097
211 92 1481
212 92 1188
213 92 1562
214 92 1949
215 92 1417
216 92 2176
217 92 1037
218 92 920
219 92 794
220 92 1492
221 92 263
222 92 2769
223 92 1939
224 92 1429
225 92 1992
226 92 2473
227 92 1008
228 92 2150
229 92 1448
230 92 1787
231 92 648
232 92 2615
233 92 305
234 92 1044
235 92 2632
236 92 500
237 92 976
238 92 1427
239 92 3208
240 92 2118
241 92 2907
242 92 1479
243 92 2050
244 92 1886
245 92 1298
246 92 2691
247 92 612
248 92 1092
249 92 2537
250 92 1563
251 92 1414
252 92 1828
253 92 2359
254 92 1505
255 92 1328
256 92 1928
257 92 1464
258 92 2137
259 92 1516
260 92 2053
261 92 1041
262 92 1247
263 92 2045
264 92 1713
265 92 1530
266 92 1826
267 92 2103
268 92 790
269 92 1820
270 92 2136
271 92 1092
272 92 3126
273 92 1046
274 92 1040
275 92 1060
276 92 1764
277 92 1259
278 92 2765
279 92 2273
280 92 1318
281 92 1737
282 92 1423
283 92 1969
284 92 1627
285 92 1912
286 92 1245
287 92 2370
288 92 2068
289 92 1459
290 92 1079
291 92 1184
292 92 794
293 92 3242
294 92 1297
295 92 1417
296 92 1459
297 92 891
298 92 1236
299 92 1451
300 92 2169
301 92 1468
302 92 2333
303 92 1653
304 92 576
305 92 1031
306 92 2078
307 92 1727
308 92 1296
309 92 422
310 92 806
311 92 1985
312 92 1194
313 92 2119
314 92 1486
315 92 921
316 92 1969
317 92 316
318 92 1857
319 92 2775
320 92 2582
321 92 1775
322 92 1717
323 92 1631
324 92 1964
325 92 2191
326 92 1574
327 92 1869
328 92 2109
329 92 2540
330 92 3225
331 92 1212
332 92 707
333 92 1135
334 92 1028
335 92 1044
336 92 1210
337 92 2167
338 92 1226
339 92 1022
340 92 3027
341 92 947
342 92 1838
343 92 1917
344 92 1962
345 92 1208
346 92 1852
347 92 2133
348 92 2348
349 92 572
350 92 1546
351 92 1801
352 92 1217
353 92 694
354 92 1356
355 92 1471
356 92 820
357 92 617
358 92 1803
359 92 2193
360 92 1058
361 92 1532
362 92 1520
363 92 1043
364 92 1762
365 92 2155
366 92 2645
367 92 1006
368 92 1222
369 92 1468
370 92 1471
371 92 1805
372 92 1331
373 92 2533
374 92 2853
375 92 1012
376 92 1705
377 92 2305
378 92 1484
379 92 1883
380 92 2383
381 92 3170
382 92 1515
383 92 681
384 92 758
385 92 2021
386 92 1995
387 92 2363
388 92 1591
389 92 3059
390 92 2133
391 92 1366
392 92 1433
393 92 1400
394 92 2039
395 92 1174
396 92 2700
397 92 894
398 92 978
399 92 823
400 92 1307
401 92 3347
402 92 751
403 92 596
404 92 1323
405 92 1262
406 92 3331
407 92 1076
408 92 2846
409 92 891
410 92 696
411 92 512
412 92 1540
413 92 1410
414 92 2345
415 92 3160
416 92 1004
417 92 861
418 92 1951
419 92 1092
420 92 1831
421 92 1426
422 92 1172
423 92 504
424 92 1854
425 92 2643
426 92 1357
427 92 1481
428 92 1059
429 92 1546
430 92 1092
431 92 1563
432 92 2487
433 92 1172
434 92 509
435 92 1901
436 92 1751
437 92 1661
438 92 469
439 92 1076
440 92 908
441 92 782
442 92 1299
443 92 1053
444 92 2238
445 92 1653
446 92 2641
447 92 944
448 92 2367
449 92 459
450 92 2159
451 92 1816
452 92 590
453 92 2155
454 92 1135
455 92 960
456 92 1327
457 92 1930
458 92 2143
459 92 1908
460 92 2251
461 92 1321
462 92 1457
463 92 426
464 92 901
465 92 1085
466 92 2626
467 92 1216
468 92 730
469 92 1416
470 92 2334
471 92 2648
472 92 727
473 92 2404
474 92 1464
475 92 1981
476 92 1685
477 92 2274
478 92 1815
479 92 2013
480 92 1163
481 92 1867
482 92 1882
483 92 3251
484 92 1730
485 92 1491
486 92 2190
487 92 1694
488 92 528
489 92 1963
490 92 3743
491 92 1077
492 92 1028
493 92 2489
494 92 1105
495 92 1925
496 92 1423
497 92 1701
498 92 1177
499 92 1571
500 92 1351
7 93 5
8 93 12
12 93 1
13 93 5
14 93 11
19 93 2
20 93 5
22 93 12
23 93 2
25 93 16
27 93 6
28 93 4
29 93 14
41 93 7
43 93 3
50 93 5
51 93 3
56 93 4
57 93 3
60 93 11
61 93 6
63 93 6
64 93 8
70 93 2
71 93 6
73 93 8
74 93 11
75 93 6
76 93 6
77 93 4
82 93 2
83 93 5
85 93 7
86 93 6
92 93 4
93 93 9
98 93 2
99 93 8
105 93 4
107 93 16
108 93 8
109 93 5
110 93 3
115 93 5
123 93 4
130 93 12
131 93 4
132 93 7
134 93 7
135 93 5
143 93 4
148 93 3
161 93 5
163 93 5
164 93 4
165 93 4
168 93 16
169 93 6
171 93 3
173 93 3
176 93 19
179 93 4
183 93 7
197 93 6
198 93 6
202 93 13
204 93 8
207 93 9
212 93 5
216 93 4
218 93 2
225 93 15
226 93 6
228 93 4
229 93 6
238 93 2
239 93 4
243 93 7
244 93 4
245 93 3
246 93 3
247 93 6
249 93 4
256 93 13
257 93 5
259 93 10
263 93 20
271 93 18
278 93 7
280 93 7
284 93 5
291 93 6
292 93 3
294 93 15
298 93 5
305 93 6
307 93 3
312 93 6
316 93 9
322 93 38
326 93 5
328 93 5
333 93 20
343 93 10
344 93 3
354 93 16
355 93 4
358 93 7
366 93 6
373 93 1
375 93 4
381 93 5
384 93 4
395 93 2
398 93 4
402 93 5
408 93 4
416 93 8
420 93 7
426 93 3
427 93 11
430 93 19
431 93 19
435 93 3
436 93 8
439 93 4
451 93 5
456 93 4
464 93 4
466 93 12
467 93 3
468 93 1
475 93 3
477 93 18
481 93 6
482 93 3
483 93 4
486 93 6
487 93 2
490 93 6
493 93 13
496 93 14
498 93 7
500 93 5
10 94 4
63 94 6
121 94 4
144 94 5
279 94 5
1 95 3270
2 95 990
3 95 1851
4 95 1441
5 95 2947
6 95 3160
7 95 1219
8 95 2925
9 95 3793
10 95 1558
11 95 1376
12 95 1381
13 95 1003
14 95 1533
15 95 1000
16 95 865
17 95 1636
18 95 711
19 95 1268
20 95 2412
21 95 1134
22 95 428
23 95 1235
24 95 2411
25 95 2051
26 95 2202
27 95 1133
28 95 1150
29 95 2823
30 95 1120
31 95 2047
32 95 1334
33 95 822
34 95 1105
35 95 4000
36 95 3720
37 95 1589
38 95 1531
39 95 2848
40 95 3052
41 95 2921
42 95 1840
43 95 1252
44 95 738
45 95 1013
46 95 1091
47 95 1483
48 95 1783
49 95 2203
50 95 1535
51 95 1627
52 95 2455
53 95 3038
54 95 1487
55 95 990
56 95 1617
57 95 1402
58 95 1715
59 95 1421
60 95 2019
61 95 1703
62 95 1942
63 95 1842
64 95 2070
65 95 1405
66 95 1395
67 95 1743
68 95 1800
69 95 2391
70 95 1608
71 95 1226
72 95 862
73 95 1459
74 95 2531
75 95 1072
76 95 2335
77 95 1824
78 95 1273
79 95 1827
80 95 395
81 95 2289
82 95 2167
83 95 1142
84 95 1323
85 95 2265
86 95 1941
87 95 1558
88 95 1838
89 95 2463
90 95 2333
91 95 1799
92 95 1334
93 95 2552
94 95 3809
95 95 2841
96 95 1410
97 95 1019
98 95 2047
99 95 1612
100 95 1458
101 95 1199
102 95 1142
103 95 2264
104 95 1983
105 95 1705
106 95 1992
107 95 2012
108 95 1441
109 95 1276
110 95 1559
111 95 838
112 95 1129
113 95 1906
114 95 2041
115 95 2282
116 95 1423
117 95 771
118 95 1645
119 95 1555
120 95 1530
121 95 2469
122 95 1951
123 95 1334
124 95 2280
125 95 1185
126 95 1870
127 95 2223
128 95 2016
129 95 2087
130 95 402
131 95 1182
132 95 1500
133 95 1614
134 95 2201
135 95 1556
136 95 1012
137 95 4670
138 95 1230
139 95 2694
140 95 3933
141 95 1597
142 95 3445
143 95 992
144 95 2372
145 95 1146
146 95 655
147 95 2336
148 95 2285
149 95 2024
150 95 1186
151 95 1146
152 95 1082
153 95 902
154 95 2721
155 95 2179
156 95 1681
157 95 1101
158 95 761
159 95 1142
160 95 2139
161 95 2658
162 95 1281
163 95 992
164 95 1521
165 95 1430
166 95 2408
167 95 2532
168 95 1417
169 95 1636
170 95 1235
171 95 2827
172 95 2353
173 95 1367
174 95 870
175 95 2210
176 95 2851
177 95 2031
178 95 1709
179 95 2805
180 95 1442
181 95 1408
182 95 4582
183 95 1403
184 95 3491
185 95 1862
186 95 3211
187 95 1812
188 95 1587
189 95 1409
190 95 3250
191 95 1496
192 95 898
193 95 1272
194 95 2334
195 95 1130
196 95 820
197 95 2786
198 95 1937
199 95 1897
200 95 1857
201 95 1138
202 95 2840
203 95 1917
204 95 2511
205 95 1977
206 95 1656
207 95 2854
208 95 2376
209 95 792
210 95 1551
211 95 1935
212 95 1287
213 95 1843
214 95 1631
215 95 1474
216 95 2614
217 95 873
218 95 1906
219 95 3424
220 95 2405
221 95 805
222 95 2591
223 95 2533
224 95 412
225 95 2049
226 95 1908
227 95 1192
228 95 1867
229 95 2775
230 95 1907
231 95 1371
232 95 1472
233 95 1115
234 95 1580
235 95 1597
236 95 1639
237 95 918
238 95 2759
239 95 1830
240 95 2202
241 95 1805
242 95 1694
243 95 1444
244 95 1805
245 95 1363
246 95 1950
247 95 1527
248 95 1584
249 95 650
250 95 2579
251 95 2338
252 95 1610
253 95 1562
254 95 1237
255 95 1176
256 95 2799
257 95 4063
258 95 1879
259 95 1045
260 95 2266
261 95 2358
262 95 1845
263 95 2020
264 95 2009
265 95 2380
266 95 2140
267 95 1425
268 95 1225
269 95 1764
270 95 2723
271 95 1751
272 95 2954
273 95 1091
274 95 1609
275 95 791
276 95 1322
277 95 2570
278 95 1004
279 95 1770
280 95 1625
281 95 1046
282 95 1496
283 95 2024
284 95 1789
285 95 1384
286 95 2005
287 95 2708
288 95 989
289 95 1485
290 95 1788
291 95 1279
292 95 1234
293 95 2024
294 95 1257
295 95 1106
296 95 3035
297 95 888
298 95 3080
299 95 1918
300 95 902
301 95 1674
302 95 2055
303 95 804
304 95 1604
305 95 2123
306 95 2073
307 95 2418
308 95 1880
309 95 1071
310 95 1520
311 95 1545
312 95 2477
313 95 2157
314 95 2047
315 95 1176
316 95 2185
317 95 1316
318 95 1696
319 95 2282
320 95 1162
321 95 1830
322 95 994
323 95 2024
324 95 1387
325 95 1681
326 95 1997
327 95 2197
328 95 1539
329 95 1170
330 95 3037
331 95 1861
332 95 1009
333 95 2565
334 95 3473
335 95 892
336 95 631
337 95 2294
338 95 624
339 95 680
340 95 1986
341 95 1324
342 95 2022
343 95 2132
344 95 1124
345 95 712
346 95 2605
347 95 1495
348 95 1740
349 95 1608
350 95 2093
351 95 3150
352 95 1811
353 95 1077
354 95 1301
355 95 1663
356 95 1292
357 95 896
358 95 2118
359 95 1445
360 95 862
361 95 1218
362 95 1668
363 95 1771
364 95 2838
365 95 1890
366 95 3289
367 95 1989
368 95 1431
369 95 2364
370 95 1428
371 95 1955
372 95 1638
373 95 622
374 95 1362
375 95 2020
376 95 1856
377 95 1741
378 95 1242
379 95 1890
380 95 2198
381 95 2675
382 95 2080
383 95 1455
384 95 1139
385 95 1020
386 95 1972
387 95 1536
388 95 858
389 95 1951
390 95 1979
391 95 2070
392 95 1562
393 95 1990
394 95 985
395 95 1397
396 95 1914
397 95 2505
398 95 905
399 95 1018
400 95 1364
401 95 1480
402 95 1114
403 95 1113
404 95 1104
405 95 1714
406 95 2432
407 95 1638
408 95 2663
409 95 1494
410 95 2843
411 95 916
412 95 2537
413 95 1817
414 95 1979
415 95 2045
416 95 943
417 95 1457
418 95 2299
419 95 2234
420 95 2131
421 95 1495
422 95 1472
423 95 970
424 95 2079
425 95 1176
426 95 1345
427 95 420
428 95 445
429 95 1901
430 95 1836
431 95 2751
432 95 3034
433 95 3113
434 95 855
435 95 1631
436 95 1997
437 95 2566
438 95 445
439 95 2063
440 95 1803
441 95 1528
442 95 1706
443 95 854
444 95 2202
445 95 1509
446 95 2260
447 95 1962
448 95 2896
449 95 935
450 95 3485
451 95 1340
452 95 1885
453 95 1739
454 95 2356
455 95 1084
456 95 1177
457 95 1411
458 95 1332
459 95 2956
460 95 1669
461 95 1186
462 95 1627
463 95 1072
464 95 1203
465 95 958
466 95 1342
467 95 890
468 95 1115
469 95 1507
470 95 2924
471 95 1873
472 95 1021
473 95 2815
474 95 2055
475 95 1550
476 95 1869
477 95 2910
478 95 1679
479 95 1339
480 95 1354
481 95 2133
482 95 1618
483 95 1888
484 95 2272
485 95 952
486 95 1974
487 95 1621
488 95 1593
489 95 2359
490 95 2224
491 95 813
492 95 2677
493 95 1838
494 95 1803
495 95 1456
496 95 2063
497 95 1173
498 95 1653
499 95 1228
500 95 1305
1 96 2556
2 96 1185
3 96 1839
4 96 1873
5 96 4650
6 96 1915
7 96 1124
8 96 1586
9 96 989
10 96 1257
11 96 1584
12 96 1523
13 96 1436
14 96 1681
15 96 1632
16 96 858
17 96 1567
18 96 1487
19 96 692
20 96 2765
21 96 1038
22 96 1352
23 96 1325
24 96 1508
25 96 1505
26 96 1025
27 96 1244
28 96 2164
29 96 1587
30 96 1163
31 96 2800
32 96 1449
33 96 1499
34 96 1471
35 96 2349
36 96 3063
37 96 1771
38 96 2526
39 96 1900
40 96 2396
41 96 3235
42 96 1256
43 96 656
44 96 604
45 96 2290
46 96 848
47 96 1655
48 96 2652
49 96 1164
50 96 1467
51 96 2094
52 96 2107
53 96 2395
54 96 1597
55 96 2217
56 96 1403
57 96 3881
58 96 1587
59 96 1631
60 96 2008
61 96 1438
62 96 1690
63 96 1708
64 96 2029
65 96 1680
66 96 1252
67 96 664
68 96 2699
69 96 1542
70 96 1343
71 96 1526
72 96 800
73 96 4002
74 96 1502
75 96 2201
76 96 2367
77 96 1561
78 96 1002
79 96 1310
80 96 1847
81 96 1989
82 96 1543
83 96 1464
84 96 1399
85 96 1701
86 96 2606
87 96 865
88 96 556
89 96 1931
90 96 1786
91 96 1879
92 96 1592
93 96 3669
94 96 1954
95 96 849
96 96 1845
97 96 2808
98 96 854
99 96 1285
100 96 2194
101 96 1778
102 96 2188
103 96 1012
104 96 1837
105 96 1794
106 96 2027
107 96 1828
108 96 2737
109 96 1555
110 96 1269
111 96 456
112 96 809
113 96 2937
114 96 2529
115 96 1694
116 96 549
117 96 502
118 96 2407
119 96 2409
120 96 2083
121 96 2154
122 96 3428
123 96 1885
124 96 942
125 96 2095
126 96 1781
127 96 1770
128 96 2171
129 96 3458
130 96 1360
131 96 1167
132 96 2970
133 96 2020
134 96 1957
135 96 2465
136 96 1103
137 96 1008
138 96 995
139 96 1506
140 96 3131
141 96 1329
142 96 2874
143 96 2285
144 96 2356
145 96 853
146 96 584
147 96 1313
148 96 2576
149 96 2766
150 96 992
151 96 1730
152 96 1036
153 96 1524
154 96 1795
155 96 1474
156 96 1885
157 96 990
158 96 1463
159 96 1263
160 96 1465
161 96 1522
162 96 1625
163 96 1984
164 96 1537
165 96 1559
166 96 1720
167 96 1689
168 96 2195
169 96 3979
170 96 1816
171 96 997
172 96 1652
173 96 1681
174 96 1014
175 96 1035
176 96 1917
177 96 2573
178 96 1824
179 96 3331
180 96 2203
181 96 838
182 96 950
183 96 1533
184 96 4410
185 96 2756
186 96 2034
187 96 1789
188 96 2236
189 96 894
190 96 1959
191 96 3359
192 96 1517
193 96 1661
194 96 1521
195 96 1535
196 96 1486
197 96 1810
198 96 1994
199 96 2840
200 96 2634
201 96 839
202 96 1686
203 96 2489
204 96 622
205 96 2496
206 96 1778
207 96 3203
208 96 1572
209 96 471
210 96 1323
211 96 2632
212 96 1635
213 96 2855
214 96 2072
215 96 2322
216 96 1940
217 96 896
218 96 1946
219 96 1476
220 96 1494
221 96 1112
222 96 2171
223 96 3520
224 96 2013
225 96 1601
226 96 3375
227 96 1064
228 96 2934
229 96 3390
230 96 2252
231 96 844
232 96 1699
233 96 1046
234 96 1303
235 96 2529
236 96 859
237 96 1396
238 96 3461
239 96 2585
240 96 1160
241 96 1085
242 96 1613
243 96 1085
244 96 1702
245 96 1432
246 96 2201
247 96 2192
248 96 1284
249 96 1879
250 96 1763
251 96 1206
252 96 1740
253 96 1700
254 96 1551
255 96 2487
256 96 1955
257 96 2332
258 96 1665
259 96 666
260 96 2219
261 96 1853
262 96 2665
263 96 1631
264 96 3192
265 96 1448
266 96 2443
267 96 2355
268 96 1270
269 96 1149
270 96 2363
271 96 1739
272 96 2738
273 96 1330
274 96 1348
275 96 1096
276 96 1665
277 96 1458
278 96 1040
279 96 2632
280 96 1277
281 96 1330
282 96 3079
283 96 1929
284 96 1625
285 96 549
286 96 1407
287 96 3341
288 96 1961
289 96 2249
290 96 2331
291 96 946
292 96 1122
293 96 3663
294 96 1166
295 96 924
296 96 859
297 96 748
298 96 1392
299 96 1188
300 96 1805
301 96 1588
302 96 2857
303 96 1878
304 96 855
305 96 2046
306 96 2274
307 96 2642
308 96 1855
309 96 1116
310 96 1489
311 96 2082
312 96 2475
313 96 1250
314 96 2054
315 96 852
316 96 1700
317 96 1221
318 96 1757
319 96 2341
320 96 1898
321 96 1294
322 96 3717
323 96 2589
324 96 2931
325 96 2813
326 96 2426
327 96 4451
328 96 1637
329 96 1907
330 96 2681
331 96 2699
332 96 2755
333 96 2437
334 96 1677
335 96 1289
336 96 1386
337 96 2033
338 96 1359
339 96 576
340 96 2006
341 96 1635
342 96 2669
343 96 2262
344 96 1172
345 96 1472
346 96 2240
347 96 2503
348 96 2277
349 96 893
350 96 2502
351 96 1495
352 96 2752
353 96 743
354 96 1256
355 96 1289
356 96 1324
357 96 1526
358 96 815
359 96 2322
360 96 780
361 96 2337
362 96 1883
363 96 2334
364 96 1831
365 96 1445
366 96 2373
367 96 2123
368 96 2425
369 96 1509
370 96 1914
371 96 2176
372 96 1598
373 96 1848
374 96 2451
375 96 2047
376 96 1862
377 96 1764
378 96 1803
379 96 1777
380 96 1628
381 96 1496
382 96 1359
383 96 1599
384 96 1153
385 96 2517
386 96 1932
387 96 1684
388 96 1858
389 96 2033
390 96 2290
391 96 1315
392 96 1953
393 96 2613
394 96 1970
395 96 2475
396 96 1852
397 96 2300
398 96 2436
399 96 1289
400 96 1367
401 96 2823
402 96 708
403 96 946
404 96 2504
405 96 1757
406 96 1867
407 96 2355
408 96 2134
409 96 1199
410 96 2006
411 96 786
412 96 1879
413 96 697
414 96 3029
415 96 1941
416 96 2398
417 96 1178
418 96 2166
419 96 1271
420 96 832
421 96 1131
422 96 3405
423 96 1667
424 96 1668
425 96 1123
426 96 1460
427 96 1376
428 96 1026
429 96 2677
430 96 1746
431 96 2220
432 96 1343
433 96 1392
434 96 747
435 96 1896
436 96 1811
437 96 2188
438 96 268
439 96 2082
440 96 4168
441 96 1380
442 96 1432
443 96 1289
444 96 1580
445 96 3686
446 96 2404
447 96 4322
448 96 1763
449 96 1606
450 96 2669
451 96 2304
452 96 1771
453 96 1385
454 96 1042
455 96 819
456 96 2517
457 96 1325
458 96 2122
459 96 2586
460 96 2859
461 96 2511
462 96 1995
463 96 1090
464 96 946
465 96 965
466 96 3197
467 96 1239
468 96 692
469 96 2308
470 96 1759
471 96 2007
472 96 1674
473 96 2497
474 96 2667
475 96 1623
476 96 2029
477 96 1572
478 96 1682
479 96 2572
480 96 2994
481 96 830
482 96 1924
483 96 2679
484 96 1458
485 96 1294
486 96 2916
487 96 1594
488 96 940
489 96 3457
490 96 1783
491 96 1498
492 96 2749
493 96 2719
494 96 2436
495 96 2043
496 96 1507
497 96 1982
498 96 1608
499 96 2450
500 96 1415
4 97 5
15 97 3
18 97 6
45 97 3
66 97 7
88 97 10
90 97 5
105 97 4
139 97 4
185 97 7
203 97 6
223 97 6
231 97 5
243 97 8
261 97 3
286 97 8
292 97 4
294 97 3
324 97 4
343 97 7
352 97 8
354 97 4
366 97 10
370 97 5
384 97 3
403 97 2
408 97 5
451 97 6
452 97 8
457 97 4
464 97 4
467 97 4
1 98 986
2 98 431
3 98 448
4 98 366
5 98 459
6 98 317
7 98 771
8 98 343
9 98 161
10 98 165
11 98 184
12 98 276
13 98 194
14 98 256
15 98 129
16 98 202
17 98 670
18 98 853
19 98 153
20 98 898
21 98 141
22 98 540
23 98 592
24 98 269
25 98 310
26 98 756
27 98 91
28 98 1484
29 98 357
30 98 219
31 98 860
32 98 349
33 98 140
34 98 141
35 98 270
36 98 618
37 98 515
38 98 609
39 98 934
40 98 328
41 98 587
42 98 508
43 98 160
44 98 438
45 98 763
46 98 124
47 98 1351
48 98 406
49 98 219
50 98 413
51 98 269
52 98 1047
53 98 458
54 98 575
55 98 524
56 98 225
57 98 480
58 98 255
59 98 1332
60 98 241
61 98 210
62 98 341
63 98 274
64 98 473
65 98 252
66 98 213
67 98 111
68 98 331
69 98 252
70 98 634
71 98 225
72 98 62
73 98 465
74 98 392
75 98 1430
76 98 400
77 98 113
78 98 410
79 98 515
80 98 725
81 98 306
82 98 257
83 98 533
84 98 566
85 98 721
86 98 584
87 98 677
88 98 277
89 98 237
90 98 533
91 98 1200
92 98 520
93 98 488
94 98 236
95 98 239
96 98 170
97 98 268
98 98 243
99 98 690
100 98 351
101 98 218
102 98 185
103 98 416
104 98 184
105 98 533
106 98 428
107 98 624
108 98 665
109 98 200
110 98 617
111 98 415
112 98 127
113 98 966
114 98 306
115 98 761
116 98 549
117 98 198
118 98 426
119 98 423
120 98 151
121 98 1753
122 98 489
123 98 370
124 98 747
125 98 475
126 98 576
127 98 675
128 98 365
129 98 596
130 98 546
131 98 775
132 98 340
133 98 496
134 98 419
135 98 241
136 98 325
137 98 299
138 98 553
139 98 323
140 98 633
141 98 335
142 98 523
143 98 286
144 98 1894
145 98 142
146 98 552
147 98 305
148 98 324
149 98 194
150 98 110
151 98 639
152 98 124
153 98 368
154 98 529
155 98 235
156 98 339
157 98 130
158 98 153
159 98 651
160 98 266
161 98 978
162 98 190
163 98 856
164 98 401
165 98 264
166 98 288
167 98 137
168 98 445
169 98 575
170 98 690
171 98 628
172 98 327
173 98 424
174 98 289
175 98 403
176 98 123
177 98 526
178 98 430
179 98 621
180 98 346
181 98 223
182 98 344
183 98 229
184 98 468
185 98 492
186 98 424
187 98 509
188 98 182
189 98 242
190 98 317
191 98 231
192 98 190
193 98 210
194 98 248
195 98 123
196 98 158
197 98 720
198 98 279
199 98 325
200 98 346
201 98 141
202 98 371
203 98 279
204 98 540
205 98 700
206 98 780
207 98 672
208 98 275
209 98 156
210 98 267
211 98 208
212 98 182
213 98 309
214 98 431
215 98 183
216 98 396
217 98 605
218 98 264
219 98 166
220 98 284
221 98 549
222 98 559
223 98 216
224 98 706
225 98 534
226 98 643
227 98 130
228 98 207
229 98 700
230 98 496
231 98 293
232 98 592
233 98 130
234 98 341
235 98 1421
236 98 727
237 98 240
238 98 721
239 98 639
240 98 252
241 98 897
242 98 530
243 98 210
244 98 592
245 98 442
246 98 484
247 98 606
248 98 308
249 98 263
250 98 490
251 98 299
252 98 748
253 98 299
254 98 127
255 98 223
256 98 123
257 98 637
258 98 277
259 98 485
260 98 370
261 98 508
262 98 361
263 98 554
264 98 640
265 98 278
266 98 272
267 98 747
268 98 502
269 98 309
270 98 280
271 98 157
272 98 1657
273 98 230
274 98 367
275 98 268
276 98 215
277 98 364
278 98 244
279 98 586
280 98 754
281 98 529
282 98 505
283 98 150
284 98 390
285 98 573
286 98 289
287 98 509
288 98 499
289 98 199
290 98 281
291 98 454
292 98 427
293 98 1163
294 98 126
295 98 423
296 98 362
297 98 161
298 98 140
299 98 346
300 98 469
301 98 498
302 98 861
303 98 236
304 98 747
305 98 259
306 98 1825
307 98 905
308 98 482
309 98 773
310 98 357
311 98 166
312 98 701
313 98 256
314 98 363
315 98 145
316 98 691
317 98 79
318 98 819
319 98 500
320 98 300
321 98 435
322 98 343
323 98 496
324 98 313
325 98 250
326 98 379
327 98 470
328 98 342
329 98 287
330 98 1609
331 98 324
332 98 356
333 98 401
334 98 850
335 98 189
336 98 380
337 98 304
338 98 406
339 98 574
340 98 620
341 98 450
342 98 277
343 98 806
344 98 773
345 98 393
346 98 1616
347 98 664
348 98 551
349 98 721
350 98 1689
351 98 557
352 98 511
353 98 156
354 98 133
355 98 592
356 98 565
357 98 196
358 98 251
359 98 775
360 98 594
361 98 239
362 98 181
363 98 283
364 98 459
365 98 309
366 98 408
367 98 293
368 98 781
369 98 269
370 98 397
371 98 1201
372 98 233
373 98 248
374 98 424
375 98 278
376 98 1244
377 98 501
378 98 524
379 98 172
380 98 298
381 98 1008
382 98 163
383 98 107
384 98 391
385 98 273
386 98 181
387 98 403
388 98 222
389 98 670
390 98 1770
391 98 177
392 98 329
393 98 196
394 98 236
395 98 245
396 98 894
397 98 875
398 98 457
399 98 470
400 98 317
401 98 338
402 98 111
403 98 233
404 98 203
405 98 395
406 98 489
407 98 431
408 98 465
409 98 172
410 98 153
411 98 80
412 98 493
413 98 113
414 98 865
415 98 607
416 98 469
417 98 203
418 98 304
419 98 204
420 98 255
421 98 305
422 98 230
423 98 271
424 98 333
425 98 265
426 98 422
427 98 533
428 98 215
429 98 438
430 98 143
431 98 460
432 98 356
433 98 447
434 98 60
435 98 311
436 98 594
437 98 409
438 98 262
439 98 290
440 98 454
441 98 343
442 98 406
443 98 149
444 98 209
445 98 612
446 98 366
447 98 469
448 98 782
449 98 259
450 98 501
451 98 528
452 98 205
453 98 651
454 98 385
455 98 110
456 98 282
457 98 217
458 98 395
459 98 897
460 98 194
461 98 201
462 98 309
463 98 805
464 98 165
465 98 269
466 98 276
467 98 545
468 98 95
469 98 195
470 98 785
471 98 278
472 98 397
473 98 333
474 98 202
475 98 540
476 98 294
477 98 337
478 98 756
479 98 947
480 98 416
481 98 253
482 98 351
483 98 652
484 98 276
485 98 252
486 98 200
487 98 390
488 98 672
489 98 359
490 98 277
491 98 141
492 98 567
493 98 337
494 98 289
495 98 996
496 98 368
497 98 275
498 98 382
499 98 262
500 98 477
1 99 733
2 99 568
3 99 623
4 99 223
5 99 1616
6 99 1156
7 99 617
8 99 599
9 99 859
10 99 1001
11 99 1081
12 99 883
13 99 708
14 99 519
15 99 1450
16 99 415
17 99 2351
18 99 485
19 99 648
20 99 647
21 99 608
22 99 618
23 99 1323
24 99 826
25 99 750
26 99 560
27 99 292
28 99 1405
29 99 592
30 99 1124
31 99 948
32 99 1270
33 99 619
34 99 672
35 99 1627
36 99 2336
37 99 998
38 99 1367
39 99 894
40 99 1686
41 99 1104
42 99 1282
43 99 661
44 99 402
45 99 890
46 99 491
47 99 706
48 99 1745
49 99 1027
50 99 1455
51 99 813
52 99 1198
53 99 884
54 99 1431
55 99 1445
56 99 781
57 99 2368
58 99 1636
59 99 696
60 99 951
61 99 299
62 99 936
63 99 680
64 99 888
65 99 1289
66 99 794
67 99 628
68 99 740
69 99 898
70 99 461
71 99 1079
72 99 639
73 99 2495
74 99 765
75 99 1417
76 99 454
77 99 276
78 99 1998
79 99 1201
80 99 608
81 99 412
82 99 185
83 99 1085
84 99 1701
85 99 1455
86 99 341
87 99 469
88 99 918
89 99 1128
90 99 1300
91 99 1305
92 99 647
93 99 1003
94 99 906
95 99 1211
96 99 384
97 99 323
98 99 256
99 99 997
100 99 704
101 99 2023
102 99 751
103 99 790
104 99 2058
105 99 1456
106 99 973
107 99 965
108 99 570
109 99 1118
110 99 591
111 99 483
112 99 1051
113 99 1581
114 99 502
115 99 1546
116 99 550
117 99 820
118 99 525
119 99 1013
120 99 313
121 99 1410
122 99 1464
123 99 1026
124 99 1915
125 99 232
126 99 857
127 99 1597
128 99 793
129 99 450
130 99 587
131 99 603
132 99 1602
133 99 1346
134 99 360
135 99 298
136 99 312
137 99 960
138 99 540
139 99 1581
140 99 2266
141 99 268
142 99 382
143 99 996
144 99 1508
145 99 445
146 99 447
147 99 820
148 99 489
149 99 1000
150 99 638
151 99 168
152 99 429
153 99 682
154 99 722
155 99 647
156 99 975
157 99 429
158 99 571
159 99 758
160 99 608
161 99 1633
162 99 1064
163 99 301
164 99 1467
165 99 848
166 99 1638
167 99 1376
168 99 1431
169 99 1217
170 99 678
171 99 660
172 99 1420
173 99 376
174 99 270
175 99 748
176 99 198
177 99 1055
178 99 1324
179 99 1030
180 99 1409
181 99 759
182 99 940
183 99 854
184 99 688
185 99 545
186 99 413
187 99 373
188 99 1217
189 99 746
190 99 1261
191 99 855
192 99 502
193 99 1078
194 99 844
195 99 1488
196 99 590
197 99 677
198 99 956
199 99 711
200 99 742
201 99 467
202 99 638
203 99 516
204 99 1450
205 99 1319
206 99 1762
207 99 1043
208 99 487
209 99 819
210 99 459
211 99 1019
212 99 1071
213 99 653
214 99 558
215 99 1223
216 99 1442
217 99 702
218 99 833
219 99 512
220 99 901
221 99 262
222 99 1537
223 99 1396
224 99 595
225 99 376
226 99 542
227 99 621
228 99 934
229 99 265
230 99 1724
231 99 357
232 99 426
233 99 402
234 99 253
235 99 640
236 99 494
237 99 897
238 99 275
239 99 347
240 99 1086
241 99 2107
242 99 237
243 99 945
244 99 863
245 99 952
246 99 672
247 99 728
248 99 438
249 99 1629
250 99 618
251 99 1365
252 99 1789
253 99 663
254 99 1455
255 99 1526
256 99 165
257 99 1364
258 99 1079
259 99 781
260 99 496
261 99 1324
262 99 752
263 99 341
264 99 1503
265 99 825
266 99 662
267 99 798
268 99 1153
269 99 309
270 99 364
271 99 929
272 99 2401
273 99 805
274 99 239
275 99 844
276 99 1124
277 99 900
278 99 730
279 99 733
280 99 998
281 99 903
282 99 1535
283 99 2049
284 99 1027
285 99 539
286 99 942
287 99 581
288 99 794
289 99 1274
290 99 1461
291 99 543
292 99 710
293 99 508
294 99 1142
295 99 811
296 99 1440
297 99 280
298 99 828
299 99 1599
300 99 879
301 99 226
302 99 986
303 99 569
304 99 494
305 99 981
306 99 397
307 99 648
308 99 618
309 99 816
310 99 517
311 99 303
312 99 429
313 99 1051
314 99 814
315 99 434
316 99 1501
317 99 1311
318 99 1706
319 99 1102
320 99 909
321 99 764
322 99 463
323 99 1047
324 99 1087
325 99 904
326 99 1232
327 99 1209
328 99 1468
329 99 923
330 99 2576
331 99 743
332 99 687
333 99 925
334 99 266
335 99 1031
336 99 284
337 99 435
338 99 233
339 99 442
340 99 568
341 99 377
342 99 497
343 99 1664
344 99 589
345 99 258
346 99 1195
347 99 1349
348 99 1463
349 99 469
350 99 1021
351 99 2868
352 99 575
353 99 813
354 99 1189
355 99 477
356 99 1083
357 99 493
358 99 234
359 99 836
360 99 703
361 99 658
362 99 1023
363 99 1493
364 99 1341
365 99 1157
366 99 1021
367 99 682
368 99 674
369 99 877
370 99 251
371 99 1063
372 99 1694
373 99 1529
374 99 1057
375 99 1013
376 99 1348
377 99 410
378 99 1747
379 99 2146
380 99 981
381 99 1647
382 99 671
383 99 513
384 99 664
385 99 822
386 99 2153
387 99 768
388 99 571
389 99 530
390 99 376
391 99 596
392 99 493
393 99 976
394 99 971
395 99 282
396 99 1995
397 99 926
398 99 472
399 99 313
400 99 1293
401 99 1194
402 99 465
403 99 693
404 99 1527
405 99 808
406 99 1437
407 99 555
408 99 1126
409 99 374
410 99 473
411 99 602
412 99 636
413 99 663
414 99 916
415 99 509
416 99 434
417 99 418
418 99 1210
419 99 1206
420 99 274
421 99 1043
422 99 882
423 99 228
424 99 1002
425 99 580
426 99 883
427 99 638
428 99 922
429 99 779
430 99 963
431 99 1058
432 99 1139
433 99 950
434 99 667
435 99 956
436 99 949
437 99 433
438 99 428
439 99 1037
440 99 1215
441 99 570
442 99 2003
443 99 1041
444 99 1036
445 99 1990
446 99 1250
447 99 1226
448 99 1657
449 99 208
450 99 742
451 99 1673
452 99 1505
453 99 576
454 99 707
455 99 992
456 99 724
457 99 762
458 99 643
459 99 1062
460 99 936
461 99 1565
462 99 503
463 99 861
464 99 1021
465 99 287
466 99 967
467 99 771
468 99 501
469 99 1242
470 99 1619
471 99 432
472 99 824
473 99 1347
474 99 1551
475 99 778
476 99 1319
477 99 611
478 99 1732
479 99 474
480 99 1714
481 99 249
482 99 990
483 99 327
484 99 763
485 99 968
486 99 1000
487 99 534
488 99 501
489 99 956
490 99 922
491 99 567
492 99 683
493 99 338
494 99 1461
495 99 1416
496 99 753
497 99 651
498 99 633
499 99 697
500 99 891
1 100 39
2 100 7
3 100 28
4 100 5
5 100 35
7 100 11
8 100 1
10 100 9
11 100 89
12 100 5
13 100 2
14 100 8
15 100 19
16 100 11
17 100 29
18 100 10
19 100 21
21 100 34
23 100 8
24 100 11
25 100 29
26 100 11
27 100 8
28 100 44
29 100 7
30 100 25
32 100 11
33 100 3
34 100 48
35 100 2
36 100 4
37 100 19
38 100 20
39 100 4
40 100 6
41 100 26
42 100 2
43 100 24
44 100 5
45 100 135
46 100 3
47 100 24
48 100 62
49 100 46
50 100 13
51 100 5
52 100 14
53 100 99
55 100 6
56 100 22
57 100 7
58 100 3
59 100 26
60 100 7
61 100 32
62 100 8
64 100 5
65 100 19
66 100 18
67 100 20
68 100 15
69 100 20
71 100 39
72 100 18
73 100 9
74 100 22
75 100 36
76 100 6
77 100 8
79 100 4
80 100 26
81 100 20
82 100 37
83 100 1
84 100 6
85 100 17
86 100 66
87 100 16
89 100 9
90 100 2
91 100 4
92 100 16
93 100 25
94 100 14
96 100 7
98 100 66
99 100 21
100 100 6
101 100 6
102 100 41
104 100 24
105 100 40
106 100 3
107 100 7
108 100 18
109 100 37
111 100 3
112 100 26
113 100 15
114 100 69
115 100 23
116 100 16
117 100 38
118 100 4
119 100 19
120 100 34
121 100 47
122 100 6
123 100 47
124 100 58
125 100 32
126 100 4
127 100 16
128 100 11
129 100 3
131 100 12
132 100 38
133 100 28
134 100 5
135 100 6
139 100 12
140 100 4
141 100 5
142 100 79
144 100 52
145 100 47
146 100 25
147 100 5
149 100 45
151 100 22
153 100 35
154 100 8
155 100 33
156 100 47
157 100 8
158 100 4
159 100 35
160 100 47
161 100 77
162 100 65
163 100 16
164 100 10
165 100 6
166 100 11
167 100 5
169 100 22
170 100 40
171 100 24
172 100 32
173 100 11
174 100 2
176 100 15
177 100 14
178 100 34
179 100 40
180 100 10
181 100 5
183 100 4
184 100 60
185 100 11
186 100 3
188 100 38
189 100 7
191 100 8
192 100 25
193 100 69
194 100 22
195 100 75
196 100 6
197 100 62
198 100 5
199 100 11
200 100 22
201 100 46
202 100 7
203 100 109
204 100 6
205 100 21
206 100 49
207 100 33
208 100 21
209 100 9
211 100 38
212 100 37
213 100 10
214 100 19
215 100 37
216 100 23
217 100 35
218 100 37
219 100 2
220 100 16
221 100 13
222 100 11
223 100 16
224 100 29
225 100 82
226 100 5
227 100 34
228 100 57
229 100 36
231 100 18
232 100 38
233 100 5
234 100 8
236 100 12
237 100 23
238 100 37
239 100 85
240 100 39
241 100 5
242 100 29
243 100 17
244 100 40
246 100 15
250 100 28
251 100 48
252 100 56
253 100 23
254 100 70
255 100 5
256 100 10
257 100 16
258 100 4
259 100 6
260 100 3
261 100 7
262 100 13
263 100 81
264 100 13
265 100 19
266 100 22
267 100 6
269 100 38
270 100 44
271 100 50
272 100 66
273 100 19
274 100 2
275 100 9
276 100 77
277 100 27
278 100 5
279 100 12
280 100 21
281 100 2
283 100 39
284 100 75
285 100 16
286 100 8
287 100 4
289 100 22
290 100 69
291 100 51
292 100 18
293 100 25
294 100 17
295 100 14
296 100 4
297 100 30
298 100 16
299 100 70
301 100 39
302 100 5
303 100 16
304 100 13
305 100 5
306 100 9
308 100 35
309 100 62
310 100 37
311 100 23
312 100 43
313 100 31
314 100 18
315 100 60
316 100 22
317 100 10
318 100 48
319 100 81
320 100 65
321 100 31
323 100 17
324 100 32
325 100 35
326 100 14
328 100 14
329 100 61
330 100 77
331 100 9
332 100 8
333 100 45
334 100 7
335 100 51
336 100 45
337 100 14
338 100 32
339 100 17
340 100 6
341 100 8
342 100 47
343 100 41
344 100 11
345 100 44
346 100 5
347 100 15
348 100 7
349 100 15
350 100 11
351 100 10
352 100 14
353 100 18
354 100 12
357 100 17
358 100 61
359 100 7
360 100 35
361 100 4
363 100 60
364 100 53
365 100 10
366 100 38
367 100 57
369 100 23
370 100 6
371 100 5
372 100 5
374 100 11
375 100 4
376 100 6
378 100 22
379 100 40
380 100 117
381 100 76
382 100 12
383 100 4
384 100 19
385 100 6
386 100 35
388 100 13
389 100 4
391 100 14
392 100 20
393 100 51
394 100 38
395 100 2
396 100 1
397 100 8
398 100 28
399 100 7
400 100 6
401 100 20
402 100 5
403 100 4
404 100 7
405 100 22
406 100 6
407 100 4
408 100 71
409 100 6
410 100 30
411 100 15
412 100 35
413 100 15
414 100 4
415 100 5
416 100 31
417 100 6
418 100 48
419 100 41
420 100 66
421 100 41
422 100 4
423 100 10
425 100 15
428 100 27
429 100 38
430 100 48
431 100 16
432 100 24
433 100 26
434 100 16
435 100 19
436 100 10
437 100 4
438 100 34
439 100 5
440 100 7
441 100 37
442 100 16
443 100 41
444 100 128
445 100 14
447 100 9
448 100 25
449 100 19
450 100 47
451 100 13
452 100 50
455 100 21
456 100 34
457 100 22
458 100 17
460 100 37
461 100 9
462 100 20
463 100 69
464 100 28
465 100 19
466 100 9
467 100 28
468 100 3
469 100 35
470 100 37
471 100 4
472 100 7
473 100 70
474 100 35
476 100 54
477 100 5
478 100 39
479 100 27
480 100 13
481 100 69
482 100 13
483 100 84
484 100 5
486 100 70
487 100 6
488 100 13
489 100 42
490 100 8
491 100 5
492 100 28
493 100 75
494 100 69
495 100 4
496 100 37
497 100 14
498 100 54
499 100 5
1 101 855
2 101 465
3 101 243
4 101 477
5 101 594
6 101 632
7 101 837
8 101 441
9 101 545
10 101 293
11 101 259
12 101 393
13 101 770
14 101 189
15 101 243
16 101 404
17 101 370
18 101 401
19 101 250
20 101 675
21 101 674
22 101 220
23 101 797
24 101 307
25 101 962
26 101 213
27 101 124
28 101 724
29 101 487
30 101 505
31 101 767
32 101 790
33 101 145
34 101 379
35 101 475
36 101 665
37 101 648
38 101 531
39 101 339
40 101 330
41 101 572
42 101 268
43 101 267
44 101 113
45 101 453
46 101 213
47 101 366
48 101 459
49 101 216
50 101 519
51 101 614
52 101 241
53 101 1178
54 101 360
55 101 378
56 101 840
57 101 1239
58 101 793
59 101 389
60 101 633
61 101 279
62 101 738
63 101 948
64 101 404
65 101 711
66 101 157
67 101 167
68 101 302
69 101 307
70 101 464
71 101 249
72 101 453
73 101 1341
74 101 630
75 101 724
76 101 853
77 101 116
78 101 1019
79 101 312
80 101 160
81 101 1198
82 101 402
83 101 196
84 101 1730
85 101 316
86 101 383
87 101 649
88 101 239
89 101 1135
90 101 774
91 101 1094
92 101 209
93 101 317
94 101 450
95 101 206
96 101 302
97 101 386
98 101 222
99 101 274
100 101 340
101 101 141
102 101 481
103 101 827
104 101 243
105 101 234
106 101 565
107 101 177
108 101 345
109 101 227
110 101 355
111 101 278
112 101 127
113 101 598
114 101 201
115 101 249
116 101 368
117 101 848
118 101 274
119 101 506
120 101 383
121 101 482
122 101 587
123 101 1016
124 101 355
125 101 436
126 101 513
127 101 270
128 101 413
129 101 498
130 101 216
131 101 913
132 101 245
133 101 277
134 101 296
135 101 992
136 101 442
137 101 472
138 101 283
139 101 221
140 101 740
141 101 487
142 101 561
143 101 613
144 101 477
145 101 264
146 101 308
147 101 270
148 101 539
149 101 250
150 101 350
151 101 206
152 101 528
153 101 439
154 101 451
155 101 184
156 101 1089
157 101 521
158 101 142
159 101 159
160 101 195
161 101 146
162 101 238
163 101 1208
164 101 522
165 101 392
166 101 357
167 101 177
168 101 250
169 101 371
170 101 730
171 101 877
172 101 200
173 101 475
174 101 318
175 101 839
176 101 120
177 101 1199
178 101 327
179 101 665
180 101 687
181 101 499
182 101 491
183 101 367
184 101 387
185 101 225
186 101 475
187 101 630
188 101 285
189 101 480
190 101 599
191 101 453
192 101 464
193 101 259
194 101 313
195 101 135
196 101 147
197 101 577
198 101 596
199 101 590
200 101 278
201 101 243
202 101 523
203 101 341
204 101 961
205 101 389
206 101 655
207 101 560
208 101 372
209 101 140
210 101 164
211 101 228
212 101 262
213 101 599
214 101 236
215 101 290
216 101 352
217 101 988
218 101 1117
219 101 151
220 101 326
221 101 70
222 101 589
223 101 377
224 101 126
225 101 739
226 101 326
227 101 661
228 101 421
229 101 685
230 101 1164
231 101 487
232 101 879
233 101 487
234 101 488
235 101 295
236 101 630
237 101 285
238 101 653
239 101 386
240 101 239
241 101 581
242 101 367
243 101 573
244 101 466
245 101 256
246 101 445
247 101 410
248 101 181
249 101 223
250 101 292
251 101 704
252 101 599
253 101 233
254 101 125
255 101 853
256 101 121
257 101 1467
258 101 791
259 101 168
260 101 262
261 101 794
262 101 276
263 101 718
264 101 364
265 101 284
266 101 125
267 101 329
268 101 234
269 101 326
270 101 1301
271 101 430
272 101 610
273 101 146
274 101 475
275 101 335
276 101 234
277 101 474
278 101 431
279 101 468
280 101 281
281 101 328
282 101 1192
283 101 241
284 101 488
285 101 386
286 101 400
287 101 535
288 101 1335
289 101 304
290 101 221
291 101 661
292 101 415
293 101 420
294 101 55
295 101 132
296 101 382
297 101 177
298 101 676
299 101 144
300 101 1241
301 101 371
302 101 806
303 101 471
304 101 616
305 101 572
306 101 627
307 101 735
308 101 226
309 101 312
310 101 353
311 101 412
312 101 205
313 101 226
314 101 402
315 101 265
316 101 263
317 101 570
318 101 644
319 101 629
320 101 502
321 101 603
322 101 1132
323 101 1238
324 101 480
325 101 384
326 101 464
327 101 847
328 101 507
329 101 504
330 101 605
331 101 272
332 101 561
333 101 264
334 101 378
335 101 241
336 101 266
337 101 1137
338 101 262
339 101 281
340 101 872
341 101 470
342 101 235
343 101 948
344 101 926
345 101 253
346 101 383
347 101 506
348 101 246
349 101 606
350 101 837
351 101 481
352 101 260
353 101 780
354 101 49
355 101 504
356 101 268
357 101 506
358 101 250
359 101 304
360 101 953
361 101 196
362 101 921
363 101 236
364 101 122
365 101 273
366 101 696
367 101 510
368 101 252
369 101 318
370 101 444
371 101 341
372 101 812
373 101 240
374 101 258
375 101 570
376 101 1043
377 101 665
378 101 293
379 101 276
380 101 336
381 101 171
382 101 338
383 101 477
384 101 426
385 101 409
386 101 259
387 101 323
388 101 497
389 101 947
390 101 637
391 101 327
392 101 215
393 101 250
394 101 694
395 101 1013
396 101 538
397 101 807
398 101 168
399 101 311
400 101 736
401 101 396
402 101 292
403 101 93
404 101 893
405 101 1069
406 101 324
407 101 250
408 101 865
409 101 369
410 101 177
411 101 426
412 101 315
413 101 135
414 101 893
415 101 906
416 101 166
417 101 380
418 101 277
419 101 839
420 101 232
421 101 341
422 101 459
423 101 959
424 101 342
425 101 675
426 101 249
427 101 247
428 101 190
429 101 275
430 101 405
431 101 495
432 101 220
433 101 1001
434 101 474
435 101 178
436 101 173
437 101 446
438 101 407
439 101 616
440 101 621
441 101 334
442 101 431
443 101 274
444 101 402
445 101 182
446 101 2004
447 101 603
448 101 170
449 101 1041
450 101 225
451 101 385
452 101 533
453 101 349
454 101 874
455 101 123
456 101 455
457 101 159
458 101 424
459 101 645
460 101 357
461 101 918
462 101 215
463 101 324
464 101 217
465 101 530
466 101 407
467 101 606
468 101 294
469 101 291
470 101 183
471 101 233
472 101 282
473 101 691
474 101 375
475 101 306
476 101 314
477 101 475
478 101 646
479 101 835
480 101 1410
481 101 228
482 101 168
483 101 421
484 101 650
485 101 311
486 101 450
487 101 702
488 101 645
489 101 832
490 101 284
491 101 135
492 101 262
493 101 465
494 101 213
495 101 1541
496 101 924
497 101 363
498 101 198
499 101 203
500 101 272
1 102 1670
2 102 996
3 102 1567
4 102 2192
5 102 3833
6 102 3960
7 102 3548
8 102 1959
9 102 2114
10 102 1967
11 102 1319
12 102 1475
13 102 1510
14 102 1221
15 102 1443
16 102 490
17 102 1354
18 102 2737
19 102 2016
20 102 2200
21 102 1241
22 102 1242
23 102 3300
24 102 997
25 102 2011
26 102 2334
27 102 1169
28 102 2337
29 102 1879
30 102 1711
31 102 2671
32 102 1215
33 102 1025
34 102 1640
35 102 1507
36 102 1610
37 102 2350
38 102 1771
39 102 1767
40 102 3906
41 102 2932
42 102 1430
43 102 2038
44 102 789
45 102 1646
46 102 796
47 102 1424
48 102 2282
49 102 2657
50 102 2337
51 102 3028
52 102 2205
53 102 1871
54 102 2167
55 102 2321
56 102 1712
57 102 3876
58 102 1474
59 102 1439
60 102 2838
61 102 1427
62 102 2343
63 102 2544
64 102 2335
65 102 2475
66 102 1290
67 102 1449
68 102 1440
69 102 1055
70 102 1700
71 102 2846
72 102 794
73 102 3988
74 102 1791
75 102 2448
76 102 3344
77 102 846
78 102 1287
79 102 1466
80 102 1809
81 102 3314
82 102 963
83 102 1277
84 102 1529
85 102 2269
86 102 2927
87 102 2043
88 102 1776
89 102 2778
90 102 1953
91 102 3167
92 102 1569
93 102 2449
94 102 2078
95 102 2350
96 102 1792
97 102 1451
98 102 1670
99 102 1411
100 102 2175
101 102 2176
102 102 1665
103 102 1917
104 102 2200
105 102 2201
106 102 867
107 102 2046
108 102 1759
109 102 2747
110 102 2163
111 102 964
112 102 1627
113 102 2789
114 102 2178
115 102 2223
116 102 2166
117 102 1104
118 102 1687
119 102 1644
120 102 1532
121 102 3035
122 102 3068
123 102 1655
124 102 2823
125 102 1800
126 102 1681
127 102 2254
128 102 2405
129 102 2157
130 102 1166
131 102 3668
132 102 1662
133 102 1172
134 102 2805
135 102 842
136 102 1037
137 102 1442
138 102 1169
139 102 2671
140 102 1648
141 102 1359
142 102 3755
143 102 2495
144 102 3214
145 102 1657
146 102 727
147 102 2970
148 102 3733
149 102 1201
150 102 1530
151 102 2016
152 102 837
153 102 1331
154 102 3687
155 102 2153
156 102 706
157 102 845
158 102 1030
159 102 963
160 102 2142
161 102 2966
162 102 1293
163 102 2092
164 102 2283
165 102 1476
166 102 3477
167 102 2400
168 102 1722
169 102 2424
170 102 1671
171 102 2037
172 102 4077
173 102 1439
174 102 767
175 102 1936
176 102 1898
177 102 3441
178 102 2225
179 102 2931
180 102 3448
181 102 2880
182 102 1521
183 102 1435
184 102 3439
185 102 2780
186 102 2348
187 102 3197
188 102 2011
189 102 3040
190 102 3939
191 102 1944
192 102 2270
193 102 1260
194 102 1005
195 102 3820
196 102 1050
197 102 2746
198 102 2773
199 102 3074
200 102 1501
201 102 1647
202 102 1869
203 102 2657
204 102 2719
205 102 847
206 102 1457
207 102 2968
208 102 2589
209 102 1323
210 102 1717
211 102 1296
212 102 2801
213 102 3240
214 102 1340
215 102 2084
216 102 1152
217 102 2503
218 102 2254
219 102 2321
220 102 988
221 102 1149
222 102 3342
223 102 2315
224 102 1829
225 102 2322
226 102 1011
227 102 1265
228 102 1009
229 102 2192
230 102 3198
231 102 1131
232 102 1658
233 102 826
234 102 1335
235 102 2674
236 102 2054
237 102 1320
238 102 2199
239 102 3036
240 102 2662
241 102 4860
242 102 1448
243 102 1956
244 102 2948
245 102 1876
246 102 2857
247 102 2723
248 102 1650
249 102 3024
250 102 1575
251 102 2051
252 102 1510
253 102 2109
254 102 3842
255 102 1692
256 102 1828
257 102 2250
258 102 3063
259 102 2337
260 102 2259
261 102 1923
262 102 1427
263 102 2210
264 102 1875
265 102 1049
266 102 1437
267 102 1869
268 102 1620
269 102 1608
270 102 3266
271 102 1694
272 102 3509
273 102 866
274 102 1375
275 102 1291
276 102 1290
277 102 1764
278 102 3213
279 102 2250
280 102 1373
281 102 1905
282 102 1786
283 102 2340
284 102 2102
285 102 2245
286 102 3493
287 102 3170
288 102 2700
289 102 2108
290 102 2348
291 102 1089
292 102 1076
293 102 2587
294 102 1466
295 102 1782
296 102 3390
297 102 1355
298 102 846
299 102 1682
300 102 2679
301 102 1500
302 102 1806
303 102 2498
304 102 1910
305 102 2782
306 102 2702
307 102 2189
308 102 1507
309 102 1743
310 102 2648
311 102 1481
312 102 1689
313 102 2664
314 102 2419
315 102 1687
316 102 2158
317 102 558
318 102 1444
319 102 2581
320 102 3105
321 102 2363
322 102 3251
323 102 3480
324 102 2317
325 102 2794
326 102 1477
327 102 3745
328 102 2257
329 102 3143
330 102 3535
331 102 1412
332 102 2753
333 102 2773
334 102 1426
335 102 1989
336 102 1787
337 102 3184
338 102 1791
339 102 656
340 102 4000
341 102 1585
342 102 2715
343 102 1864
344 102 3573
345 102 1787
346 102 1332
347 102 1863
348 102 3204
349 102 2082
350 102 1536
351 102 1707
352 102 2745
353 102 1098
354 102 1558
355 102 1727
356 102 1603
357 102 2207
358 102 1642
359 102 1945
360 102 2525
361 102 2462
362 102 2294
363 102 2411
364 102 2560
365 102 2890
366 102 2846
367 102 3518
368 102 1991
369 102 1018
370 102 2204
371 102 1728
372 102 1463
373 102 3109
374 102 1871
375 102 2694
376 102 3100
377 102 3223
378 102 2442
379 102 2352
380 102 961
381 102 2840
382 102 1962
383 102 1367
384 102 1003
385 102 2554
386 102 2280
387 102 1466
388 102 2407
389 102 3913
390 102 2558
391 102 1908
392 102 1213
393 102 1275
394 102 1803
395 102 840
396 102 2169
397 102 1895
398 102 1016
399 102 669
400 102 1270
401 102 2565
402 102 502
403 102 855
404 102 1815
405 102 2676
406 102 1652
407 102 1740
408 102 1906
409 102 1366
410 102 2250
411 102 791
412 102 1641
413 102 1480
414 102 1948
415 102 3918
416 102 1027
417 102 1338
418 102 1704
419 102 1601
420 102 1689
421 102 1968
422 102 1952
423 102 1033
424 102 2131
425 102 2315
426 102 1888
427 102 1203
428 102 1180
429 102 3162
430 102 1777
431 102 3530
432 102 2374
433 102 3620
434 102 829
435 102 1334
436 102 1927
437 102 1830
438 102 1000
439 102 2686
440 102 1841
441 102 2582
442 102 4062
443 102 2098
444 102 3396
445 102 3680
446 102 1190
447 102 1952
448 102 2097
449 102 1087
450 102 1268
451 102 2737
452 102 2578
453 102 1188
454 102 1900
455 102 1595
456 102 1777
457 102 1274
458 102 1678
459 102 2700
460 102 2581
461 102 1719
462 102 1248
463 102 1774
464 102 1715
465 102 579
466 102 1434
467 102 1788
468 102 492
469 102 2091
470 102 2257
471 102 1360
472 102 1133
473 102 887
474 102 2148
475 102 1122
476 102 2358
477 102 1886
478 102 1522
479 102 2396
480 102 1841
481 102 1715
482 102 1446
483 102 3079
484 102 1626
485 102 1727
486 102 1029
487 102 1637
488 102 2030
489 102 2321
490 102 3913
491 102 1014
492 102 2056
493 102 1531
494 102 2267
495 102 2656
496 102 1999
497 102 1342
498 102 1635
499 102 2525
500 102 1766
1 103 1069
2 103 577
3 103 1582
4 103 1516
5 103 911
6 103 2293
7 103 964
8 103 1883
9 103 1649
10 103 897
11 103 317
12 103 438
13 103 848
14 103 520
15 103 1686
16 103 756
17 103 1306
18 103 1258
19 103 859
20 103 1380
21 103 996
22 103 247
23 103 1217
24 103 278
25 103 1130
26 103 852
27 103 884
28 103 1444
29 103 1874
30 103 782
31 103 1072
32 103 1260
33 103 448
34 103 935
35 103 2603
36 103 1122
37 103 1479
38 103 875
39 103 1952
40 103 2246
41 103 1907
42 103 1254
43 103 814
44 103 361
45 103 1326
46 103 529
47 103 914
48 103 1367
49 103 1065
50 103 401
51 103 1780
52 103 1403
53 103 721
54 103 2363
55 103 356
56 103 1426
57 103 1306
58 103 1646
59 103 990
60 103 853
61 103 534
62 103 1831
63 103 1223
64 103 1671
65 103 2133
66 103 1169
67 103 1303
68 103 927
69 103 279
70 103 752
71 103 1967
72 103 642
73 103 1364
74 103 906
75 103 1423
76 103 1163
77 103 907
78 103 1215
79 103 1250
80 103 1191
81 103 1156
82 103 417
83 103 888
84 103 410
85 103 1423
86 103 1872
87 103 707
88 103 1980
89 103 1421
90 103 888
91 103 1975
92 103 1567
93 103 1216
94 103 1515
95 103 1059
96 103 1422
97 103 804
98 103 649
99 103 1163
100 103 1472
101 103 2248
102 103 781
103 103 1503
104 103 587
105 103 1897
106 103 1305
107 103 1251
108 103 904
109 103 1831
110 103 545
111 103 809
112 103 761
113 103 1799
114 103 1106
115 103 1432
116 103 702
117 103 597
118 103 1702
119 103 846
120 103 1297
121 103 2503
122 103 2303
123 103 1361
124 103 1578
125 103 1294
126 103 591
127 103 1395
128 103 1378
129 103 1570
130 103 279
131 103 1065
132 103 723
133 103 519
134 103 1381
135 103 1145
136 103 1049
137 103 1164
138 103 793
139 103 665
140 103 1093
141 103 1392
142 103 1271
143 103 892
144 103 2607
145 103 503
146 103 663
147 103 785
148 103 1454
149 103 732
150 103 887
151 103 1792
152 103 488
153 103 522
154 103 580
155 103 1013
156 103 826
157 103 528
158 103 463
159 103 740
160 103 974
161 103 1386
162 103 287
163 103 1421
164 103 444
165 103 465
166 103 1045
167 103 966
168 103 1180
169 103 2192
170 103 811
171 103 4490
172 103 1540
173 103 609
174 103 354
175 103 1503
176 103 906
177 103 1244
178 103 1375
179 103 1925
180 103 642
181 103 1489
182 103 1177
183 103 442
184 103 1731
185 103 1306
186 103 1110
187 103 1856
188 103 1198
189 103 1459
190 103 2468
191 103 1846
192 103 559
193 103 324
194 103 245
195 103 1014
196 103 422
197 103 1318
198 103 894
199 103 1318
200 103 934
201 103 456
202 103 1724
203 103 2310
204 103 317
205 103 835
206 103 746
207 103 1897
208 103 1547
209 103 938
210 103 514
211 103 784
212 103 1944
213 103 1298
214 103 1743
215 103 1192
216 103 828
217 103 1759
218 103 1228
219 103 1102
220 103 265
221 103 580
222 103 3073
223 103 2136
224 103 1174
225 103 1316
226 103 1911
227 103 1041
228 103 1101
229 103 997
230 103 879
231 103 339
232 103 2358
233 103 537
234 103 1367
235 103 2163
236 103 745
237 103 642
238 103 1045
239 103 1875
240 103 1077
241 103 2191
242 103 984
243 103 2556
244 103 835
245 103 1162
246 103 1368
247 103 778
248 103 513
249 103 1466
250 103 851
251 103 1242
252 103 701
253 103 1452
254 103 1013
255 103 921
256 103 914
257 103 791
258 103 1177
259 103 597
260 103 418
261 103 872
262 103 925
263 103 1301
264 103 1842
265 103 250
266 103 1049
267 103 1825
268 103 1477
269 103 590
270 103 1471
271 103 1304
272 103 2405
273 103 650
274 103 1373
275 103 912
276 103 290
277 103 828
278 103 318
279 103 1365
280 103 1120
281 103 1089
282 103 1265
283 103 569
284 103 1903
285 103 729
286 103 1519
287 103 1476
288 103 2043
289 103 1192
290 103 1506
291 103 677
292 103 483
293 103 2395
294 103 849
295 103 673
296 103 1505
297 103 374
298 103 781
299 103 1034
300 103 2006
301 103 939
302 103 1484
303 103 1250
304 103 702
305 103 926
306 103 1886
307 103 1334
308 103 1671
309 103 741
310 103 1246
311 103 1290
312 103 1701
313 103 989
314 103 1345
315 103 459
316 103 1390
317 103 661
318 103 703
319 103 1029
320 103 1228
321 103 708
322 103 1912
323 103 1164
324 103 594
325 103 1452
326 103 1444
327 103 1869
328 103 409
329 103 1287
330 103 2392
331 103 921
332 103 1397
333 103 2686
334 103 2274
335 103 1058
336 103 470
337 103 1193
338 103 447
339 103 693
340 103 1202
341 103 610
342 103 984
343 103 729
344 103 1022
345 103 449
346 103 1736
347 103 817
348 103 895
349 103 706
350 103 1881
351 103 1871
352 103 1223
353 103 932
354 103 821
355 103 754
356 103 1527
357 103 533
358 103 653
359 103 1908
360 103 1788
361 103 570
362 103 1305
363 103 1564
364 103 634
365 103 1019
366 103 1500
367 103 3229
368 103 489
369 103 274
370 103 1540
371 103 1045
372 103 1609
373 103 1382
374 103 1183
375 103 890
376 103 1992
377 103 1765
378 103 927
379 103 614
380 103 1326
381 103 1314
382 103 1557
383 103 814
384 103 478
385 103 2238
386 103 580
387 103 500
388 103 1211
389 103 1198
390 103 1866
391 103 1517
392 103 2419
393 103 748
394 103 2081
395 103 1148
396 103 1874
397 103 855
398 103 1078
399 103 801
400 103 1290
401 103 2008
402 103 441
403 103 671
404 103 932
405 103 1674
406 103 1667
407 103 1563
408 103 1123
409 103 798
410 103 1630
411 103 710
412 103 878
413 103 1224
414 103 1495
415 103 1229
416 103 1110
417 103 844
418 103 1246
419 103 1234
420 103 681
421 103 458
422 103 1812
423 103 272
424 103 2079
425 103 524
426 103 1139
427 103 258
428 103 1055
429 103 893
430 103 1275
431 103 634
432 103 1806
433 103 1802
434 103 708
435 103 1329
436 103 1304
437 103 2161
438 103 669
439 103 886
440 103 1078
441 103 1181
442 103 688
443 103 1132
444 103 1341
445 103 975
446 103 1050
447 103 1072
448 103 1331
449 103 286
450 103 2144
451 103 948
452 103 1523
453 103 337
454 103 1558
455 103 737
456 103 1364
457 103 1125
458 103 760
459 103 1891
460 103 1504
461 103 885
462 103 2348
463 103 777
464 103 798
465 103 711
466 103 794
467 103 649
468 103 437
469 103 1185
470 103 1263
471 103 1441
472 103 707
473 103 1327
474 103 256
475 103 1438
476 103 1552
477 103 1879
478 103 702
479 103 1180
480 103 1724
481 103 618
482 103 1378
483 103 1809
484 103 1303
485 103 1015
486 103 1187
487 103 1562
488 103 683
489 103 1918
490 103 1657
491 103 461
492 103 1651
493 103 2534
494 103 1555
495 103 1766
496 103 1103
497 103 1433
498 103 450
499 103 598
500 103 1160
1 104 873
2 104 614
3 104 228
4 104 1719
5 104 388
6 104 1164
7 104 1564
8 104 929
9 104 510
10 104 971
11 104 911
12 104 346
13 104 329
14 104 307
15 104 1520
16 104 462
17 104 1663
18 104 298
19 104 413
20 104 1134
21 104 755
22 104 513
23 104 1887
24 104 1082
25 104 841
26 104 979
27 104 216
28 104 934
29 104 943
30 104 885
31 104 778
32 104 515
33 104 295
34 104 855
35 104 2020
36 104 430
37 104 1911
38 104 531
39 104 1601
40 104 951
41 104 749
42 104 852
43 104 386
44 104 468
45 104 1014
46 104 909
47 104 1565
48 104 1144
49 104 1812
50 104 212
51 104 457
52 104 1182
53 104 369
54 104 713
55 104 647
56 104 760
57 104 970
58 104 387
59 104 1534
60 104 1043
61 104 361
62 104 1471
63 104 1151
64 104 1096
65 104 715
66 104 871
67 104 996
68 104 519
69 104 1084
70 104 622
71 104 418
72 104 610
73 104 926
74 104 444
75 104 900
76 104 1624
77 104 577
78 104 386
79 104 803
80 104 448
81 104 925
82 104 833
83 104 874
84 104 860
85 104 959
86 104 1367
87 104 371
88 104 695
89 104 560
90 104 634
91 104 1052
92 104 1294
93 104 702
94 104 1538
95 104 466
96 104 616
97 104 179
98 104 242
99 104 732
100 104 875
101 104 770
102 104 682
103 104 723
104 104 1093
105 104 1638
106 104 568
107 104 341
108 104 588
109 104 433
110 104 622
111 104 232
112 104 711
113 104 900
114 104 998
115 104 987
116 104 399
117 104 912
118 104 1151
119 104 1164
120 104 1124
121 104 390
122 104 639
123 104 471
124 104 553
125 104 500
126 104 278
127 104 1002
128 104 1430
129 104 628
130 104 551
131 104 1514
132 104 1030
133 104 748
134 104 673
135 104 894
136 104 380
137 104 1464
138 104 538
139 104 807
140 104 354
141 104 748
142 104 1637
143 104 671
144 104 397
145 104 408
146 104 177
147 104 354
148 104 612
149 104 827
150 104 186
151 104 892
152 104 252
153 104 444
154 104 1703
155 104 1257
156 104 1693
157 104 288
158 104 279
159 104 835
160 104 1197
161 104 490
162 104 871
163 104 961
164 104 208
165 104 316
166 104 2825
167 104 1239
168 104 832
169 104 2403
170 104 1058
171 104 694
172 104 839
173 104 477
174 104 375
175 104 736
176 104 1091
177 104 511
178 104 670
179 104 735
180 104 255
181 104 681
182 104 1474
183 104 351
184 104 267
185 104 827
186 104 412
187 104 1647
188 104 758
189 104 712
190 104 1115
191 104 1520
192 104 412
193 104 877
194 104 1127
195 104 727
196 104 298
197 104 308
198 104 1081
199 104 1333
200 104 464
201 104 377
202 104 954
203 104 800
204 104 503
205 104 1268
206 104 608
207 104 680
208 104 461
209 104 473
210 104 698
211 104 815
212 104 418
213 104 1293
214 104 1578
215 104 837
216 104 744
217 104 1004
218 104 557
219 104 689
220 104 1132
221 104 357
222 104 1663
223 104 1310
224 104 452
225 104 290
226 104 1183
227 104 818
228 104 1370
229 104 641
230 104 874
231 104 262
232 104 378
233 104 303
234 104 714
235 104 519
236 104 364
237 104 429
238 104 643
239 104 1298
240 104 1878
241 104 747
242 104 368
243 104 724
244 104 1095
245 104 409
246 104 3437
247 104 735
248 104 687
249 104 308
250 104 815
251 104 484
252 104 633
253 104 400
254 104 727
255 104 363
256 104 1147
257 104 532
258 104 1359
259 104 325
260 104 558
261 104 582
262 104 427
263 104 259
264 104 719
265 104 1093
266 104 1500
267 104 820
268 104 287
269 104 526
270 104 394
271 104 846
272 104 887
273 104 776
274 104 783
275 104 570
276 104 844
277 104 253
278 104 1542
279 104 1006
280 104 708
281 104 1017
282 104 413
283 104 1050
284 104 517
285 104 369
286 104 303
287 104 323
288 104 524
289 104 857
290 104 592
291 104 603
292 104 151
293 104 1400
294 104 915
295 104 685
296 104 661
297 104 674
298 104 1221
299 104 684
300 104 575
301 104 413
302 104 378
303 104 1241
304 104 342
305 104 1001
306 104 989
307 104 1103
308 104 229
309 104 683
310 104 1288
311 104 1133
312 104 1518
313 104 1858
314 104 1334
315 104 386
316 104 1007
317 104 155
318 104 620
319 104 853
320 104 465
321 104 1292
322 104 1110
323 104 563
324 104 1592
325 104 701
326 104 605
327 104 1610
328 104 217
329 104 460
330 104 899
331 104 449
332 104 886
333 104 853
334 104 902
335 104 372
336 104 606
337 104 910
338 104 552
339 104 162
340 104 1831
341 104 498
342 104 836
343 104 1765
344 104 1513
345 104 603
346 104 1005
347 104 600
348 104 1721
349 104 367
350 104 1888
351 104 575
352 104 868
353 104 573
354 104 913
355 104 554
356 104 330
357 104 419
358 104 248
359 104 797
360 104 1107
361 104 675
362 104 1131
363 104 588
364 104 1699
365 104 894
366 104 540
367 104 947
368 104 167
369 104 1180
370 104 1623
371 104 679
372 104 357
373 104 293
374 104 1510
375 104 1017
376 104 1021
377 104 1545
378 104 1257
379 104 1059
380 104 564
381 104 497
382 104 231
383 104 889
384 104 137
385 104 1286
386 104 1019
387 104 391
388 104 1205
389 104 1857
390 104 982
391 104 232
392 104 654
393 104 822
394 104 584
395 104 908
396 104 1828
397 104 1051
398 104 280
399 104 387
400 104 499
401 104 1439
402 104 171
403 104 626
404 104 361
405 104 1065
406 104 368
407 104 1100
408 104 585
409 104 664
410 104 546
411 104 639
412 104 777
413 104 1023
414 104 367
415 104 1817
416 104 240
417 104 641
418 104 134
419 104 1210
420 104 254
421 104 792
422 104 1465
423 104 946
424 104 1894
425 104 739
426 104 421
427 104 489
428 104 194
429 104 1613
430 104 839
431 104 1007
432 104 641
433 104 531
434 104 583
435 104 1136
436 104 341
437 104 580
438 104 630
439 104 1055
440 104 327
441 104 1328
442 104 1695
443 104 345
444 104 880
445 104 1269
446 104 693
447 104 405
448 104 1183
449 104 946
450 104 1577
451 104 349
452 104 829
453 104 321
454 104 706
455 104 728
456 104 290
457 104 876
458 104 1316
459 104 379
460 104 703
461 104 379
462 104 687
463 104 728
464 104 274
465 104 343
466 104 799
467 104 439
468 104 199
469 104 777
470 104 1206
471 104 754
472 104 429
473 104 890
474 104 592
475 104 508
476 104 606
477 104 964
478 104 615
479 104 301
480 104 502
481 104 246
482 104 1313
483 104 1362
484 104 380
485 104 680
486 104 1452
487 104 311
488 104 414
489 104 627
490 104 740
491 104 281
492 104 757
493 104 373
494 104 601
495 104 1854
496 104 885
497 104 732
498 104 570
499 104 627
500 104 396
1 105 1376
2 105 1018
3 105 1590
4 105 2195
5 105 2083
6 105 2683
7 105 1051
8 105 827
9 105 2745
10 105 1517
11 105 1908
12 105 2020
13 105 742
14 105 1212
15 105 1738
16 105 732
17 105 811
18 105 1447
19 105 1592
20 105 1930
21 105 740
22 105 873
23 105 2732
24 105 2034
25 105 1820
26 105 1480
27 105 903
28 105 591
29 105 832
30 105 1439
31 105 2269
32 105 1660
33 105 721
34 105 1244
35 105 3242
36 105 2449
37 105 1900
38 105 3796
39 105 2834
40 105 3018
41 105 1082
42 105 2484
43 105 1624
44 105 908
45 105 2036
46 105 766
47 105 1449
48 105 1467
49 105 1628
50 105 1124
51 105 1345
52 105 471
53 105 1910
54 105 1013
55 105 3352
56 105 1528
57 105 2976
58 105 736
59 105 1414
60 105 1109
61 105 1610
62 105 1529
63 105 1957
64 105 2006
65 105 1343
66 105 2111
67 105 1403
68 105 3028
69 105 2062
70 105 1573
71 105 1491
72 105 1051
73 105 2940
74 105 2508
75 105 539
76 105 2028
77 105 739
78 105 2028
79 105 2506
80 105 896
81 105 1656
82 105 1141
83 105 884
84 105 3110
85 105 2642
86 105 2844
87 105 1984
88 105 1204
89 105 1389
90 105 2342
91 105 1752
92 105 1018
93 105 2775
94 105 1366
95 105 1997
96 105 1119
97 105 1411
98 105 2236
99 105 607
100 105 1261
101 105 1704
102 105 1019
103 105 1551
104 105 1550
105 105 2245
106 105 3300
107 105 967
108 105 2204
109 105 1464
110 105 944
111 105 572
112 105 928
113 105 2933
114 105 1634
115 105 2532
116 105 1965
117 105 1136
118 105 1255
119 105 2374
120 105 1786
121 105 4065
122 105 3301
123 105 2359
124 105 1437
125 105 1285
126 105 1373
127 105 2614
128 105 1377
129 105 2621
130 105 838
131 105 1123
132 105 1653
133 105 1092
134 105 2131
135 105 1008
136 105 1283
137 105 3307
138 105 993
139 105 2452
140 105 2404
141 105 1593
142 105 1784
143 105 2458
144 105 4032
145 105 1227
146 105 386
147 105 2125
148 105 1844
149 105 1081
150 105 677
151 105 2335
152 105 392
153 105 1011
154 105 2157
155 105 1678
156 105 2437
157 105 442
158 105 743
159 105 1531
160 105 1727
161 105 3037
162 105 1858
163 105 1516
164 105 1032
165 105 2046
166 105 2956
167 105 776
168 105 2355
169 105 1672
170 105 1115
171 105 2513
172 105 1247
173 105 963
174 105 777
175 105 1596
176 105 1802
177 105 992
178 105 1140
179 105 1045
180 105 640
181 105 1975
182 105 3485
183 105 2060
184 105 4613
185 105 1497
186 105 1585
187 105 2398
188 105 2010
189 105 2034
190 105 2669
191 105 2443
192 105 869
193 105 1863
194 105 2098
195 105 1173
196 105 774
197 105 859
198 105 1169
199 105 2488
200 105 3100
201 105 1239
202 105 872
203 105 2004
204 105 1266
205 105 2247
206 105 1810
207 105 1103
208 105 2498
209 105 1108
210 105 976
211 105 1126
212 105 1423
213 105 2464
214 105 1747
215 105 2068
216 105 1970
217 105 3426
218 105 1099
219 105 1855
220 105 2113
221 105 1433
222 105 1736
223 105 2715
224 105 927
225 105 1088
226 105 2622
227 105 767
228 105 3092
229 105 2006
230 105 2538
231 105 1316
232 105 2194
233 105 419
234 105 1610
235 105 1172
236 105 1959
237 105 984
238 105 1926
239 105 2784
240 105 1615
241 105 1252
242 105 1353
243 105 2793
244 105 1371
245 105 1114
246 105 554
247 105 2325
248 105 986
249 105 2926
250 105 2115
251 105 1425
252 105 1738
253 105 1510
254 105 1168
255 105 1892
256 105 1855
257 105 2566
258 105 2054
259 105 987
260 105 1318
261 105 2321
262 105 3144
263 105 1125
264 105 1977
265 105 2069
266 105 2179
267 105 1170
268 105 599
269 105 2879
270 105 2384
271 105 1689
272 105 3096
273 105 1541
274 105 1694
275 105 1300
276 105 1944
277 105 1145
278 105 1733
279 105 848
280 105 633
281 105 798
282 105 2915
283 105 1538
284 105 918
285 105 1898
286 105 2473
287 105 1662
288 105 1131
289 105 2101
290 105 1739
291 105 1520
292 105 1052
293 105 917
294 105 1263
295 105 1476
296 105 1747
297 105 698
298 105 1355
299 105 2082
300 105 1141
301 105 1296
302 105 3218
303 105 1285
304 105 1946
305 105 1143
306 105 2873
307 105 1926
308 105 1605
309 105 1206
310 105 1099
311 105 1798
312 105 1967
313 105 1574
314 105 1401
315 105 1223
316 105 2640
317 105 1793
318 105 1840
319 105 1742
320 105 1045
321 105 1177
322 105 2152
323 105 941
324 105 1806
325 105 1034
326 105 1290
327 105 1240
328 105 1079
329 105 1079
330 105 2984
331 105 3086
332 105 2333
333 105 1088
334 105 2182
335 105 999
336 105 1769
337 105 1673
338 105 1690
339 105 430
340 105 2210
341 105 959
342 105 1897
343 105 1313
344 105 1043
345 105 1741
346 105 2759
347 105 3713
348 105 2737
349 105 1929
350 105 1552
351 105 2021
352 105 1566
353 105 1066
354 105 1344
355 105 1559
356 105 610
357 105 854
358 105 2170
359 105 1162
360 105 3414
361 105 1871
362 105 1954
363 105 1747
364 105 1494
365 105 1751
366 105 1666
367 105 1799
368 105 1311
369 105 2168
370 105 2250
371 105 877
372 105 736
373 105 2852
374 105 2612
375 105 1118
376 105 1738
377 105 2368
378 105 1344
379 105 1673
380 105 2375
381 105 3055
382 105 1507
383 105 1258
384 105 993
385 105 1668
386 105 1587
387 105 1902
388 105 1292
389 105 2183
390 105 2870
391 105 1553
392 105 1512
393 105 1073
394 105 1262
395 105 984
396 105 2691
397 105 1786
398 105 824
399 105 1118
400 105 1634
401 105 2050
402 105 932
403 105 1708
404 105 1946
405 105 1149
406 105 2849
407 105 1249
408 105 737
409 105 1342
410 105 2510
411 105 1040
412 105 2217
413 105 1377
414 105 3241
415 105 2179
416 105 849
417 105 1247
418 105 2890
419 105 1396
420 105 2136
421 105 1189
422 105 2366
423 105 917
424 105 1415
425 105 2399
426 105 1220
427 105 870
428 105 1490
429 105 1554
430 105 1757
431 105 914
432 105 1652
433 105 1106
434 105 1058
435 105 1167
436 105 963
437 105 740
438 105 1026
439 105 1130
440 105 4016
441 105 1105
442 105 2128
443 105 1041
444 105 922
445 105 2342
446 105 1155
447 105 4037
448 105 1633
449 105 989
450 105 896
451 105 1024
452 105 2448
453 105 2389
454 105 1685
455 105 985
456 105 801
457 105 2240
458 105 2542
459 105 942
460 105 1150
461 105 1939
462 105 1496
463 105 1216
464 105 1629
465 105 660
466 105 1916
467 105 895
468 105 987
469 105 2107
470 105 1621
471 105 2547
472 105 1012
473 105 1349
474 105 749
475 105 1518
476 105 1543
477 105 797
478 105 1878
479 105 3703
480 105 1321
481 105 2220
482 105 1192
483 105 2885
484 105 1782
485 105 1160
486 105 3181
487 105 1073
488 105 1965
489 105 1789
490 105 1614
491 105 771
492 105 1252
493 105 2329
494 105 1739
495 105 1549
496 105 1797
497 105 2150
498 105 1106
499 105 1782
500 105 1146
3 106 13
12 106 7
17 106 5
21 106 9
22 106 8
26 106 4
33 106 3
37 106 9
39 106 6
41 106 1
45 106 3
52 106 16
53 106 4
55 106 6
56 106 6
57 106 7
62 106 4
65 106 11
66 106 4
67 106 2
71 106 6
73 106 7
80 106 6
81 106 5
91 106 6
92 106 5
93 106 4
94 106 5
95 106 17
96 106 2
97 106 4
101 106 13
102 106 6
103 106 2
105 106 20
106 106 3
107 106 2
108 106 10
109 106 4
110 106 3
116 106 15
117 106 6
118 106 5
120 106 5
126 106 3
130 106 4
133 106 4
134 106 7
137 106 18
141 106 3
149 106 4
150 106 2
151 106 1
158 106 4
159 106 4
161 106 3
165 106 6
168 106 17
174 106 7
175 106 4
178 106 3
179 106 8
180 106 8
181 106 7
182 106 21
183 106 3
184 106 57
185 106 2
187 106 14
188 106 4
189 106 2
191 106 19
196 106 2
197 106 3
204 106 5
205 106 7
207 106 4
209 106 2
211 106 3
212 106 3
214 106 6
215 106 3
216 106 60
221 106 7
224 106 4
226 106 10
227 106 3
228 106 6
230 106 9
234 106 1
241 106 8
242 106 37
246 106 8
247 106 2
251 106 4
253 106 23
260 106 4
264 106 2
266 106 6
274 106 6
279 106 4
282 106 19
284 106 3
285 106 13
286 106 14
288 106 7
289 106 3
292 106 5
294 106 10
296 106 6
297 106 1
298 106 20
299 106 3
300 106 5
301 106 29
308 106 13
309 106 4
311 106 5
312 106 14
321 106 3
327 106 7
334 106 9
336 106 14
337 106 5
338 106 8
343 106 4
345 106 13
346 106 4
352 106 3
354 106 5
362 106 5
364 106 5
365 106 2
366 106 8
367 106 5
368 106 15
376 106 3
377 106 20
378 106 2
381 106 5
384 106 5
393 106 1
396 106 4
397 106 22
402 106 5
403 106 3
407 106 4
408 106 5
410 106 22
413 106 4
419 106 8
422 106 19
423 106 3
425 106 7
427 106 5
432 106 20
435 106 5
436 106 3
442 106 3
444 106 6
445 106 18
448 106 3
449 106 2
454 106 13
456 106 2
457 106 6
459 106 1
463 106 3
468 106 4
469 106 4
470 106 6
471 106 1
472 106 5
474 106 3
475 106 5
479 106 6
482 106 4
485 106 4
486 106 5
489 106 20
491 106 4
493 106 8
