%%MatrixMarket matrix coordinate integer general
500 110 40083
1 1 1172
2 1 2606
3 1 3316
4 1 3071
5 1 2219
6 1 3495
7 1 1908
8 1 2367
9 1 2191
10 1 2082
11 1 2198
12 1 2409
13 1 1831
14 1 2467
15 1 3024
16 1 1999
17 1 2843
18 1 2380
19 1 1820
20 1 1587
21 1 2890
22 1 3550
23 1 2728
24 1 2783
25 1 2432
26 1 2898
27 1 3333
28 1 1161
29 1 2851
30 1 1652
31 1 2834
32 1 1072
33 1 2340
34 1 2189
35 1 1327
36 1 2963
37 1 1925
38 1 1028
39 1 4443
40 1 1327
41 1 4133
42 1 1972
43 1 2285
44 1 687
45 1 2514
46 1 2486
47 1 3787
48 1 1941
49 1 2742
50 1 3259
51 1 1484
52 1 2124
53 1 2518
54 1 798
55 1 3037
56 1 2674
57 1 2916
58 1 2255
59 1 1210
60 1 2361
61 1 2929
62 1 3102
63 1 1530
64 1 1664
65 1 2596
66 1 3775
67 1 662
68 1 4234
69 1 3135
70 1 1593
71 1 1484
72 1 2469
73 1 1705
74 1 2131
75 1 2348
76 1 3224
77 1 2368
78 1 2990
79 1 2212
80 1 2875
81 1 2601
82 1 1651
83 1 2614
84 1 3208
85 1 1230
86 1 3023
87 1 2142
88 1 1170
89 1 2134
90 1 3043
91 1 1334
92 1 1105
93 1 2287
94 1 1606
95 1 2117
96 1 2636
97 1 2328
98 1 1831
99 1 2415
100 1 1466
101 1 2648
102 1 3599
103 1 2718
104 1 2561
105 1 2507
106 1 1839
107 1 3356
108 1 2026
109 1 1828
110 1 2096
111 1 2132
112 1 2170
113 1 1880
114 1 2045
115 1 2951
116 1 1760
117 1 2081
118 1 1210
119 1 1974
120 1 2978
121 1 2732
122 1 3252
123 1 2151
124 1 3675
125 1 3417
126 1 2369
127 1 1035
128 1 1816
129 1 2423
130 1 3063
131 1 2818
132 1 2042
133 1 2351
134 1 2263
135 1 1735
136 1 1148
137 1 2608
138 1 1434
139 1 1480
140 1 2019
141 1 2785
142 1 649
143 1 3934
144 1 3228
145 1 1861
146 1 2429
147 1 1585
148 1 2751
149 1 3116
150 1 2294
151 1 1419
152 1 1259
153 1 4781
154 1 900
155 1 1036
156 1 1340
157 1 1387
158 1 3674
159 1 2282
160 1 2992
161 1 2726
162 1 1903
163 1 2144
164 1 2036
165 1 4092
166 1 3947
167 1 2313
168 1 1317
169 1 2515
170 1 3242
171 1 2222
172 1 5176
173 1 2068
174 1 2692
175 1 2184
176 1 2593
177 1 3553
178 1 2517
179 1 2676
180 1 2482
181 1 1892
182 1 1077
183 1 2458
184 1 607
185 1 2860
186 1 3841
187 1 1755
188 1 1099
189 1 1247
190 1 1423
191 1 3130
192 1 1597
193 1 2102
194 1 1274
195 1 4684
196 1 3071
197 1 1559
198 1 2551
199 1 3152
200 1 1927
201 1 1581
202 1 3058
203 1 1616
204 1 3935
205 1 2726
206 1 2211
207 1 1734
208 1 1729
209 1 1768
210 1 2989
211 1 2790
212 1 1765
213 1 1877
214 1 2479
215 1 1698
216 1 3063
217 1 832
218 1 2805
219 1 2576
220 1 3590
221 1 1318
222 1 1462
223 1 2154
224 1 4069
225 1 1579
226 1 3381
227 1 3518
228 1 2716
229 1 4043
230 1 3580
231 1 2245
232 1 2388
233 1 1753
234 1 1618
235 1 1520
236 1 2561
237 1 1327
238 1 3041
239 1 2430
240 1 2718
241 1 2388
242 1 1539
243 1 2048
244 1 1623
245 1 2305
246 1 1626
247 1 3151
248 1 2670
249 1 2227
250 1 915
251 1 1504
252 1 1680
253 1 1610
254 1 1600
255 1 2948
256 1 2120
257 1 1006
258 1 3287
259 1 2588
260 1 3386
261 1 2349
262 1 2279
263 1 1618
264 1 3878
265 1 1539
266 1 2171
267 1 2956
268 1 1764
269 1 1159
270 1 2629
271 1 1671
272 1 1845
273 1 1239
274 1 1865
275 1 1355
276 1 2147
277 1 2790
278 1 1082
279 1 1509
280 1 2985
281 1 2959
282 1 3084
283 1 1258
284 1 3081
285 1 2799
286 1 2116
287 1 1621
288 1 1575
289 1 1520
290 1 2410
291 1 2425
292 1 733
293 1 2290
294 1 1976
295 1 1715
296 1 3996
297 1 1883
298 1 2286
299 1 3033
300 1 1505
301 1 1591
302 1 2739
303 1 1671
304 1 1762
305 1 1872
306 1 3952
307 1 1948
308 1 2235
309 1 1630
310 1 3527
311 1 3409
312 1 3411
313 1 2045
314 1 2535
315 1 2414
316 1 2559
317 1 1721
318 1 1521
319 1 2142
320 1 2324
321 1 2833
322 1 2010
323 1 2328
324 1 2237
325 1 2275
326 1 2227
327 1 2671
328 1 2512
329 1 1843
330 1 2367
331 1 1627
332 1 2543
333 1 1684
334 1 1869
335 1 2275
336 1 2165
337 1 2791
338 1 4374
339 1 1654
340 1 1774
341 1 1220
342 1 2430
343 1 4604
344 1 2674
345 1 1642
346 1 3239
347 1 1593
348 1 4025
349 1 1205
350 1 3919
351 1 2475
352 1 1588
353 1 1082
354 1 1951
355 1 4733
356 1 2749
357 1 2202
358 1 2266
359 1 3852
360 1 1286
361 1 2367
362 1 2259
363 1 3379
364 1 1693
365 1 3125
366 1 2090
367 1 1987
368 1 1465
369 1 1478
370 1 2792
371 1 3296
372 1 2414
373 1 4002
374 1 1329
375 1 1799
376 1 967
377 1 2537
378 1 3027
379 1 3581
380 1 2986
381 1 3036
382 1 3541
383 1 1837
384 1 2566
385 1 4387
386 1 2006
387 1 2597
388 1 1443
389 1 2078
390 1 1519
391 1 3361
392 1 1678
393 1 1984
394 1 2133
395 1 3969
396 1 2504
397 1 2167
398 1 1409
399 1 3416
400 1 2089
401 1 3819
402 1 1773
403 1 2794
404 1 2498
405 1 1447
406 1 1784
407 1 1747
408 1 2264
409 1 2151
410 1 3391
411 1 2927
412 1 2710
413 1 2925
414 1 2326
415 1 1673
416 1 1585
417 1 1876
418 1 1148
419 1 3389
420 1 1079
421 1 2846
422 1 1195
423 1 2094
424 1 1729
425 1 2763
426 1 4004
427 1 1870
428 1 2277
429 1 2949
430 1 3607
431 1 1238
432 1 2382
433 1 4201
434 1 1844
435 1 2549
436 1 2347
437 1 1150
438 1 1553
439 1 2984
440 1 1513
441 1 1627
442 1 2034
443 1 1379
444 1 2593
445 1 1855
446 1 2813
447 1 2259
448 1 2296
449 1 2052
450 1 1607
451 1 3069
452 1 2404
453 1 4113
454 1 2432
455 1 3261
456 1 1611
457 1 3960
458 1 2575
459 1 2159
460 1 1641
461 1 2350
462 1 2211
463 1 2140
464 1 2263
465 1 2723
466 1 2485
467 1 1594
468 1 1102
469 1 2860
470 1 1763
471 1 2522
472 1 2383
473 1 1763
474 1 3382
475 1 3358
476 1 2874
477 1 771
478 1 2433
479 1 1752
480 1 3086
481 1 1515
482 1 2473
483 1 951
484 1 1973
485 1 2014
486 1 1824
487 1 1107
488 1 1207
489 1 1561
490 1 762
491 1 2619
492 1 2353
493 1 1626
494 1 2508
495 1 1061
496 1 1080
497 1 654
498 1 1118
499 1 833
500 1 2165
1 2 581
2 2 1135
3 2 2823
4 2 1013
5 2 1190
6 2 370
7 2 1353
8 2 657
9 2 447
10 2 794
11 2 924
12 2 2035
13 2 959
14 2 654
15 2 1281
16 2 1616
17 2 856
18 2 1376
19 2 2997
20 2 1422
21 2 2259
22 2 1851
23 2 2181
24 2 975
25 2 2368
26 2 3341
27 2 1658
28 2 586
29 2 763
30 2 515
31 2 419
32 2 1590
33 2 1631
34 2 487
35 2 417
36 2 936
37 2 1152
38 2 539
39 2 810
40 2 786
41 2 265
42 2 899
43 2 1259
44 2 753
45 2 814
46 2 1379
47 2 1623
48 2 951
49 2 2046
50 2 1066
51 2 993
52 2 2221
53 2 1193
54 2 1189
55 2 1867
56 2 1227
57 2 1030
58 2 1284
59 2 297
60 2 1736
61 2 1991
62 2 882
63 2 1443
64 2 1399
65 2 925
66 2 1328
67 2 492
68 2 1070
69 2 1441
70 2 1456
71 2 759
72 2 1153
73 2 1290
74 2 423
75 2 788
76 2 657
77 2 1310
78 2 622
79 2 374
80 2 697
81 2 1673
82 2 1069
83 2 1193
84 2 1656
85 2 1295
86 2 1281
87 2 964
88 2 550
89 2 1899
90 2 1395
91 2 1065
92 2 1597
93 2 1424
94 2 1664
95 2 987
96 2 932
97 2 940
98 2 665
99 2 791
100 2 540
101 2 1658
102 2 876
103 2 1472
104 2 1195
105 2 861
106 2 715
107 2 1795
108 2 1191
109 2 491
110 2 1132
111 2 413
112 2 602
113 2 882
114 2 1229
115 2 1382
116 2 1602
117 2 1123
118 2 1165
119 2 809
120 2 780
121 2 580
122 2 1452
123 2 1066
124 2 384
125 2 2844
126 2 2073
127 2 1150
128 2 692
129 2 901
130 2 1446
131 2 929
132 2 642
133 2 1034
134 2 977
135 2 931
136 2 285
137 2 2587
138 2 1593
139 2 626
140 2 1172
141 2 621
142 2 488
143 2 1339
144 2 2627
145 2 545
146 2 1238
147 2 752
148 2 1494
149 2 817
150 2 618
151 2 1026
152 2 650
153 2 2539
154 2 1226
155 2 1017
156 2 1392
157 2 635
158 2 1539
159 2 986
160 2 1062
161 2 2656
162 2 518
163 2 1737
164 2 834
165 2 1475
166 2 771
167 2 1089
168 2 1406
169 2 649
170 2 732
171 2 526
172 2 1952
173 2 1063
174 2 1557
175 2 462
176 2 1002
177 2 386
178 2 1505
179 2 754
180 2 1393
181 2 518
182 2 440
183 2 2513
184 2 1102
185 2 881
186 2 2406
187 2 1353
188 2 296
189 2 573
190 2 798
191 2 1749
192 2 1421
193 2 1179
194 2 561
195 2 2054
196 2 1850
197 2 780
198 2 836
199 2 380
200 2 741
201 2 851
202 2 1327
203 2 625
204 2 673
205 2 1293
206 2 1237
207 2 1721
208 2 685
209 2 1252
210 2 1832
211 2 900
212 2 257
213 2 715
214 2 1373
215 2 650
216 2 1391
217 2 240
218 2 1158
219 2 2179
220 2 521
221 2 976
222 2 973
223 2 1184
224 2 1741
225 2 1305
226 2 1328
227 2 376
228 2 799
229 2 524
230 2 1454
231 2 1336
232 2 1639
233 2 940
234 2 918
235 2 1291
236 2 1212
237 2 1934
238 2 1880
239 2 751
240 2 970
241 2 939
242 2 931
243 2 2019
244 2 3328
245 2 3034
246 2 193
247 2 1338
248 2 1121
249 2 1746
250 2 602
251 2 1012
252 2 1017
253 2 1170
254 2 1107
255 2 1384
256 2 1015
257 2 1069
258 2 1326
259 2 771
260 2 926
261 2 733
262 2 879
263 2 863
264 2 739
265 2 433
266 2 2076
267 2 876
268 2 1176
269 2 546
270 2 1130
271 2 1359
272 2 964
273 2 887
274 2 665
275 2 503
276 2 767
277 2 596
278 2 1525
279 2 474
280 2 900
281 2 441
282 2 1154
283 2 473
284 2 876
285 2 585
286 2 2046
287 2 1260
288 2 1277
289 2 342
290 2 815
291 2 722
292 2 1206
293 2 1988
294 2 518
295 2 1580
296 2 1655
297 2 968
298 2 1041
299 2 1453
300 2 826
301 2 815
302 2 999
303 2 477
304 2 1351
305 2 941
306 2 533
307 2 1599
308 2 1115
309 2 464
310 2 1246
311 2 2171
312 2 1718
313 2 2112
314 2 812
315 2 3409
316 2 1324
317 2 1317
318 2 804
319 2 1056
320 2 679
321 2 384
322 2 1622
323 2 1327
324 2 1929
325 2 1076
326 2 1343
327 2 908
328 2 1484
329 2 1508
330 2 1292
331 2 879
332 2 1569
333 2 1855
334 2 721
335 2 1303
336 2 1038
337 2 1243
338 2 1919
339 2 1449
340 2 1264
341 2 839
342 2 2345
343 2 2079
344 2 1196
345 2 1123
346 2 2310
347 2 381
348 2 1793
349 2 335
350 2 1498
351 2 1507
352 2 910
353 2 336
354 2 875
355 2 1233
356 2 1555
357 2 881
358 2 1417
359 2 572
360 2 1035
361 2 728
362 2 1255
363 2 2780
364 2 1806
365 2 1071
366 2 319
367 2 640
368 2 415
369 2 1346
370 2 1744
371 2 1618
372 2 1217
373 2 1668
374 2 558
375 2 773
376 2 1370
377 2 1340
378 2 1898
379 2 823
380 2 401
381 2 415
382 2 819
383 2 962
384 2 809
385 2 889
386 2 739
387 2 1235
388 2 577
389 2 1360
390 2 757
391 2 735
392 2 898
393 2 1112
394 2 692
395 2 490
396 2 1461
397 2 2278
398 2 1319
399 2 2031
400 2 2406
401 2 1780
402 2 887
403 2 738
404 2 2539
405 2 449
406 2 1032
407 2 1575
408 2 1914
409 2 562
410 2 1734
411 2 1371
412 2 725
413 2 1151
414 2 1589
415 2 1307
416 2 1108
417 2 1081
418 2 1489
419 2 1668
420 2 249
421 2 870
422 2 384
423 2 1034
424 2 1549
425 2 1162
426 2 333
427 2 772
428 2 1004
429 2 1461
430 2 1817
431 2 1289
432 2 1305
433 2 1170
434 2 1923
435 2 1467
436 2 859
437 2 399
438 2 886
439 2 1302
440 2 518
441 2 1116
442 2 1272
443 2 479
444 2 1999
445 2 569
446 2 3396
447 2 1919
448 2 1477
449 2 671
450 2 1324
451 2 367
452 2 598
453 2 1373
454 2 1662
455 2 1235
456 2 553
457 2 1753
458 2 1656
459 2 317
460 2 1539
461 2 850
462 2 264
463 2 964
464 2 1237
465 2 1957
466 2 964
467 2 1304
468 2 1191
469 2 1946
470 2 1041
471 2 909
472 2 1041
473 2 1563
474 2 1382
475 2 1261
476 2 1098
477 2 698
478 2 425
479 2 1057
480 2 415
481 2 1487
482 2 826
483 2 611
484 2 1344
485 2 2617
486 2 1411
487 2 392
488 2 688
489 2 377
490 2 1219
491 2 808
492 2 619
493 2 1751
494 2 1224
495 2 934
496 2 1144
497 2 490
498 2 622
499 2 384
500 2 809
1 3 51
2 3 408
3 3 855
4 3 251
5 3 271
6 3 115
7 3 166
8 3 231
9 3 97
10 3 155
11 3 285
12 3 147
13 3 287
14 3 220
15 3 138
16 3 300
17 3 520
18 3 111
19 3 88
20 3 75
21 3 378
22 3 148
23 3 114
24 3 111
25 3 262
26 3 185
27 3 130
28 3 55
29 3 112
30 3 59
31 3 275
32 3 154
33 3 186
34 3 87
35 3 280
36 3 200
37 3 166
38 3 462
39 3 244
40 3 121
41 3 411
42 3 130
43 3 104
44 3 183
45 3 189
46 3 143
47 3 467
48 3 737
49 3 108
50 3 223
51 3 472
52 3 60
53 3 386
54 3 99
55 3 80
56 3 168
57 3 236
58 3 350
59 3 46
60 3 601
61 3 128
62 3 176
63 3 219
64 3 228
65 3 68
66 3 194
67 3 310
68 3 136
69 3 216
70 3 182
71 3 94
72 3 589
73 3 645
74 3 408
75 3 376
76 3 72
77 3 112
78 3 93
79 3 333
80 3 218
81 3 156
82 3 239
83 3 505
84 3 593
85 3 257
86 3 119
87 3 94
88 3 103
89 3 535
90 3 1134
91 3 37
92 3 150
93 3 496
94 3 275
95 3 168
96 3 68
97 3 381
98 3 88
99 3 85
100 3 83
101 3 149
102 3 412
103 3 115
104 3 317
105 3 82
106 3 157
107 3 202
108 3 511
109 3 276
110 3 197
111 3 118
112 3 205
113 3 163
114 3 222
115 3 144
116 3 188
117 3 116
118 3 104
119 3 365
120 3 246
121 3 106
122 3 94
123 3 469
124 3 123
125 3 830
126 3 107
127 3 407
128 3 94
129 3 134
130 3 239
131 3 278
132 3 142
133 3 156
134 3 37
135 3 89
136 3 95
137 3 413
138 3 5
139 3 338
140 3 102
141 3 224
142 3 331
143 3 116
144 3 704
145 3 166
146 3 413
147 3 169
148 3 43
149 3 134
150 3 344
151 3 471
152 3 77
153 3 87
154 3 279
155 3 304
156 3 412
157 3 581
158 3 105
159 3 416
160 3 362
161 3 472
162 3 95
163 3 293
164 3 129
165 3 188
166 3 657
167 3 109
168 3 231
169 3 207
170 3 152
171 3 105
172 3 339
173 3 362
174 3 145
175 3 106
176 3 215
177 3 130
178 3 93
179 3 207
180 3 213
181 3 141
182 3 48
183 3 448
184 3 204
185 3 190
186 3 285
187 3 125
188 3 100
189 3 463
190 3 652
191 3 290
192 3 172
193 3 101
194 3 44
195 3 165
196 3 168
197 3 115
198 3 188
199 3 411
200 3 215
201 3 202
202 3 131
203 3 119
204 3 635
205 3 121
206 3 253
207 3 268
208 3 125
209 3 471
210 3 634
211 3 274
212 3 104
213 3 148
214 3 97
215 3 265
216 3 1140
217 3 159
218 3 355
219 3 41
220 3 153
221 3 39
222 3 89
223 3 94
224 3 139
225 3 333
226 3 252
227 3 112
228 3 143
229 3 227
230 3 178
231 3 184
232 3 726
233 3 564
234 3 380
235 3 620
236 3 665
237 3 51
238 3 178
239 3 94
240 3 162
241 3 421
242 3 87
243 3 155
244 3 281
245 3 223
246 3 141
247 3 142
248 3 67
249 3 89
250 3 377
251 3 82
252 3 160
253 3 771
254 3 594
255 3 320
256 3 472
257 3 435
258 3 277
259 3 397
260 3 81
261 3 110
262 3 153
263 3 270
264 3 121
265 3 159
266 3 88
267 3 83
268 3 742
269 3 98
270 3 81
271 3 233
272 3 254
273 3 318
274 3 97
275 3 93
276 3 154
277 3 191
278 3 287
279 3 128
280 3 56
281 3 328
282 3 120
283 3 131
284 3 167
285 3 119
286 3 78
287 3 232
288 3 569
289 3 31
290 3 354
291 3 110
292 3 108
293 3 162
294 3 293
295 3 74
296 3 362
297 3 263
298 3 867
299 3 242
300 3 395
301 3 127
302 3 152
303 3 195
304 3 924
305 3 272
306 3 709
307 3 152
308 3 681
309 3 121
310 3 54
311 3 159
312 3 139
313 3 83
314 3 93
315 3 232
316 3 105
317 3 103
318 3 468
319 3 136
320 3 46
321 3 264
322 3 469
323 3 396
324 3 82
325 3 614
326 3 201
327 3 117
328 3 110
329 3 887
330 3 585
331 3 223
332 3 234
333 3 431
334 3 141
335 3 170
336 3 157
337 3 159
338 3 261
339 3 647
340 3 498
341 3 326
342 3 258
343 3 169
344 3 537
345 3 124
346 3 545
347 3 490
348 3 118
349 3 42
350 3 444
351 3 112
352 3 123
353 3 48
354 3 218
355 3 149
356 3 396
357 3 185
358 3 121
359 3 731
360 3 123
361 3 327
362 3 106
363 3 817
364 3 292
365 3 207
366 3 226
367 3 110
368 3 174
369 3 352
370 3 128
371 3 147
372 3 324
373 3 182
374 3 81
375 3 299
376 3 286
377 3 211
378 3 85
379 3 172
380 3 137
381 3 123
382 3 161
383 3 680
384 3 200
385 3 435
386 3 228
387 3 76
388 3 617
389 3 717
390 3 103
391 3 166
392 3 250
393 3 195
394 3 156
395 3 655
396 3 111
397 3 46
398 3 163
399 3 642
400 3 171
401 3 343
402 3 292
403 3 304
404 3 411
405 3 233
406 3 64
407 3 369
408 3 92
409 3 71
410 3 195
411 3 588
412 3 340
413 3 92
414 3 216
415 3 326
416 3 777
417 3 145
418 3 334
419 3 193
420 3 93
421 3 106
422 3 694
423 3 141
424 3 259
425 3 84
426 3 90
427 3 170
428 3 32
429 3 258
430 3 162
431 3 288
432 3 125
433 3 73
434 3 105
435 3 198
436 3 162
437 3 168
438 3 266
439 3 36
440 3 28
441 3 142
442 3 139
443 3 275
444 3 384
445 3 155
446 3 216
447 3 103
448 3 527
449 3 131
450 3 275
451 3 282
452 3 92
453 3 97
454 3 347
455 3 134
456 3 109
457 3 372
458 3 371
459 3 212
460 3 67
461 3 223
462 3 75
463 3 66
464 3 191
465 3 74
466 3 167
467 3 349
468 3 98
469 3 122
470 3 565
471 3 158
472 3 898
473 3 723
474 3 209
475 3 254
476 3 386
477 3 46
478 3 424
479 3 57
480 3 273
481 3 171
482 3 222
483 3 152
484 3 147
485 3 131
486 3 94
487 3 87
488 3 333
489 3 120
490 3 111
491 3 156
492 3 214
493 3 347
494 3 333
495 3 314
496 3 176
497 3 319
498 3 58
499 3 87
500 3 107
1 4 560
2 4 2449
3 4 792
4 4 1653
5 4 1183
6 4 878
7 4 1313
8 4 659
9 4 622
10 4 831
11 4 998
12 4 1161
13 4 1070
14 4 603
15 4 1596
16 4 1264
17 4 958
18 4 1124
19 4 752
20 4 301
21 4 737
22 4 1446
23 4 1866
24 4 937
25 4 1131
26 4 1074
27 4 367
28 4 566
29 4 271
30 4 499
31 4 1226
32 4 925
33 4 1124
34 4 607
35 4 747
36 4 1534
37 4 927
38 4 376
39 4 550
40 4 754
41 4 155
42 4 379
43 4 1478
44 4 810
45 4 1001
46 4 636
47 4 992
48 4 577
49 4 1900
50 4 1289
51 4 727
52 4 479
53 4 784
54 4 1474
55 4 2119
56 4 750
57 4 729
58 4 311
59 4 771
60 4 1497
61 4 2261
62 4 552
63 4 1130
64 4 1039
65 4 1795
66 4 1116
67 4 300
68 4 560
69 4 937
70 4 1295
71 4 177
72 4 268
73 4 1519
74 4 417
75 4 1412
76 4 1078
77 4 687
78 4 1290
79 4 651
80 4 1612
81 4 865
82 4 215
83 4 1290
84 4 1601
85 4 633
86 4 926
87 4 211
88 4 289
89 4 1242
90 4 1142
91 4 782
92 4 854
93 4 1106
94 4 454
95 4 873
96 4 1844
97 4 997
98 4 668
99 4 702
100 4 267
101 4 881
102 4 1628
103 4 1459
104 4 1614
105 4 976
106 4 1359
107 4 428
108 4 235
109 4 207
110 4 360
111 4 2650
112 4 576
113 4 991
114 4 940
115 4 933
116 4 1507
117 4 785
118 4 1402
119 4 1030
120 4 184
121 4 1024
122 4 920
123 4 1201
124 4 784
125 4 817
126 4 634
127 4 1117
128 4 717
129 4 1055
130 4 922
131 4 880
132 4 820
133 4 579
134 4 1039
135 4 448
136 4 682
137 4 1632
138 4 1372
139 4 1637
140 4 802
141 4 2060
142 4 352
143 4 1764
144 4 1959
145 4 406
146 4 506
147 4 999
148 4 1093
149 4 2142
150 4 1568
151 4 1029
152 4 679
153 4 1082
154 4 1475
155 4 372
156 4 315
157 4 1462
158 4 1093
159 4 928
160 4 1487
161 4 464
162 4 245
163 4 430
164 4 369
165 4 1703
166 4 1042
167 4 1842
168 4 832
169 4 642
170 4 933
171 4 1484
172 4 1993
173 4 436
174 4 1038
175 4 2651
176 4 678
177 4 836
178 4 498
179 4 2294
180 4 1052
181 4 406
182 4 496
183 4 966
184 4 897
185 4 784
186 4 724
187 4 226
188 4 667
189 4 1633
190 4 666
191 4 463
192 4 1348
193 4 760
194 4 1119
195 4 1674
196 4 459
197 4 1501
198 4 886
199 4 386
200 4 548
201 4 336
202 4 750
203 4 169
204 4 1089
205 4 1006
206 4 650
207 4 1293
208 4 1059
209 4 1131
210 4 1805
211 4 799
212 4 568
213 4 1073
214 4 1208
215 4 600
216 4 1073
217 4 354
218 4 1050
219 4 757
220 4 958
221 4 809
222 4 587
223 4 823
224 4 1370
225 4 1302
226 4 880
227 4 760
228 4 643
229 4 619
230 4 1646
231 4 1083
232 4 510
233 4 616
234 4 819
235 4 1036
236 4 284
237 4 854
238 4 453
239 4 763
240 4 529
241 4 428
242 4 1640
243 4 1447
244 4 737
245 4 1245
246 4 1222
247 4 823
248 4 850
249 4 1384
250 4 978
251 4 616
252 4 704
253 4 356
254 4 855
255 4 1038
256 4 1170
257 4 1087
258 4 970
259 4 1645
260 4 1225
261 4 965
262 4 829
263 4 667
264 4 2687
265 4 1287
266 4 976
267 4 1873
268 4 2465
269 4 289
270 4 189
271 4 988
272 4 1357
273 4 985
274 4 778
275 4 611
276 4 795
277 4 2061
278 4 2474
279 4 1234
280 4 939
281 4 2119
282 4 1276
283 4 748
284 4 490
285 4 1010
286 4 980
287 4 962
288 4 1177
289 4 527
290 4 1299
291 4 963
292 4 1511
293 4 1220
294 4 347
295 4 1338
296 4 2605
297 4 1338
298 4 1659
299 4 990
300 4 629
301 4 744
302 4 504
303 4 544
304 4 1924
305 4 1016
306 4 949
307 4 977
308 4 1023
309 4 1226
310 4 798
311 4 891
312 4 339
313 4 1293
314 4 614
315 4 1104
316 4 1208
317 4 209
318 4 861
319 4 927
320 4 704
321 4 1258
322 4 1797
323 4 489
324 4 364
325 4 1088
326 4 562
327 4 565
328 4 752
329 4 2278
330 4 860
331 4 375
332 4 2569
333 4 1192
334 4 1333
335 4 1710
336 4 913
337 4 1009
338 4 435
339 4 2690
340 4 1094
341 4 624
342 4 1201
343 4 1613
344 4 1252
345 4 1429
346 4 1542
347 4 1248
348 4 1334
349 4 804
350 4 1138
351 4 781
352 4 1062
353 4 547
354 4 646
355 4 1639
356 4 476
357 4 1000
358 4 1131
359 4 956
360 4 752
361 4 961
362 4 1446
363 4 806
364 4 2770
365 4 1731
366 4 938
367 4 648
368 4 1342
369 4 334
370 4 1265
371 4 1364
372 4 637
373 4 2236
374 4 672
375 4 584
376 4 1021
377 4 1109
378 4 2105
379 4 875
380 4 736
381 4 1731
382 4 896
383 4 557
384 4 1093
385 4 1336
386 4 519
387 4 828
388 4 1363
389 4 1351
390 4 1729
391 4 233
392 4 676
393 4 381
394 4 807
395 4 952
396 4 1196
397 4 449
398 4 1078
399 4 1971
400 4 2560
401 4 1569
402 4 1079
403 4 865
404 4 1151
405 4 1006
406 4 1216
407 4 524
408 4 385
409 4 521
410 4 1872
411 4 908
412 4 786
413 4 1298
414 4 286
415 4 1070
416 4 362
417 4 835
418 4 519
419 4 1188
420 4 672
421 4 2030
422 4 790
423 4 850
424 4 1693
425 4 198
426 4 633
427 4 1109
428 4 1070
429 4 1865
430 4 1413
431 4 716
432 4 649
433 4 1635
434 4 826
435 4 480
436 4 899
437 4 395
438 4 710
439 4 405
440 4 413
441 4 1356
442 4 732
443 4 768
444 4 2840
445 4 434
446 4 1055
447 4 347
448 4 1132
449 4 854
450 4 928
451 4 726
452 4 449
453 4 782
454 4 862
455 4 1654
456 4 1128
457 4 2710
458 4 1285
459 4 965
460 4 303
461 4 1480
462 4 243
463 4 1977
464 4 572
465 4 422
466 4 1060
467 4 1385
468 4 1414
469 4 2367
470 4 839
471 4 1237
472 4 1681
473 4 1194
474 4 1013
475 4 921
476 4 518
477 4 211
478 4 573
479 4 1312
480 4 722
481 4 1260
482 4 1002
483 4 342
484 4 1705
485 4 771
486 4 1586
487 4 774
488 4 865
489 4 459
490 4 1447
491 4 887
492 4 622
493 4 2796
494 4 604
495 4 363
496 4 1447
497 4 306
498 4 558
499 4 76
500 4 953
2 5 1329
3 5 364
4 5 1814
5 5 1532
6 5 268
7 5 770
8 5 1016
9 5 623
10 5 679
11 5 1979
12 5 962
13 5 1519
14 5 961
15 5 721
16 5 888
17 5 365
18 5 364
19 5 1951
20 5 348
21 5 486
22 5 1359
23 5 233
24 5 441
25 5 452
26 5 148
27 5 638
29 5 600
31 5 1234
32 5 743
33 5 864
34 5 594
35 5 482
36 5 385
37 5 1409
38 5 132
39 5 655
40 5 251
41 5 846
42 5 845
43 5 426
44 5 339
45 5 1132
46 5 1143
47 5 1062
48 5 293
49 5 242
50 5 466
51 5 462
52 5 743
53 5 346
54 5 732
55 5 685
56 5 1340
57 5 914
58 5 1228
60 5 1170
61 5 1263
62 5 1121
63 5 1098
64 5 901
65 5 637
66 5 1072
68 5 193
69 5 1682
70 5 257
71 5 369
72 5 438
73 5 1616
74 5 623
75 5 887
76 5 597
77 5 672
78 5 683
79 5 344
80 5 455
81 5 1108
82 5 782
83 5 362
84 5 2711
85 5 380
86 5 1947
87 5 964
88 5 311
89 5 515
90 5 434
92 5 735
93 5 1141
94 5 264
95 5 865
96 5 651
97 5 680
98 5 715
99 5 1128
101 5 984
102 5 606
103 5 1422
104 5 258
105 5 2230
106 5 918
107 5 1142
108 5 725
109 5 1014
110 5 297
111 5 854
112 5 217
113 5 847
114 5 542
115 5 792
116 5 1720
117 5 750
118 5 954
119 5 590
120 5 524
121 5 497
122 5 619
123 5 243
124 5 300
125 5 377
126 5 712
127 5 302
128 5 702
129 5 1057
130 5 1740
131 5 800
132 5 563
133 5 1066
134 5 502
135 5 286
136 5 1078
137 5 1907
138 5 704
139 5 678
140 5 723
141 5 2345
143 5 1069
144 5 1158
145 5 59
146 5 814
147 5 513
148 5 826
149 5 958
150 5 485
151 5 977
152 5 361
153 5 1078
154 5 1725
155 5 353
156 5 574
157 5 1143
158 5 1081
159 5 692
160 5 876
161 5 1194
162 5 633
163 5 569
164 5 829
165 5 743
166 5 1767
167 5 662
168 5 973
169 5 912
170 5 1511
171 5 1432
172 5 1847
173 5 1716
174 5 1425
175 5 810
176 5 705
177 5 268
178 5 634
179 5 1468
180 5 360
181 5 55
183 5 1100
184 5 663
185 5 333
186 5 771
187 5 1251
188 5 1178
189 5 564
190 5 871
191 5 1004
192 5 277
193 5 711
194 5 337
195 5 586
196 5 1106
197 5 518
198 5 477
199 5 399
200 5 188
201 5 297
202 5 365
204 5 1752
205 5 684
206 5 319
207 5 250
208 5 870
209 5 1245
210 5 794
211 5 782
212 5 1411
214 5 460
215 5 661
216 5 427
218 5 1623
219 5 911
220 5 1084
222 5 823
223 5 722
224 5 1210
225 5 647
226 5 1272
227 5 294
228 5 843
229 5 802
230 5 1255
231 5 837
232 5 980
233 5 1546
234 5 1059
235 5 750
236 5 445
237 5 802
238 5 1145
239 5 1160
240 5 1241
241 5 514
242 5 611
243 5 735
244 5 387
245 5 1321
246 5 881
247 5 736
248 5 582
249 5 472
251 5 852
252 5 455
253 5 691
254 5 275
255 5 1176
256 5 200
257 5 321
258 5 1321
259 5 96
260 5 428
261 5 1021
262 5 481
263 5 522
264 5 791
265 5 829
266 5 493
267 5 250
268 5 758
269 5 293
270 5 1352
271 5 895
272 5 113
273 5 1517
274 5 728
275 5 1189
276 5 706
277 5 2315
278 5 189
279 5 340
280 5 407
281 5 883
282 5 1337
283 5 798
284 5 1164
285 5 489
286 5 498
287 5 742
288 5 706
289 5 1108
290 5 898
291 5 1008
292 5 771
293 5 1011
294 5 723
295 5 883
296 5 820
297 5 83
298 5 1182
299 5 1672
300 5 660
301 5 418
302 5 1256
303 5 593
304 5 550
305 5 1473
306 5 621
307 5 542
308 5 568
309 5 308
310 5 1113
311 5 650
312 5 573
313 5 493
314 5 686
315 5 2092
316 5 467
317 5 1280
318 5 125
319 5 640
320 5 156
321 5 1244
322 5 535
323 5 817
324 5 1635
325 5 541
326 5 677
327 5 615
328 5 1612
329 5 633
330 5 1532
331 5 329
332 5 782
333 5 1395
334 5 899
335 5 1246
336 5 921
337 5 1075
338 5 965
339 5 533
340 5 1221
341 5 893
342 5 485
343 5 557
344 5 367
345 5 1192
346 5 1808
347 5 337
348 5 1303
350 5 1006
351 5 1642
352 5 553
354 5 1548
355 5 255
356 5 264
357 5 989
358 5 482
359 5 715
360 5 575
361 5 407
362 5 393
363 5 385
364 5 822
365 5 908
366 5 502
367 5 353
368 5 839
369 5 568
370 5 392
371 5 508
372 5 461
373 5 648
374 5 1257
375 5 506
376 5 411
377 5 379
378 5 720
379 5 893
380 5 1597
381 5 1073
382 5 928
383 5 280
384 5 1072
385 5 309
386 5 208
387 5 592
388 5 1159
389 5 627
390 5 504
391 5 820
392 5 755
393 5 292
394 5 654
395 5 597
396 5 478
397 5 729
398 5 426
399 5 1453
400 5 898
401 5 566
402 5 333
403 5 935
404 5 1155
405 5 97
406 5 304
407 5 765
408 5 1726
409 5 396
410 5 350
411 5 164
412 5 903
413 5 1328
414 5 858
415 5 917
416 5 698
417 5 804
418 5 1002
419 5 755
420 5 1166
421 5 354
422 5 224
423 5 910
424 5 266
425 5 1404
426 5 827
427 5 771
428 5 507
429 5 1438
430 5 1348
431 5 419
432 5 1722
433 5 1599
434 5 334
435 5 1989
436 5 507
437 5 569
438 5 612
439 5 1088
440 5 40
441 5 813
442 5 1072
443 5 489
444 5 334
445 5 41
446 5 157
447 5 1637
448 5 1116
449 5 521
450 5 768
451 5 1251
452 5 1025
453 5 358
454 5 440
455 5 265
456 5 1085
457 5 881
458 5 1184
459 5 508
460 5 364
461 5 986
462 5 421
463 5 1173
464 5 664
465 5 479
466 5 1050
467 5 630
468 5 494
469 5 1197
470 5 280
471 5 813
472 5 1182
473 5 530
474 5 1452
475 5 1296
476 5 997
478 5 510
479 5 322
480 5 1255
481 5 287
482 5 1091
484 5 355
485 5 463
486 5 981
488 5 242
489 5 137
490 5 764
491 5 484
492 5 958
493 5 828
494 5 469
495 5 364
496 5 164
500 5 2058
2 6 439
3 6 285
4 6 804
5 6 744
6 6 206
7 6 557
8 6 1081
9 6 314
10 6 82
11 6 227
12 6 924
13 6 470
14 6 1027
15 6 462
16 6 219
17 6 151
18 6 757
19 6 135
20 6 149
21 6 223
22 6 913
23 6 513
24 6 430
25 6 138
26 6 126
27 6 226
29 6 110
31 6 196
32 6 104
33 6 959
34 6 323
35 6 2
36 6 119
37 6 365
38 6 246
39 6 1326
40 6 288
41 6 574
42 6 162
43 6 232
44 6 139
45 6 451
46 6 595
47 6 254
48 6 1001
49 6 500
50 6 214
51 6 539
52 6 234
53 6 618
54 6 668
55 6 378
56 6 556
57 6 658
58 6 1257
60 6 360
61 6 215
62 6 431
63 6 217
64 6 866
65 6 315
66 6 414
68 6 858
69 6 106
70 6 874
71 6 402
72 6 375
73 6 342
74 6 31
75 6 1039
76 6 1028
77 6 49
78 6 1433
79 6 271
80 6 473
81 6 369
82 6 813
83 6 211
84 6 357
85 6 145
86 6 175
87 6 662
88 6 17
89 6 652
90 6 141
92 6 90
93 6 288
94 6 354
95 6 712
96 6 351
97 6 124
98 6 502
99 6 208
101 6 379
102 6 1024
103 6 339
104 6 326
105 6 294
106 6 350
107 6 475
108 6 243
109 6 297
110 6 145
111 6 513
112 6 153
113 6 252
114 6 354
115 6 508
116 6 156
117 6 23
118 6 191
119 6 807
120 6 250
121 6 273
122 6 294
123 6 387
124 6 223
125 6 313
126 6 163
127 6 739
128 6 486
129 6 446
130 6 106
131 6 602
132 6 218
133 6 616
134 6 124
135 6 362
136 6 245
137 6 663
138 6 103
139 6 1174
140 6 26
141 6 1613
143 6 385
144 6 262
145 6 14
146 6 1355
147 6 337
148 6 251
149 6 627
150 6 556
151 6 602
152 6 144
153 6 258
154 6 612
155 6 381
157 6 231
158 6 796
159 6 122
160 6 1155
161 6 669
162 6 425
163 6 424
164 6 204
165 6 182
166 6 328
167 6 640
168 6 127
169 6 951
170 6 430
171 6 544
172 6 216
173 6 273
174 6 470
175 6 525
176 6 364
177 6 216
178 6 405
179 6 826
180 6 368
181 6 13
183 6 399
184 6 37
185 6 431
186 6 155
187 6 50
188 6 275
189 6 621
190 6 294
191 6 295
192 6 841
193 6 20
194 6 415
195 6 599
196 6 305
197 6 212
198 6 156
199 6 565
200 6 361
201 6 94
202 6 1551
204 6 303
205 6 290
206 6 552
207 6 411
208 6 907
209 6 1016
210 6 109
211 6 643
212 6 483
214 6 605
215 6 586
216 6 139
218 6 872
219 6 579
220 6 735
222 6 407
223 6 20
224 6 248
225 6 271
226 6 557
227 6 225
228 6 345
229 6 337
230 6 222
231 6 112
232 6 212
233 6 236
234 6 675
235 6 492
236 6 431
237 6 779
238 6 309
239 6 227
240 6 242
241 6 258
242 6 321
243 6 406
244 6 506
245 6 229
246 6 296
247 6 329
248 6 106
249 6 334
251 6 406
252 6 160
253 6 296
254 6 308
255 6 1091
256 6 379
257 6 697
258 6 506
259 6 279
260 6 123
261 6 810
262 6 478
263 6 233
264 6 393
265 6 374
266 6 361
267 6 432
268 6 640
269 6 9
270 6 356
271 6 834
272 6 383
273 6 244
274 6 489
275 6 624
276 6 72
277 6 1588
278 6 184
279 6 329
280 6 419
281 6 802
282 6 196
283 6 531
284 6 437
285 6 288
286 6 385
287 6 89
288 6 476
289 6 369
290 6 1064
291 6 791
292 6 662
293 6 881
294 6 300
295 6 50
296 6 245
297 6 374
298 6 898
299 6 93
300 6 49
301 6 497
302 6 243
303 6 193
304 6 473
305 6 455
306 6 800
307 6 1083
308 6 868
309 6 333
310 6 251
311 6 189
312 6 267
313 6 200
314 6 191
315 6 1906
316 6 601
317 6 52
318 6 548
319 6 120
320 6 399
321 6 175
322 6 382
323 6 1392
324 6 690
325 6 810
326 6 554
327 6 1093
328 6 451
329 6 225
330 6 259
331 6 123
332 6 381
333 6 959
334 6 387
335 6 284
336 6 731
337 6 277
338 6 252
339 6 1261
340 6 973
341 6 332
342 6 166
343 6 583
344 6 159
345 6 179
346 6 623
347 6 308
348 6 254
350 6 249
351 6 479
352 6 343
354 6 68
355 6 123
356 6 459
357 6 593
358 6 810
359 6 297
360 6 789
361 6 354
362 6 224
363 6 286
364 6 914
365 6 864
366 6 380
367 6 166
368 6 358
370 6 94
371 6 476
372 6 294
373 6 306
374 6 642
375 6 377
376 6 105
377 6 397
378 6 366
379 6 454
380 6 303
381 6 651
382 6 437
383 6 1063
384 6 428
385 6 585
386 6 365
387 6 119
388 6 233
389 6 336
390 6 111
391 6 332
392 6 63
393 6 137
394 6 90
395 6 772
396 6 593
397 6 259
398 6 718
399 6 405
400 6 156
401 6 863
402 6 109
403 6 283
404 6 992
405 6 75
406 6 292
407 6 88
408 6 668
409 6 273
410 6 76
411 6 464
412 6 289
413 6 195
414 6 532
415 6 687
416 6 276
417 6 367
418 6 669
419 6 451
420 6 259
421 6 252
422 6 242
423 6 729
424 6 268
425 6 331
426 6 1469
427 6 782
428 6 97
429 6 559
430 6 985
431 6 137
432 6 452
433 6 169
434 6 342
435 6 409
436 6 521
437 6 195
438 6 212
439 6 318
441 6 508
442 6 122
443 6 2
444 6 395
445 6 21
446 6 129
447 6 648
448 6 289
449 6 215
450 6 71
451 6 553
452 6 71
453 6 619
454 6 540
455 6 842
456 6 145
457 6 223
458 6 464
459 6 403
460 6 145
461 6 889
462 6 216
463 6 679
464 6 561
465 6 841
466 6 417
467 6 299
468 6 125
469 6 217
470 6 310
471 6 807
472 6 867
473 6 72
474 6 235
475 6 530
476 6 743
478 6 418
479 6 273
480 6 540
481 6 217
482 6 465
484 6 1054
485 6 164
486 6 547
488 6 749
489 6 3
490 6 641
491 6 152
492 6 989
493 6 995
494 6 267
495 6 372
496 6 686
500 6 221
2 7 480
3 7 393
4 7 521
5 7 933
6 7 248
7 7 1529
8 7 592
9 7 296
10 7 95
11 7 559
12 7 188
13 7 482
14 7 636
15 7 669
16 7 653
17 7 361
18 7 105
19 7 435
20 7 650
21 7 170
22 7 302
23 7 586
24 7 572
25 7 264
26 7 451
27 7 460
29 7 429
31 7 84
32 7 356
33 7 594
34 7 318
36 7 234
37 7 409
38 7 88
39 7 132
40 7 71
41 7 351
42 7 660
43 7 344
44 7 301
45 7 267
46 7 815
47 7 1035
48 7 668
49 7 562
50 7 795
51 7 314
52 7 300
53 7 272
54 7 342
55 7 434
56 7 155
57 7 863
58 7 91
60 7 530
61 7 296
62 7 1115
63 7 656
64 7 364
65 7 939
66 7 479
68 7 1157
69 7 122
70 7 266
71 7 125
72 7 324
73 7 1130
74 7 38
75 7 585
76 7 477
77 7 640
78 7 1556
79 7 355
80 7 1155
81 7 510
82 7 449
83 7 620
84 7 186
85 7 565
86 7 309
87 7 408
89 7 826
90 7 867
92 7 336
93 7 957
94 7 634
95 7 484
96 7 962
97 7 389
99 7 1021
101 7 478
102 7 899
103 7 297
104 7 471
105 7 352
106 7 226
107 7 1069
108 7 487
109 7 418
110 7 1132
111 7 236
112 7 1113
113 7 424
114 7 483
115 7 1144
116 7 286
118 7 61
119 7 579
120 7 2070
121 7 1340
122 7 1108
123 7 482
124 7 267
125 7 375
126 7 456
127 7 261
129 7 251
130 7 122
131 7 428
132 7 579
133 7 710
134 7 413
135 7 163
136 7 241
137 7 978
138 7 520
139 7 143
141 7 657
143 7 792
144 7 328
146 7 944
147 7 317
148 7 995
149 7 542
150 7 279
151 7 953
152 7 443
153 7 559
154 7 755
155 7 100
157 7 439
158 7 726
159 7 388
160 7 627
161 7 157
162 7 12
163 7 410
164 7 646
165 7 856
166 7 857
167 7 499
168 7 291
169 7 630
170 7 851
171 7 1069
172 7 1606
173 7 625
174 7 843
175 7 265
176 7 122
177 7 267
178 7 204
179 7 503
180 7 125
183 7 1743
184 7 571
185 7 400
186 7 675
187 7 896
188 7 225
189 7 228
190 7 52
191 7 848
192 7 246
195 7 1392
196 7 302
197 7 145
198 7 296
199 7 1971
200 7 502
201 7 12
202 7 536
204 7 874
205 7 363
206 7 647
207 7 763
208 7 842
209 7 375
210 7 931
211 7 408
212 7 506
214 7 381
215 7 269
216 7 884
218 7 1071
219 7 297
220 7 669
222 7 383
224 7 1365
225 7 490
226 7 919
227 7 266
228 7 756
229 7 447
230 7 683
231 7 174
232 7 3
233 7 925
234 7 756
235 7 1335
236 7 317
237 7 499
238 7 324
239 7 991
240 7 1337
241 7 93
242 7 404
243 7 460
244 7 564
245 7 247
246 7 14
247 7 656
248 7 878
249 7 489
251 7 417
252 7 196
253 7 1019
254 7 396
255 7 651
256 7 469
257 7 305
258 7 961
259 7 665
260 7 308
261 7 291
262 7 978
263 7 332
264 7 581
265 7 231
266 7 1450
267 7 875
268 7 1170
270 7 796
271 7 383
272 7 546
273 7 9
275 7 432
276 7 137
277 7 651
278 7 526
279 7 687
280 7 465
281 7 665
282 7 824
283 7 75
284 7 1203
285 7 1454
286 7 1409
287 7 673
288 7 1324
289 7 316
290 7 610
291 7 262
292 7 324
293 7 223
294 7 519
295 7 191
296 7 685
297 7 598
298 7 633
299 7 134
300 7 455
301 7 656
302 7 1291
303 7 236
304 7 138
305 7 494
306 7 428
307 7 154
308 7 726
309 7 670
310 7 197
311 7 298
312 7 511
313 7 833
314 7 112
315 7 720
316 7 361
317 7 919
318 7 911
319 7 533
320 7 934
321 7 63
322 7 1016
323 7 922
324 7 283
325 7 742
326 7 1209
327 7 636
328 7 1057
329 7 314
330 7 568
331 7 11
332 7 719
333 7 1031
334 7 249
335 7 419
336 7 441
337 7 1209
338 7 372
339 7 1853
340 7 405
341 7 526
342 7 270
343 7 1368
344 7 609
345 7 1661
346 7 1344
347 7 733
348 7 1336
350 7 1006
351 7 1039
352 7 979
354 7 338
355 7 1122
356 7 246
357 7 44
358 7 1257
359 7 996
360 7 880
361 7 655
362 7 364
363 7 375
364 7 412
365 7 598
366 7 626
367 7 95
368 7 242
370 7 893
371 7 165
372 7 628
373 7 1017
374 7 422
375 7 1694
376 7 954
377 7 140
378 7 415
379 7 713
380 7 501
381 7 581
382 7 690
383 7 696
384 7 258
385 7 230
386 7 482
387 7 850
388 7 437
389 7 398
390 7 577
391 7 1107
392 7 762
393 7 1112
394 7 88
395 7 455
396 7 387
397 7 298
398 7 1480
399 7 450
400 7 196
401 7 666
402 7 529
403 7 401
404 7 103
405 7 39
406 7 966
407 7 102
408 7 318
409 7 239
410 7 1028
411 7 902
412 7 401
413 7 802
414 7 873
415 7 1315
416 7 1000
417 7 175
418 7 1617
419 7 1055
420 7 231
421 7 442
422 7 63
423 7 458
424 7 395
425 7 773
426 7 1174
427 7 525
428 7 449
429 7 470
430 7 320
431 7 551
432 7 154
433 7 852
434 7 726
435 7 527
436 7 1031
437 7 195
438 7 318
439 7 506
441 7 940
444 7 520
446 7 421
447 7 299
448 7 904
449 7 538
450 7 688
451 7 1706
452 7 362
453 7 889
454 7 500
455 7 494
456 7 942
457 7 635
458 7 1467
459 7 590
460 7 663
461 7 729
462 7 392
463 7 1403
464 7 1224
465 7 352
466 7 234
467 7 495
468 7 629
469 7 344
470 7 454
471 7 772
472 7 675
473 7 384
474 7 1411
475 7 919
476 7 96
478 7 1265
479 7 950
480 7 1712
481 7 297
482 7 276
484 7 461
485 7 776
486 7 504
488 7 69
490 7 325
491 7 300
492 7 636
493 7 428
494 7 683
495 7 107
496 7 293
500 7 936
2 8 1395
3 8 1588
4 8 967
5 8 357
6 8 949
7 8 1500
8 8 484
9 8 668
10 8 23
11 8 411
12 8 209
13 8 1305
14 8 547
15 8 395
16 8 1760
17 8 402
18 8 223
19 8 2464
20 8 1335
21 8 1763
22 8 561
23 8 1144
24 8 1556
25 8 721
26 8 436
27 8 1087
29 8 644
31 8 1045
32 8 1059
33 8 944
34 8 698
36 8 954
37 8 1108
38 8 1
39 8 829
41 8 883
42 8 301
43 8 330
44 8 56
45 8 933
46 8 307
47 8 1240
48 8 1280
49 8 1171
50 8 541
51 8 16
52 8 386
53 8 1750
54 8 345
55 8 505
56 8 1512
57 8 1124
58 8 336
60 8 945
61 8 340
62 8 790
63 8 297
64 8 493
65 8 777
66 8 291
68 8 319
69 8 716
70 8 783
71 8 1
72 8 241
73 8 433
75 8 791
76 8 831
77 8 1550
78 8 826
79 8 1009
80 8 982
81 8 1141
82 8 6
83 8 1115
84 8 407
85 8 331
86 8 611
87 8 778
89 8 530
90 8 849
92 8 1115
93 8 871
94 8 515
95 8 496
96 8 854
97 8 970
99 8 1133
101 8 1084
102 8 1263
103 8 826
104 8 1204
105 8 1115
106 8 685
107 8 998
108 8 1018
109 8 292
110 8 199
111 8 1499
112 8 170
113 8 697
114 8 362
115 8 1292
116 8 1344
119 8 684
120 8 1360
121 8 788
122 8 856
123 8 1296
124 8 1020
125 8 1554
126 8 930
127 8 626
129 8 1694
130 8 646
131 8 812
132 8 308
133 8 593
134 8 306
135 8 40
136 8 140
137 8 248
138 8 67
139 8 1529
141 8 420
143 8 1463
144 8 210
146 8 412
147 8 411
148 8 164
149 8 2516
150 8 648
151 8 1065
152 8 510
153 8 176
154 8 995
155 8 153
157 8 854
158 8 710
159 8 968
160 8 737
161 8 2054
163 8 1713
164 8 303
165 8 329
166 8 913
167 8 744
168 8 1938
169 8 511
170 8 350
171 8 139
172 8 1324
173 8 341
174 8 445
175 8 1528
176 8 8
177 8 972
178 8 533
179 8 648
180 8 67
183 8 614
184 8 81
185 8 570
186 8 591
187 8 1928
188 8 137
189 8 1606
191 8 2053
192 8 785
195 8 583
196 8 1218
198 8 1300
199 8 1481
200 8 1605
201 8 4
202 8 1592
204 8 960
205 8 710
206 8 533
207 8 386
208 8 720
209 8 1487
210 8 1055
211 8 853
212 8 697
214 8 906
215 8 2
216 8 881
218 8 1120
219 8 794
220 8 827
222 8 300
224 8 1315
225 8 630
226 8 625
227 8 941
228 8 574
229 8 523
230 8 763
231 8 716
233 8 313
234 8 949
235 8 1630
236 8 242
237 8 724
238 8 1209
239 8 1104
240 8 1247
241 8 751
242 8 1715
243 8 1124
244 8 1021
245 8 2333
247 8 1385
248 8 703
249 8 1281
251 8 283
252 8 27
253 8 771
254 8 69
255 8 1004
256 8 1250
257 8 574
258 8 606
259 8 671
260 8 1509
261 8 490
262 8 1373
263 8 499
264 8 380
265 8 440
266 8 592
267 8 1912
268 8 1450
270 8 979
271 8 533
272 8 270
275 8 389
276 8 23
277 8 408
278 8 1841
279 8 694
280 8 780
281 8 982
282 8 1306
283 8 8
284 8 774
285 8 746
286 8 575
287 8 81
288 8 1576
289 8 266
290 8 807
291 8 507
292 8 362
293 8 199
294 8 484
295 8 533
296 8 510
297 8 282
298 8 888
299 8 676
300 8 744
301 8 825
302 8 1262
303 8 201
304 8 340
305 8 1285
306 8 872
307 8 1270
308 8 1083
309 8 738
310 8 956
311 8 578
312 8 1037
313 8 487
314 8 911
315 8 1334
316 8 892
317 8 1894
318 8 47
319 8 854
320 8 181
321 8 1052
322 8 392
323 8 412
324 8 1684
325 8 1156
326 8 1019
327 8 1407
328 8 845
329 8 744
330 8 418
331 8 3
332 8 1054
333 8 449
334 8 731
335 8 533
336 8 527
337 8 1189
338 8 569
339 8 967
340 8 1442
341 8 1170
342 8 695
343 8 580
344 8 1132
345 8 1820
346 8 2020
347 8 1659
348 8 1323
350 8 1265
351 8 852
352 8 442
354 8 452
355 8 236
356 8 827
358 8 1025
359 8 622
360 8 404
361 8 45
362 8 334
363 8 1501
364 8 1396
365 8 994
366 8 954
367 8 24
368 8 486
370 8 360
371 8 816
372 8 1290
373 8 1817
374 8 378
375 8 361
376 8 733
377 8 68
378 8 551
379 8 1166
380 8 1322
381 8 355
382 8 1136
383 8 1281
384 8 923
385 8 2276
386 8 1645
387 8 671
388 8 862
389 8 179
390 8 367
391 8 1484
392 8 343
393 8 225
394 8 19
395 8 918
396 8 928
397 8 401
398 8 597
399 8 1156
400 8 710
401 8 1297
402 8 69
403 8 459
404 8 1023
406 8 182
407 8 1220
408 8 1578
409 8 269
410 8 631
411 8 431
412 8 454
413 8 1295
414 8 409
415 8 673
416 8 747
417 8 95
418 8 559
419 8 684
420 8 103
421 8 815
422 8 5
423 8 521
424 8 268
425 8 939
426 8 254
427 8 592
428 8 306
429 8 113
430 8 560
431 8 358
432 8 476
433 8 1909
434 8 337
435 8 981
436 8 1326
437 8 194
438 8 501
439 8 934
441 8 624
444 8 473
446 8 432
447 8 1496
448 8 822
449 8 294
450 8 72
451 8 2034
452 8 163
453 8 763
454 8 438
455 8 431
456 8 69
457 8 493
458 8 616
459 8 998
460 8 1332
461 8 1489
462 8 305
463 8 690
464 8 989
465 8 955
466 8 1701
467 8 689
468 8 13
469 8 363
470 8 78
471 8 129
472 8 829
473 8 536
474 8 1900
475 8 626
476 8 435
478 8 506
479 8 174
480 8 2115
481 8 970
482 8 874
484 8 1838
485 8 1364
486 8 344
488 8 29
490 8 395
491 8 1318
492 8 515
493 8 1324
494 8 1289
495 8 184
496 8 103
500 8 557
2 9 1368
3 9 624
4 9 1413
5 9 223
6 9 371
7 9 313
8 9 110
9 9 188
11 9 1648
12 9 1034
13 9 452
14 9 120
15 9 365
16 9 832
17 9 237
18 9 20
19 9 1338
20 9 124
21 9 351
22 9 397
23 9 1364
24 9 1344
25 9 911
26 9 600
27 9 1439
29 9 92
31 9 535
32 9 549
33 9 782
34 9 226
36 9 320
37 9 560
39 9 603
41 9 869
42 9 1102
43 9 1340
45 9 699
46 9 333
47 9 533
48 9 500
49 9 1405
50 9 2180
52 9 1660
53 9 1677
54 9 256
55 9 150
56 9 2065
57 9 1252
58 9 493
60 9 625
61 9 374
62 9 622
63 9 2
64 9 581
65 9 579
66 9 915
68 9 352
69 9 715
70 9 552
72 9 479
73 9 358
75 9 206
76 9 489
77 9 770
78 9 365
79 9 1281
80 9 112
81 9 1163
83 9 795
84 9 949
85 9 108
86 9 1009
87 9 413
89 9 32
90 9 912
92 9 544
93 9 571
94 9 723
95 9 620
96 9 635
97 9 519
99 9 180
101 9 1131
102 9 546
103 9 333
104 9 970
105 9 405
106 9 1748
107 9 149
108 9 657
109 9 546
110 9 827
111 9 393
112 9 3
113 9 216
114 9 305
115 9 377
116 9 962
119 9 324
120 9 510
121 9 799
122 9 608
123 9 505
124 9 406
125 9 633
126 9 630
127 9 1186
129 9 924
130 9 765
131 9 527
132 9 9
133 9 786
134 9 32
137 9 788
139 9 413
141 9 780
143 9 749
144 9 1077
146 9 867
148 9 10
149 9 462
150 9 642
151 9 232
152 9 217
153 9 186
154 9 177
155 9 480
157 9 1169
158 9 557
159 9 570
160 9 968
161 9 833
163 9 1122
164 9 1081
165 9 1017
166 9 1833
167 9 768
168 9 1349
169 9 118
170 9 556
171 9 426
172 9 312
173 9 1368
174 9 616
175 9 384
177 9 452
178 9 208
179 9 345
180 9 123
183 9 1726
184 9 9
185 9 760
186 9 1114
187 9 1050
189 9 317
191 9 931
192 9 571
195 9 1104
196 9 621
198 9 155
199 9 172
200 9 679
202 9 290
204 9 1951
205 9 333
206 9 248
207 9 294
208 9 293
209 9 1027
210 9 305
211 9 585
212 9 894
214 9 680
216 9 857
218 9 664
219 9 236
220 9 272
222 9 9
224 9 239
225 9 170
226 9 209
227 9 426
228 9 218
229 9 267
230 9 1448
231 9 181
233 9 37
234 9 825
235 9 249
236 9 535
237 9 1375
238 9 628
239 9 177
240 9 1428
241 9 438
242 9 675
243 9 222
244 9 1175
245 9 1374
247 9 575
248 9 197
249 9 150
251 9 25
253 9 339
254 9 17
255 9 268
256 9 504
257 9 1183
258 9 188
259 9 295
260 9 638
261 9 467
262 9 780
263 9 170
264 9 171
265 9 328
266 9 1924
267 9 1007
268 9 1663
270 9 1282
271 9 571
272 9 713
275 9 46
277 9 901
278 9 493
279 9 690
280 9 717
281 9 1322
282 9 670
284 9 598
285 9 782
286 9 1986
287 9 3
288 9 236
289 9 63
290 9 195
291 9 480
292 9 275
293 9 952
294 9 390
295 9 335
296 9 162
297 9 733
298 9 1100
299 9 768
300 9 504
301 9 667
302 9 1436
303 9 16
304 9 403
305 9 413
306 9 431
307 9 263
308 9 944
309 9 718
310 9 836
311 9 1318
312 9 1479
313 9 561
314 9 825
315 9 1001
316 9 673
317 9 1061
318 9 7
319 9 491
320 9 704
321 9 559
322 9 221
323 9 816
324 9 856
325 9 1011
326 9 452
327 9 310
328 9 933
329 9 471
330 9 307
332 9 565
333 9 68
334 9 1799
335 9 726
336 9 603
337 9 390
338 9 678
339 9 508
340 9 1003
341 9 1131
342 9 893
343 9 1134
344 9 821
345 9 847
346 9 1572
347 9 353
348 9 264
350 9 590
351 9 950
352 9 595
354 9 278
355 9 686
356 9 392
358 9 332
359 9 230
360 9 471
361 9 11
362 9 1388
363 9 657
364 9 289
365 9 1331
366 9 115
368 9 342
370 9 1588
371 9 397
372 9 219
373 9 1192
374 9 46
375 9 501
376 9 796
377 9 111
378 9 174
379 9 176
380 9 200
381 9 899
382 9 169
383 9 508
384 9 665
385 9 1635
386 9 709
387 9 156
388 9 1221
389 9 1409
390 9 588
391 9 528
392 9 598
393 9 833
395 9 444
396 9 677
397 9 1660
398 9 659
399 9 748
400 9 1259
401 9 808
402 9 32
403 9 767
404 9 675
406 9 57
407 9 341
408 9 887
409 9 350
410 9 219
411 9 119
412 9 735
413 9 678
414 9 1084
415 9 82
416 9 331
417 9 57
418 9 987
419 9 209
421 9 1745
423 9 587
424 9 575
425 9 1321
426 9 362
427 9 10
428 9 32
429 9 660
430 9 394
431 9 92
432 9 157
433 9 111
434 9 1210
435 9 1454
436 9 732
437 9 4
438 9 194
439 9 374
441 9 362
444 9 560
446 9 604
447 9 905
448 9 581
449 9 13
450 9 3
451 9 656
453 9 132
454 9 76
455 9 1063
457 9 183
458 9 344
459 9 108
460 9 113
461 9 446
462 9 152
463 9 1078
464 9 429
465 9 1480
466 9 960
467 9 142
469 9 356
470 9 18
471 9 822
472 9 1053
473 9 616
474 9 1979
475 9 187
476 9 275
478 9 597
479 9 63
480 9 636
481 9 505
482 9 640
484 9 663
485 9 195
486 9 1071
490 9 244
491 9 146
492 9 104
493 9 314
494 9 217
495 9 471
500 9 880
2 10 1049
3 10 295
4 10 920
5 10 112
6 10 153
7 10 215
8 10 478
9 10 145
11 10 520
12 10 726
13 10 499
14 10 482
15 10 437
16 10 381
17 10 410
19 10 838
20 10 285
21 10 170
22 10 154
23 10 581
24 10 164
25 10 216
26 10 347
27 10 151
29 10 125
31 10 171
32 10 192
33 10 576
34 10 170
36 10 141
37 10 233
39 10 86
41 10 157
42 10 536
43 10 441
45 10 126
46 10 243
47 10 117
48 10 251
49 10 593
50 10 159
52 10 392
53 10 164
54 10 135
55 10 140
56 10 554
57 10 311
58 10 76
60 10 157
61 10 776
62 10 82
64 10 22
65 10 440
66 10 392
68 10 412
69 10 218
70 10 134
72 10 216
73 10 142
75 10 119
76 10 177
77 10 433
78 10 301
79 10 190
80 10 215
81 10 463
83 10 977
84 10 153
85 10 81
86 10 509
87 10 1073
90 10 329
92 10 202
93 10 421
94 10 836
95 10 304
96 10 481
97 10 105
99 10 381
101 10 432
102 10 685
103 10 235
104 10 648
105 10 165
106 10 852
107 10 485
108 10 200
109 10 142
110 10 1080
111 10 237
113 10 93
114 10 682
115 10 797
116 10 248
119 10 62
120 10 426
121 10 550
122 10 698
123 10 246
124 10 136
125 10 269
126 10 251
127 10 199
129 10 104
130 10 187
131 10 62
132 10 5
133 10 449
137 10 403
139 10 442
141 10 506
143 10 93
144 10 193
146 10 518
149 10 860
150 10 184
151 10 580
153 10 322
154 10 140
155 10 595
157 10 348
158 10 96
159 10 88
160 10 670
161 10 1180
163 10 485
164 10 521
165 10 406
166 10 675
167 10 315
168 10 286
169 10 434
170 10 365
171 10 56
172 10 231
173 10 218
174 10 257
175 10 223
177 10 144
178 10 141
179 10 395
180 10 115
183 10 1051
185 10 45
186 10 469
187 10 460
189 10 105
191 10 561
192 10 145
195 10 550
196 10 327
198 10 83
199 10 273
200 10 414
202 10 119
204 10 639
205 10 44
206 10 94
207 10 125
208 10 121
209 10 404
210 10 362
211 10 59
212 10 710
214 10 159
216 10 338
218 10 214
219 10 106
220 10 1074
224 10 595
225 10 136
226 10 203
227 10 171
228 10 164
229 10 345
230 10 67
231 10 119
234 10 644
235 10 287
236 10 189
237 10 194
238 10 272
239 10 402
240 10 590
241 10 101
242 10 832
243 10 23
244 10 122
245 10 558
247 10 654
248 10 72
249 10 88
253 10 119
255 10 52
256 10 279
257 10 191
258 10 193
259 10 195
260 10 534
261 10 625
262 10 53
263 10 9
264 10 358
265 10 318
266 10 158
267 10 668
268 10 562
270 10 104
271 10 23
272 10 267
277 10 482
278 10 94
279 10 53
280 10 238
281 10 318
282 10 463
284 10 57
285 10 583
286 10 169
288 10 268
289 10 3
290 10 90
291 10 641
292 10 139
293 10 772
295 10 33
296 10 364
297 10 245
298 10 310
299 10 194
300 10 34
301 10 315
302 10 568
304 10 550
305 10 467
306 10 165
307 10 85
308 10 361
309 10 60
310 10 366
311 10 1021
312 10 172
313 10 201
314 10 129
315 10 569
316 10 151
317 10 477
319 10 273
320 10 335
321 10 173
322 10 216
323 10 454
324 10 506
325 10 414
326 10 693
327 10 769
328 10 286
329 10 1148
330 10 13
332 10 869
333 10 27
334 10 756
335 10 400
336 10 330
337 10 156
338 10 461
339 10 204
340 10 445
341 10 67
342 10 178
343 10 564
344 10 1003
345 10 354
346 10 311
347 10 407
348 10 611
350 10 124
351 10 264
352 10 786
354 10 283
355 10 900
356 10 853
358 10 474
359 10 313
360 10 74
362 10 511
363 10 304
364 10 260
365 10 1047
366 10 30
368 10 329
370 10 209
371 10 180
372 10 634
373 10 157
375 10 9
376 10 118
377 10 124
378 10 133
379 10 250
380 10 656
381 10 397
382 10 244
383 10 257
384 10 140
385 10 1019
386 10 429
387 10 67
388 10 352
389 10 197
390 10 1395
391 10 375
392 10 160
393 10 1023
395 10 159
396 10 137
397 10 418
398 10 206
399 10 887
400 10 315
401 10 178
403 10 325
404 10 466
407 10 260
408 10 491
409 10 69
410 10 184
411 10 62
412 10 277
413 10 412
414 10 160
415 10 2
416 10 143
418 10 197
419 10 417
421 10 242
423 10 276
424 10 388
425 10 75
426 10 502
429 10 401
430 10 159
431 10 96
432 10 674
433 10 125
434 10 232
435 10 206
436 10 64
438 10 6
439 10 8
441 10 194
444 10 153
446 10 382
447 10 534
448 10 445
449 10 2
451 10 587
453 10 429
454 10 43
455 10 322
457 10 346
458 10 70
459 10 31
460 10 312
461 10 477
462 10 43
463 10 454
464 10 613
465 10 164
466 10 103
467 10 144
469 10 776
471 10 343
472 10 281
473 10 904
474 10 273
475 10 196
476 10 520
478 10 198
480 10 659
481 10 101
482 10 134
484 10 310
485 10 250
486 10 92
490 10 148
491 10 105
492 10 499
493 10 245
494 10 637
495 10 609
500 10 1456
2 11 677
3 11 35
4 11 510
5 11 165
6 11 41
7 11 93
8 11 79
9 11 74
11 11 122
12 11 451
13 11 12
14 11 90
15 11 339
16 11 384
17 11 134
19 11 179
20 11 273
21 11 305
22 11 184
23 11 209
24 11 124
25 11 72
26 11 182
27 11 102
29 11 320
31 11 33
32 11 29
33 11 430
34 11 58
36 11 80
37 11 155
39 11 312
41 11 178
42 11 90
43 11 188
45 11 4
46 11 74
47 11 94
48 11 83
49 11 226
50 11 124
52 11 94
53 11 26
54 11 47
55 11 128
56 11 126
57 11 350
58 11 820
60 11 329
61 11 71
62 11 401
65 11 56
66 11 635
68 11 260
69 11 427
70 11 172
72 11 40
73 11 116
75 11 51
76 11 83
77 11 42
78 11 138
79 11 95
80 11 90
81 11 112
83 11 295
84 11 246
86 11 89
87 11 399
90 11 160
92 11 22
93 11 48
94 11 190
95 11 143
96 11 56
97 11 256
99 11 134
101 11 97
102 11 120
103 11 482
104 11 255
105 11 123
106 11 307
107 11 44
108 11 217
109 11 178
110 11 376
111 11 181
113 11 6
114 11 107
115 11 212
116 11 62
119 11 492
120 11 427
121 11 172
122 11 91
123 11 27
124 11 41
125 11 31
126 11 173
127 11 46
129 11 103
130 11 410
131 11 61
133 11 434
137 11 215
139 11 76
141 11 97
143 11 111
144 11 545
146 11 7
149 11 926
150 11 42
151 11 106
153 11 637
154 11 140
155 11 77
157 11 57
158 11 472
159 11 278
160 11 142
161 11 254
163 11 366
164 11 100
165 11 439
166 11 35
167 11 17
168 11 379
169 11 85
170 11 107
171 11 100
172 11 185
173 11 483
174 11 550
175 11 155
177 11 28
178 11 185
179 11 554
180 11 318
183 11 370
185 11 1
186 11 353
187 11 409
191 11 190
192 11 157
195 11 272
196 11 84
198 11 123
199 11 171
200 11 872
202 11 417
204 11 28
205 11 7
206 11 209
207 11 57
208 11 148
209 11 164
210 11 123
211 11 57
212 11 69
214 11 133
216 11 157
218 11 321
219 11 353
220 11 101
224 11 134
225 11 211
226 11 816
227 11 36
228 11 52
229 11 61
230 11 85
231 11 57
234 11 325
235 11 38
236 11 41
237 11 179
238 11 69
239 11 131
240 11 158
241 11 473
242 11 39
244 11 173
245 11 221
247 11 144
249 11 5
253 11 264
256 11 41
257 11 38
258 11 786
259 11 272
260 11 168
261 11 162
262 11 3
264 11 393
266 11 294
267 11 181
268 11 194
270 11 5
272 11 7
277 11 93
278 11 107
279 11 3
280 11 92
281 11 267
282 11 287
284 11 438
285 11 130
286 11 299
288 11 35
290 11 51
291 11 182
292 11 42
293 11 446
296 11 72
297 11 8
298 11 180
299 11 431
301 11 67
302 11 155
304 11 148
305 11 14
306 11 101
307 11 166
308 11 242
309 11 4
310 11 266
311 11 151
312 11 100
313 11 178
314 11 70
315 11 486
316 11 122
317 11 391
319 11 659
320 11 339
321 11 30
322 11 149
323 11 8
324 11 313
325 11 238
326 11 140
327 11 62
328 11 111
329 11 29
332 11 374
334 11 261
335 11 598
336 11 144
337 11 209
338 11 124
339 11 272
340 11 208
341 11 118
342 11 74
343 11 329
344 11 314
345 11 118
346 11 458
347 11 170
348 11 142
350 11 79
351 11 141
352 11 240
354 11 282
355 11 153
356 11 144
358 11 160
359 11 368
360 11 16
362 11 193
363 11 31
364 11 149
365 11 65
370 11 345
371 11 82
372 11 187
373 11 315
376 11 535
377 11 332
378 11 131
379 11 273
380 11 654
381 11 556
382 11 278
383 11 97
384 11 3
385 11 265
386 11 874
388 11 78
389 11 468
390 11 85
391 11 253
392 11 246
393 11 414
395 11 100
396 11 114
397 11 100
398 11 11
399 11 1356
400 11 371
401 11 269
403 11 148
404 11 171
407 11 132
408 11 335
409 11 94
410 11 225
411 11 348
412 11 155
413 11 298
414 11 110
416 11 233
418 11 198
419 11 174
421 11 206
423 11 126
424 11 226
425 11 5
426 11 330
429 11 61
430 11 203
432 11 167
433 11 250
434 11 96
435 11 88
436 11 4
441 11 16
444 11 189
446 11 171
447 11 307
448 11 48
451 11 338
453 11 55
455 11 409
457 11 103
458 11 140
460 11 240
461 11 45
463 11 220
464 11 155
465 11 579
466 11 90
467 11 179
469 11 83
471 11 413
472 11 163
473 11 259
474 11 208
475 11 789
476 11 172
478 11 120
480 11 353
481 11 168
482 11 4
484 11 145
485 11 336
486 11 143
490 11 35
491 11 105
492 11 84
493 11 160
494 11 205
495 11 65
500 11 421
1 12 699
2 12 13
3 12 12
5 12 16
6 12 3
8 12 54
10 12 338
11 12 9
12 12 4
13 12 37
14 12 41
15 12 23
16 12 20
18 12 132
20 12 131
21 12 23
23 12 20
24 12 8
25 12 9
26 12 93
27 12 262
28 12 668
29 12 19
30 12 284
31 12 310
32 12 14
33 12 18
35 12 43
36 12 26
38 12 900
39 12 15
40 12 637
41 12 16
42 12 7
44 12 592
45 12 381
46 12 6
47 12 8
48 12 521
49 12 30
50 12 4
51 12 674
52 12 5
53 12 9
54 12 337
55 12 3
56 12 3
57 12 17
58 12 3
59 12 377
60 12 40
61 12 10
62 12 11
63 12 220
64 12 851
65 12 70
66 12 5
67 12 607
70 12 28
71 12 99
72 12 40
74 12 351
75 12 19
76 12 9
77 12 7
79 12 2
80 12 24
81 12 14
82 12 395
83 12 2
84 12 4
85 12 524
86 12 15
87 12 4
88 12 190
89 12 507
90 12 5
91 12 162
92 12 15
93 12 60
94 12 11
95 12 72
96 12 84
98 12 545
99 12 2
100 12 377
101 12 20
102 12 37
103 12 5
104 12 4
106 12 60
107 12 1003
109 12 22
110 12 3
111 12 17
112 12 623
113 12 362
114 12 10
115 12 56
117 12 413
118 12 549
119 12 5
121 12 42
122 12 16
123 12 391
125 12 8
126 12 7
127 12 476
128 12 590
129 12 115
131 12 295
132 12 672
133 12 9
134 12 856
135 12 82
136 12 933
137 12 15
138 12 255
139 12 51
140 12 378
141 12 19
142 12 602
144 12 12
145 12 441
146 12 358
147 12 941
148 12 683
150 12 11
151 12 116
152 12 490
154 12 4
155 12 6
156 12 645
157 12 111
160 12 20
161 12 7
162 12 278
163 12 7
164 12 5
165 12 5
167 12 595
168 12 12
169 12 52
170 12 1
171 12 18
172 12 40
173 12 9
174 12 4
175 12 21
176 12 198
177 12 10
178 12 13
179 12 6
180 12 1
181 12 477
182 12 675
183 12 4
184 12 239
185 12 368
186 12 7
187 12 15
188 12 906
189 12 289
190 12 204
192 12 41
193 12 391
194 12 715
196 12 47
197 12 229
198 12 242
199 12 11
200 12 6
201 12 423
202 12 31
203 12 382
205 12 425
206 12 4
210 12 15
211 12 285
212 12 37
213 12 149
214 12 26
215 12 620
216 12 7
217 12 320
219 12 1
221 12 179
222 12 327
223 12 403
224 12 13
225 12 5
226 12 7
227 12 3
228 12 454
229 12 13
230 12 9
231 12 29
232 12 700
233 12 270
235 12 91
236 12 36
238 12 39
239 12 1
240 12 252
241 12 9
242 12 234
243 12 410
244 12 7
246 12 737
247 12 1
248 12 662
249 12 329
250 12 150
251 12 348
252 12 427
254 12 300
255 12 463
256 12 346
257 12 473
258 12 4
259 12 15
260 12 18
261 12 9
262 12 221
263 12 362
264 12 41
265 12 260
266 12 6
267 12 16
269 12 178
270 12 1172
271 12 903
272 12 291
273 12 126
274 12 571
275 12 789
276 12 389
277 12 28
278 12 7
279 12 406
280 12 12
281 12 10
282 12 22
283 12 610
284 12 9
285 12 25
286 12 3
287 12 980
288 12 86
289 12 87
290 12 14
291 12 10
292 12 405
293 12 4
294 12 374
295 12 206
296 12 23
297 12 320
298 12 8
300 12 189
301 12 6
302 12 244
303 12 740
305 12 39
306 12 65
308 12 5
309 12 370
310 12 8
311 12 40
312 12 240
313 12 4
314 12 21
315 12 4
316 12 26
317 12 8
318 12 1001
319 12 13
320 12 10
321 12 348
322 12 197
323 12 364
324 12 13
325 12 5
326 12 9
328 12 7
330 12 240
331 12 382
332 12 6
333 12 669
334 12 56
335 12 11
336 12 68
337 12 4
338 12 17
339 12 10
341 12 4
342 12 8
344 12 8
345 12 24
346 12 4
348 12 9
349 12 384
350 12 15
351 12 5
352 12 5
353 12 657
356 12 10
357 12 262
359 12 11
360 12 517
361 12 552
363 12 10
364 12 3
365 12 8
366 12 985
367 12 689
368 12 239
369 12 671
370 12 7
371 12 2
372 12 3
373 12 11
374 12 804
375 12 265
376 12 18
377 12 2
378 12 3
380 12 7
383 12 526
384 12 385
386 12 7
387 12 612
388 12 113
390 12 420
392 12 8
393 12 7
394 12 343
395 12 60
396 12 22
397 12 11
398 12 40
399 12 4
400 12 24
401 12 27
402 12 165
403 12 9
404 12 15
405 12 548
406 12 501
407 12 6
408 12 8
409 12 7
410 12 21
411 12 3
412 12 8
413 12 18
414 12 7
415 12 682
417 12 617
418 12 17
420 12 950
421 12 11
422 12 575
423 12 76
424 12 31
425 12 1191
427 12 226
428 12 939
429 12 157
431 12 466
432 12 5
433 12 4
434 12 11
435 12 18
436 12 216
437 12 568
438 12 319
439 12 895
440 12 272
441 12 744
442 12 462
443 12 43
444 12 11
445 12 457
446 12 81
447 12 17
448 12 56
449 12 695
450 12 1021
452 12 188
453 12 12
454 12 254
455 12 5
456 12 313
457 12 16
458 12 27
459 12 1069
460 12 162
461 12 608
462 12 1081
463 12 3
464 12 6
465 12 28
466 12 122
467 12 4
468 12 289
469 12 12
470 12 308
471 12 57
472 12 2
474 12 8
475 12 7
476 12 13
477 12 258
478 12 11
479 12 538
481 12 39
482 12 377
483 12 128
484 12 4
485 12 16
486 12 17
487 12 230
488 12 239
489 12 414
490 12 395
491 12 262
492 12 40
493 12 5
494 12 5
495 12 9
496 12 446
497 12 602
498 12 650
499 12 720
500 12 60
1 13 2
2 13 1095
3 13 214
4 13 782
5 13 319
6 13 164
7 13 551
9 13 176
11 13 640
12 13 398
13 13 511
15 13 1192
16 13 1097
17 13 1169
19 13 1439
20 13 22
21 13 196
22 13 1109
23 13 864
24 13 1577
25 13 1026
26 13 40
27 13 3
28 13 1
29 13 311
32 13 497
33 13 1052
34 13 185
35 13 1
37 13 151
39 13 384
41 13 602
42 13 61
43 13 430
46 13 1728
47 13 725
49 13 870
50 13 999
51 13 14
52 13 1108
53 13 4
55 13 792
56 13 669
57 13 509
58 13 1400
62 13 296
65 13 5
66 13 888
68 13 1349
69 13 503
70 13 260
73 13 1441
75 13 127
76 13 87
77 13 1119
78 13 628
79 13 1270
80 13 1714
81 13 505
83 13 625
84 13 241
85 13 3
86 13 143
87 13 267
90 13 1740
92 13 537
93 13 3
94 13 179
95 13 83
97 13 252
99 13 720
101 13 519
102 13 870
103 13 78
104 13 950
105 13 457
106 13 749
108 13 811
109 13 3
110 13 1454
111 13 438
113 13 4
114 13 1493
115 13 253
116 13 525
119 13 1650
120 13 762
121 13 1629
122 13 217
123 13 5
124 13 169
125 13 223
126 13 949
127 13 4
129 13 6
130 13 504
133 13 1700
135 13 8
137 13 1270
138 13 4
139 13 2
141 13 1158
143 13 476
144 13 639
145 13 3
148 13 5
149 13 398
150 13 526
152 13 8
153 13 1422
154 13 819
155 13 629
156 13 3
157 13 14
158 13 72
159 13 258
160 13 763
161 13 1105
163 13 405
164 13 70
165 13 217
166 13 143
167 13 10
168 13 417
170 13 286
171 13 995
172 13 564
173 13 278
174 13 1962
175 13 552
177 13 200
178 13 802
179 13 931
180 13 330
183 13 2352
184 13 4
186 13 557
187 13 699
189 13 5
190 13 5
191 13 744
192 13 233
194 13 11
195 13 661
196 13 721
197 13 7
199 13 137
200 13 1562
201 13 9
202 13 27
203 13 13
204 13 143
205 13 3
206 13 906
207 13 1683
208 13 146
209 13 978
212 13 420
214 13 28
216 13 1777
218 13 578
219 13 355
220 13 943
222 13 3
224 13 51
225 13 572
226 13 116
227 13 175
228 13 12
229 13 1524
230 13 752
231 13 26
232 13 1
234 13 345
235 13 5
237 13 559
238 13 641
239 13 724
241 13 125
243 13 2
244 13 1124
245 13 904
246 13 3
247 13 195
249 13 14
250 13 1
251 13 2
252 13 2
253 13 1977
254 13 2
255 13 1
256 13 3
257 13 3
258 13 102
259 13 1102
260 13 150
261 13 339
262 13 4
263 13 5
264 13 373
265 13 12
266 13 293
267 13 78
268 13 773
275 13 15
277 13 1260
278 13 1320
280 13 290
281 13 753
282 13 8
284 13 313
285 13 1575
286 13 318
287 13 6
288 13 3
289 13 4
290 13 127
291 13 329
293 13 376
294 13 3
295 13 1
296 13 91
298 13 989
299 13 481
300 13 12
301 13 66
304 13 1159
305 13 559
307 13 604
308 13 347
310 13 1119
311 13 12
312 13 4
313 13 624
314 13 34
315 13 878
316 13 29
317 13 729
318 13 5
319 13 529
320 13 635
322 13 3
324 13 77
325 13 367
326 13 1337
327 13 411
328 13 43
329 13 124
331 13 4
332 13 304
334 13 709
335 13 524
336 13 88
337 13 105
338 13 1163
339 13 3103
340 13 912
341 13 1204
342 13 1015
343 13 690
344 13 582
345 13 13
346 13 346
347 13 1426
348 13 50
350 13 750
351 13 33
352 13 867
354 13 1524
355 13 424
356 13 1105
357 13 4
358 13 1302
359 13 1264
360 13 1
362 13 438
363 13 230
364 13 871
365 13 1288
366 13 4
368 13 11
369 13 3
370 13 1545
371 13 853
372 13 144
373 13 217
374 13 8
375 13 3
376 13 879
377 13 359
378 13 755
379 13 287
380 13 1097
381 13 578
382 13 269
385 13 1355
386 13 1585
388 13 9
389 13 1180
391 13 1974
392 13 111
393 13 1457
396 13 31
397 13 1112
399 13 344
400 13 229
401 13 507
403 13 765
404 13 164
407 13 678
408 13 67
409 13 1112
410 13 834
411 13 1833
412 13 779
413 13 4
414 13 93
415 13 13
416 13 1990
417 13 2
418 13 603
419 13 1201
421 13 474
423 13 104
424 13 341
426 13 348
430 13 1094
431 13 7
432 13 3
433 13 539
434 13 690
435 13 968
436 13 6
438 13 4
439 13 6
440 13 6
442 13 4
443 13 3
444 13 542
445 13 3
446 13 42
447 13 62
448 13 7
450 13 8
451 13 756
453 13 391
454 13 3
455 13 28
457 13 86
458 13 1288
459 13 6
460 13 19
461 13 9
463 13 658
464 13 1401
465 13 378
466 13 1
467 13 557
470 13 4
471 13 979
472 13 1032
473 13 25
474 13 1038
475 13 124
476 13 179
478 13 2127
480 13 676
481 13 4
484 13 1338
485 13 105
486 13 56
488 13 10
489 13 9
493 13 912
494 13 144
495 13 680
500 13 3
1 14 799
2 14 14
3 14 21
4 14 28
5 14 11
6 14 24
7 14 21
8 14 1349
9 14 15
10 14 1278
11 14 11
12 14 18
13 14 9
14 14 1295
15 14 22
16 14 4
18 14 1157
19 14 10
20 14 781
21 14 87
22 14 4
23 14 17
25 14 10
26 14 2702
27 14 1094
28 14 786
29 14 108
30 14 890
31 14 1369
32 14 35
33 14 10
34 14 21
35 14 1127
36 14 1930
37 14 13
38 14 1024
40 14 1006
41 14 10
42 14 49
43 14 46
44 14 1518
45 14 2326
46 14 10
48 14 2840
49 14 22
50 14 7
51 14 738
52 14 5
53 14 1546
54 14 714
55 14 1
57 14 13
59 14 1405
60 14 1822
61 14 1234
63 14 1306
64 14 1160
65 14 1697
66 14 35
67 14 1058
68 14 15
69 14 11
70 14 5
71 14 931
72 14 1684
73 14 2
74 14 1719
76 14 280
77 14 7
78 14 19
79 14 9
80 14 20
81 14 155
82 14 1674
83 14 6
84 14 8
85 14 540
86 14 49
87 14 11
88 14 1471
89 14 1864
90 14 2
91 14 1096
92 14 26
93 14 1657
94 14 8
95 14 1161
96 14 1771
97 14 6
98 14 777
99 14 4
100 14 769
101 14 165
103 14 841
104 14 26
105 14 52
107 14 2417
108 14 10
109 14 1375
110 14 23
111 14 11
112 14 1389
113 14 1997
115 14 6
116 14 19
117 14 1031
118 14 927
120 14 4
121 14 20
122 14 5
123 14 2362
124 14 30
125 14 16
126 14 3
127 14 1288
128 14 805
129 14 3141
130 14 11
131 14 1077
132 14 1137
133 14 7
134 14 2020
135 14 1260
136 14 886
138 14 1679
139 14 1810
140 14 1001
141 14 19
142 14 1054
144 14 30
145 14 648
146 14 351
147 14 1138
148 14 1403
149 14 9
150 14 17
151 14 2237
152 14 1459
154 14 26
155 14 78
156 14 1218
157 14 2768
158 14 1333
159 14 2
160 14 2
161 14 3
162 14 1122
163 14 6
164 14 38
165 14 50
167 14 2225
168 14 59
169 14 1342
171 14 3
173 14 12
175 14 12
176 14 1546
177 14 32
178 14 13
179 14 36
180 14 168
181 14 684
182 14 467
183 14 34
184 14 1190
185 14 1360
187 14 9
188 14 875
189 14 981
190 14 1498
191 14 28
192 14 2
193 14 1019
194 14 1724
195 14 55
196 14 99
197 14 1287
198 14 1902
200 14 41
201 14 921
202 14 1241
203 14 1261
205 14 2240
206 14 3
207 14 6
208 14 475
209 14 15
210 14 1812
211 14 1110
212 14 4
213 14 1089
214 14 785
215 14 674
216 14 6
217 14 1063
218 14 20
219 14 22
220 14 2
221 14 1067
222 14 1464
223 14 991
224 14 2249
226 14 13
227 14 40
228 14 1881
229 14 37
231 14 1878
232 14 1125
233 14 1373
234 14 5
235 14 1601
236 14 1641
238 14 100
239 14 6
240 14 2828
241 14 555
242 14 2489
243 14 1325
244 14 9
245 14 6
246 14 1224
247 14 48
248 14 1256
249 14 1251
250 14 1046
251 14 1372
252 14 1716
253 14 30
254 14 1502
255 14 1373
256 14 2332
257 14 1282
258 14 16
260 14 985
261 14 57
262 14 1558
263 14 1292
265 14 985
267 14 10
269 14 1377
270 14 1876
271 14 1172
272 14 902
273 14 1321
274 14 815
275 14 1149
276 14 1383
277 14 11
279 14 1625
280 14 70
281 14 19
282 14 2355
283 14 1309
285 14 6
287 14 1088
288 14 1673
289 14 713
291 14 44
292 14 738
293 14 19
294 14 1904
295 14 1756
296 14 12
297 14 960
298 14 75
299 14 14
300 14 852
301 14 298
302 14 2659
303 14 627
304 14 15
305 14 2
306 14 2669
309 14 1596
310 14 4
311 14 2808
312 14 1155
313 14 4
314 14 375
315 14 5
316 14 722
317 14 13
318 14 1750
319 14 3
320 14 10
321 14 1247
322 14 2607
323 14 369
324 14 1560
326 14 6
327 14 23
328 14 1349
329 14 835
330 14 2351
331 14 908
332 14 17
333 14 1476
336 14 1177
337 14 609
338 14 40
339 14 25
340 14 17
341 14 18
342 14 5
343 14 57
344 14 4
345 14 1560
346 14 5
348 14 2165
349 14 1431
351 14 1384
352 14 3
353 14 532
354 14 8
357 14 1004
359 14 6
360 14 2207
361 14 757
362 14 47
363 14 24
364 14 5
365 14 7
366 14 2363
367 14 1568
368 14 981
369 14 1166
370 14 10
371 14 24
372 14 24
373 14 8
374 14 1117
375 14 795
376 14 3
377 14 151
378 14 1
379 14 15
380 14 7
381 14 24
382 14 10
383 14 2841
384 14 2380
385 14 8
386 14 23
387 14 1289
388 14 2731
389 14 11
390 14 2090
393 14 29
394 14 1433
395 14 2607
396 14 786
397 14 2
398 14 1409
399 14 49
400 14 34
401 14 5
402 14 383
403 14 19
404 14 6
405 14 981
406 14 1577
407 14 3
408 14 1622
409 14 13
410 14 2
412 14 26
413 14 2399
415 14 1385
416 14 22
417 14 2193
418 14 13
419 14 10
420 14 887
421 14 14
422 14 1196
423 14 1235
424 14 36
425 14 1852
426 14 17
427 14 1544
428 14 2107
429 14 1322
431 14 554
432 14 2137
433 14 688
435 14 8
436 14 1473
437 14 1769
438 14 1240
439 14 1067
440 14 469
441 14 2252
442 14 1109
443 14 1127
444 14 15
445 14 692
446 14 2667
447 14 1567
448 14 1613
449 14 1169
450 14 1103
451 14 4
452 14 851
453 14 53
454 14 1501
455 14 1284
456 14 2268
457 14 13
458 14 3
459 14 2479
460 14 759
461 14 1585
462 14 1201
464 14 6
465 14 16
466 14 3075
468 14 1303
469 14 1211
470 14 1525
471 14 19
472 14 81
473 14 714
475 14 13
476 14 31
477 14 1288
478 14 14
479 14 1627
480 14 9
481 14 1057
482 14 2301
483 14 867
484 14 7
485 14 4
486 14 1064
487 14 659
488 14 925
489 14 863
490 14 773
491 14 1829
492 14 1335
493 14 7
494 14 33
495 14 98
496 14 1159
497 14 985
498 14 794
499 14 1694
500 14 1310
2 15 1612
3 15 1198
4 15 691
5 15 1386
6 15 5
7 15 39
9 15 23
10 15 2
11 15 560
12 15 543
13 15 110
15 15 1804
16 15 985
17 15 936
18 15 4
19 15 564
20 15 22
21 15 318
22 15 989
23 15 1072
24 15 1359
25 15 2150
27 15 5
29 15 8
32 15 4
33 15 34
34 15 24
35 15 2
37 15 82
39 15 598
40 15 4
41 15 1040
42 15 747
43 15 335
44 15 4
46 15 2114
47 15 1378
48 15 5
49 15 1104
50 15 1601
52 15 929
55 15 6
56 15 981
57 15 1127
58 15 358
59 15 1
60 15 4
62 15 2188
66 15 885
67 15 6
68 15 2253
69 15 1161
70 15 636
71 15 3
73 15 1530
74 15 6
75 15 366
77 15 1658
78 15 573
79 15 144
80 15 674
81 15 3
83 15 845
84 15 938
86 15 687
87 15 1360
88 15 2
90 15 1415
92 15 3
93 15 1
94 15 65
97 15 171
98 15 7
99 15 816
101 15 7
102 15 1120
104 15 2237
105 15 1454
106 15 1083
107 15 4
108 15 1077
110 15 1289
111 15 856
114 15 1449
115 15 819
116 15 100
118 15 3
119 15 209
120 15 1082
121 15 13
122 15 66
123 15 4
124 15 4
125 15 1145
126 15 790
128 15 7
129 15 7
130 15 1145
131 15 3
132 15 2
133 15 895
137 15 1278
138 15 6
139 15 10
141 15 1426
142 15 7
143 15 1162
144 15 2103
145 15 3
146 15 4
149 15 1067
150 15 1163
151 15 3
152 15 7
153 15 323
154 15 1591
155 15 5
159 15 191
160 15 11
161 15 632
163 15 1366
164 15 716
165 15 1315
166 15 1863
170 15 423
171 15 71
172 15 412
173 15 1161
174 15 1815
175 15 827
176 15 5
177 15 1
178 15 923
179 15 5
181 15 2
183 15 125
186 15 757
187 15 1139
189 15 10
190 15 2
191 15 2243
192 15 655
194 15 5
195 15 1945
196 15 4
197 15 6
198 15 3
199 15 505
200 15 548
202 15 4
204 15 1862
205 15 7
206 15 1779
207 15 759
209 15 34
210 15 4
211 15 2
212 15 274
216 15 1362
217 15 3
218 15 121
219 15 673
220 15 446
225 15 720
226 15 816
227 15 5
229 15 431
230 15 797
233 15 9
234 15 896
237 15 756
238 15 6
239 15 813
244 15 1113
245 15 907
248 15 3
252 15 7
253 15 1151
255 15 5
256 15 2
258 15 825
259 15 1723
260 15 4
263 15 4
264 15 894
266 15 1923
267 15 2507
268 15 973
269 15 2
270 15 2
272 15 5
274 15 8
276 15 4
277 15 1500
278 15 491
279 15 2
280 15 11
281 15 905
282 15 2
283 15 6
284 15 2234
285 15 11
286 15 1960
290 15 371
291 15 4
293 15 540
294 15 24
296 15 897
297 15 2
299 15 1203
300 15 5
304 15 661
305 15 95
307 15 680
308 15 102
309 15 2
310 15 828
312 15 3
313 15 1667
314 15 4
315 15 315
317 15 1102
319 15 487
320 15 145
323 15 8
325 15 114
326 15 247
327 15 76
328 15 5
330 15 5
332 15 466
334 15 1018
335 15 746
337 15 3
338 15 581
339 15 365
340 15 35
341 15 1246
342 15 2098
343 15 1979
344 15 798
345 15 16
346 15 2911
347 15 1421
349 15 3
350 15 1394
351 15 9
352 15 157
354 15 355
355 15 649
356 15 557
358 15 922
359 15 265
361 15 4
362 15 328
363 15 1175
364 15 183
365 15 346
367 15 2
370 15 473
371 15 347
372 15 8
373 15 578
376 15 113
378 15 3
379 15 826
380 15 667
381 15 437
382 15 842
383 15 4
385 15 1057
386 15 570
387 15 6
389 15 1809
391 15 1380
392 15 481
393 15 1370
394 15 3
397 15 952
399 15 584
400 15 259
401 15 1970
403 15 634
404 15 1983
405 15 2
406 15 1
407 15 866
409 15 165
410 15 115
411 15 613
412 15 682
413 15 4
414 15 1124
416 15 1149
418 15 1073
419 15 251
421 15 512
424 15 1825
425 15 5
426 15 909
430 15 1000
431 15 1
432 15 4
434 15 731
435 15 1976
436 15 5
437 15 13
438 15 4
439 15 10
443 15 1
444 15 1344
445 15 2
448 15 4
449 15 2
451 15 634
452 15 6
453 15 65
455 15 12
456 15 11
457 15 874
458 15 733
460 15 14
463 15 1044
464 15 251
465 15 770
466 15 4
467 15 736
471 15 65
474 15 836
475 15 844
476 15 8
477 15 9
478 15 778
479 15 3
480 15 660
481 15 6
484 15 494
485 15 97
489 15 3
491 15 7
493 15 159
494 15 8
495 15 3
497 15 4
499 15 4
500 15 6
2 16 1038
3 16 348
4 16 241
5 16 507
7 16 9
11 16 42
12 16 28
13 16 20
15 16 633
16 16 1438
17 16 255
19 16 846
21 16 334
22 16 407
23 16 140
24 16 1853
25 16 906
37 16 12
39 16 1001
41 16 1445
42 16 1036
43 16 43
46 16 267
47 16 245
49 16 152
50 16 698
52 16 1104
55 16 4
56 16 1194
57 16 842
58 16 152
62 16 622
66 16 967
68 16 257
69 16 134
70 16 1058
73 16 118
75 16 172
77 16 1280
78 16 1253
79 16 288
80 16 97
83 16 161
84 16 454
86 16 390
87 16 183
90 16 780
94 16 7
95 16 5
97 16 91
99 16 15
102 16 1021
104 16 337
105 16 185
106 16 464
108 16 641
110 16 271
111 16 919
114 16 439
115 16 574
116 16 388
119 16 117
120 16 96
121 16 3
125 16 359
126 16 592
130 16 152
133 16 128
137 16 1012
141 16 1244
143 16 814
144 16 658
149 16 471
150 16 2536
153 16 831
154 16 591
155 16 5
159 16 103
160 16 9
161 16 1883
163 16 559
164 16 1086
165 16 814
166 16 374
170 16 1416
171 16 10
172 16 627
173 16 510
174 16 995
175 16 889
178 16 1385
180 16 6
183 16 11
186 16 1397
187 16 303
191 16 1457
192 16 1067
195 16 122
196 16 5
199 16 1367
200 16 357
204 16 392
206 16 153
207 16 231
209 16 4
212 16 2
216 16 796
219 16 3
220 16 506
225 16 145
226 16 821
229 16 945
230 16 228
234 16 412
237 16 1354
238 16 2
239 16 18
241 16 2
244 16 435
245 16 1325
253 16 397
258 16 784
259 16 342
261 16 4
264 16 335
266 16 885
267 16 1516
268 16 129
277 16 1289
278 16 454
281 16 1274
284 16 596
285 16 2
286 16 866
290 16 164
291 16 3
293 16 21
294 16 5
296 16 203
299 16 147
304 16 27
305 16 15
307 16 384
310 16 374
313 16 276
315 16 1026
317 16 305
319 16 59
320 16 210
326 16 111
332 16 613
334 16 429
335 16 551
336 16 13
338 16 254
339 16 1231
340 16 6
341 16 203
342 16 923
343 16 125
344 16 171
346 16 456
347 16 344
350 16 252
352 16 510
354 16 147
355 16 227
356 16 624
358 16 66
359 16 5
362 16 51
363 16 345
364 16 837
365 16 866
370 16 230
371 16 711
373 16 288
376 16 102
377 16 3
378 16 2
379 16 716
380 16 516
381 16 1351
382 16 708
385 16 529
386 16 354
389 16 741
391 16 729
392 16 60
393 16 262
397 16 1093
399 16 18
400 16 364
401 16 910
403 16 289
404 16 1002
407 16 79
409 16 255
410 16 79
411 16 260
412 16 288
414 16 239
416 16 454
418 16 476
419 16 416
421 16 209
423 16 7
424 16 645
426 16 426
430 16 425
434 16 389
435 16 291
444 16 305
451 16 311
453 16 8
456 16 2
457 16 217
458 16 533
463 16 759
464 16 94
465 16 354
467 16 159
471 16 6
474 16 385
475 16 812
478 16 501
480 16 339
484 16 453
493 16 852
495 16 5
2 17 1181
3 17 599
4 17 77
5 17 333
15 17 85
16 17 290
17 17 87
19 17 201
21 17 131
22 17 130
23 17 9
24 17 127
25 17 135
39 17 90
41 17 913
42 17 32
43 17 28
46 17 315
47 17 592
49 17 8
50 17 156
52 17 234
56 17 326
57 17 65
58 17 61
62 17 326
66 17 22
68 17 358
69 17 45
70 17 150
73 17 541
75 17 51
77 17 467
78 17 180
79 17 109
80 17 2
83 17 32
84 17 493
86 17 236
87 17 108
90 17 17
97 17 3
102 17 536
104 17 143
105 17 650
106 17 172
108 17 223
110 17 78
111 17 110
114 17 34
115 17 144
119 17 32
125 17 631
126 17 135
130 17 47
133 17 128
137 17 174
141 17 213
143 17 586
144 17 225
148 17 2
149 17 169
150 17 557
153 17 112
154 17 111
159 17 6
161 17 69
163 17 249
164 17 16
165 17 234
166 17 117
170 17 141
172 17 177
173 17 147
174 17 332
175 17 124
178 17 389
186 17 320
187 17 73
191 17 384
192 17 121
195 17 485
199 17 970
200 17 597
204 17 115
206 17 61
207 17 155
216 17 21
220 17 405
225 17 153
226 17 154
229 17 521
230 17 15
234 17 148
237 17 474
244 17 88
245 17 361
253 17 315
258 17 141
259 17 287
264 17 428
266 17 75
267 17 175
268 17 195
277 17 211
278 17 24
281 17 56
284 17 341
286 17 72
290 17 70
296 17 180
299 17 41
307 17 48
310 17 134
313 17 489
315 17 186
317 17 92
319 17 4
320 17 453
332 17 109
334 17 164
335 17 400
338 17 171
339 17 439
341 17 1249
342 17 120
343 17 468
344 17 42
346 17 270
347 17 423
350 17 645
352 17 11
354 17 485
355 17 43
356 17 124
358 17 135
362 17 26
363 17 628
364 17 806
365 17 99
370 17 74
371 17 242
373 17 172
379 17 150
380 17 135
381 17 417
382 17 145
385 17 156
386 17 594
389 17 396
391 17 1062
393 17 99
397 17 254
399 17 5
400 17 143
401 17 166
403 17 749
404 17 174
407 17 30
411 17 233
412 17 764
414 17 155
416 17 278
418 17 79
419 17 43
421 17 126
424 17 122
426 17 128
430 17 142
434 17 172
435 17 168
444 17 629
451 17 4
457 17 208
458 17 244
463 17 43
465 17 172
467 17 177
474 17 144
475 17 145
478 17 203
480 17 4
484 17 148
493 17 756
2 18 74
3 18 147
4 18 165
5 18 14
13 18 3
15 18 38
16 18 33
17 18 29
19 18 95
21 18 77
22 18 34
23 18 6
24 18 75
39 18 65
41 18 86
42 18 56
43 18 5
46 18 55
47 18 46
49 18 10
50 18 109
52 18 103
56 18 49
57 18 167
58 18 16
62 18 92
66 18 62
68 18 64
69 18 95
70 18 18
73 18 42
75 18 119
77 18 176
78 18 104
79 18 43
83 18 90
84 18 76
86 18 54
87 18 87
90 18 69
97 18 6
102 18 53
104 18 307
105 18 29
106 18 104
108 18 51
110 18 73
114 18 39
115 18 124
119 18 11
125 18 162
126 18 32
130 18 79
133 18 141
137 18 111
141 18 27
143 18 80
144 18 49
149 18 60
150 18 104
153 18 5
154 18 67
159 18 9
161 18 159
163 18 7
164 18 38
165 18 109
166 18 116
170 18 22
172 18 52
173 18 19
174 18 50
178 18 32
186 18 21
187 18 47
191 18 48
192 18 26
195 18 68
199 18 120
200 18 72
204 18 112
206 18 22
207 18 53
216 18 62
220 18 404
225 18 97
226 18 78
229 18 95
230 18 38
234 18 31
237 18 68
244 18 31
245 18 117
248 18 4
253 18 146
258 18 61
259 18 120
264 18 38
266 18 207
267 18 43
268 18 137
277 18 19
278 18 5
281 18 117
284 18 83
286 18 189
290 18 111
296 18 32
299 18 69
304 18 2
305 18 4
307 18 42
310 18 146
313 18 26
315 18 32
317 18 40
320 18 62
332 18 53
334 18 108
335 18 10
338 18 196
339 18 51
341 18 14
343 18 65
344 18 73
346 18 42
347 18 27
350 18 39
352 18 11
354 18 150
355 18 44
356 18 41
358 18 26
362 18 6
363 18 165
364 18 71
365 18 40
370 18 73
371 18 43
373 18 227
376 18 4
379 18 43
380 18 49
381 18 20
382 18 46
385 18 190
386 18 67
387 18 5
389 18 33
391 18 33
392 18 3
393 18 93
397 18 117
400 18 73
401 18 147
403 18 50
404 18 59
407 18 30
411 18 75
412 18 53
414 18 63
416 18 142
418 18 97
419 18 52
421 18 47
424 18 49
426 18 28
430 18 31
434 18 19
435 18 90
444 18 40
451 18 9
457 18 37
458 18 141
463 18 62
465 18 66
467 18 94
474 18 49
475 18 59
478 18 21
480 18 8
484 18 86
493 18 74
2 19 1187
3 19 81
4 19 35
5 19 2078
15 19 153
16 19 2399
17 19 1097
19 19 1687
21 19 195
22 19 53
24 19 627
25 19 1631
39 19 437
41 19 185
42 19 202
46 19 352
47 19 249
50 19 71
52 19 233
56 19 1687
57 19 125
58 19 5
62 19 684
66 19 8
68 19 603
70 19 281
73 19 527
75 19 3
77 19 241
78 19 222
79 19 32
83 19 3
84 19 283
86 19 1041
87 19 247
102 19 641
104 19 218
105 19 1037
106 19 70
108 19 1347
111 19 919
114 19 234
115 19 265
125 19 83
126 19 635
133 19 94
137 19 468
141 19 297
143 19 297
144 19 250
149 19 1169
150 19 1496
153 19 1096
154 19 110
161 19 117
163 19 1838
164 19 234
165 19 976
166 19 52
170 19 410
172 19 746
173 19 1617
174 19 295
175 19 910
178 19 385
186 19 185
191 19 780
192 19 289
195 19 804
199 19 1419
200 19 1344
204 19 70
207 19 286
220 19 9
225 19 200
226 19 132
229 19 1311
234 19 162
237 19 477
244 19 46
245 19 1577
253 19 887
258 19 121
259 19 95
264 19 751
266 19 22
267 19 1015
268 19 105
277 19 311
281 19 16
284 19 716
286 19 16
290 19 3
296 19 696
310 19 61
313 19 198
315 19 2815
320 19 1562
332 19 69
334 19 114
335 19 430
338 19 286
339 19 685
341 19 1708
342 19 1643
343 19 843
344 19 8
346 19 389
347 19 962
350 19 267
354 19 173
355 19 773
356 19 976
358 19 555
363 19 96
364 19 70
365 19 32
370 19 11
371 19 832
373 19 365
379 19 376
380 19 416
381 19 158
382 19 384
385 19 540
386 19 1357
389 19 1115
391 19 900
397 19 269
400 19 349
401 19 452
403 19 476
404 19 1569
411 19 634
412 19 452
414 19 2362
416 19 885
418 19 4
419 19 344
421 19 31
424 19 1111
426 19 892
430 19 74
434 19 1302
435 19 660
444 19 1452
457 19 644
458 19 106
463 19 2
465 19 1329
467 19 214
474 19 532
475 19 128
478 19 613
484 19 2537
493 19 51
2 20 1595
5 20 458
15 20 101
16 20 847
17 20 2018
19 20 1214
21 20 40
24 20 60
25 20 287
39 20 95
41 20 497
46 20 1293
47 20 64
50 20 8
52 20 666
56 20 833
57 20 10
62 20 512
68 20 338
70 20 65
73 20 1298
77 20 4
78 20 34
84 20 137
86 20 721
87 20 221
102 20 796
104 20 81
105 20 125
106 20 39
108 20 539
111 20 1189
114 20 533
115 20 2097
126 20 1033
133 20 4
137 20 657
141 20 107
143 20 953
144 20 126
149 20 2134
150 20 1345
153 20 1503
154 20 477
163 20 1282
165 20 125
170 20 43
172 20 181
173 20 480
174 20 273
175 20 1177
178 20 590
186 20 416
191 20 2378
192 20 59
195 20 1660
199 20 227
200 20 551
207 20 399
225 20 12
226 20 107
229 20 1150
234 20 103
237 20 535
245 20 910
253 20 144
258 20 108
259 20 2
264 20 71
267 20 924
277 20 105
284 20 485
296 20 1198
310 20 33
313 20 474
315 20 2245
320 20 377
334 20 32
335 20 1369
338 20 715
339 20 1059
341 20 3029
342 20 267
343 20 1645
346 20 455
347 20 1336
350 20 50
354 20 10
355 20 1100
356 20 923
358 20 702
371 20 749
373 20 32
379 20 709
380 20 358
381 20 152
382 20 712
385 20 23
386 20 535
389 20 2026
391 20 1618
397 20 664
400 20 74
403 20 148
404 20 1302
412 20 141
414 20 1149
416 20 156
419 20 25
424 20 470
426 20 768
434 20 1621
435 20 2101
444 20 2203
457 20 1223
458 20 150
465 20 917
467 20 9
474 20 774
475 20 103
478 20 519
484 20 1469
1 21 112
2 21 9
3 21 9
4 21 16
5 21 75
6 21 57
7 21 4
8 21 525
9 21 13
10 21 272
11 21 2
13 21 26
14 21 535
15 21 8
18 21 895
19 21 9
20 21 684
21 21 100
22 21 21
24 21 5
25 21 11
26 21 167
27 21 1110
28 21 104
29 21 24
30 21 248
31 21 596
32 21 11
33 21 17
34 21 12
35 21 352
36 21 578
37 21 12
38 21 1132
39 21 19
40 21 617
41 21 5
42 21 93
44 21 674
45 21 528
47 21 40
48 21 1606
50 21 7
51 21 1090
52 21 23
53 21 166
54 21 603
55 21 30
59 21 120
60 21 227
61 21 309
62 21 16
63 21 842
64 21 527
65 21 888
66 21 7
67 21 505
68 21 24
70 21 14
71 21 609
72 21 706
74 21 595
75 21 28
76 21 4
77 21 4
78 21 26
79 21 11
80 21 15
81 21 5
82 21 664
83 21 7
84 21 74
85 21 940
86 21 12
87 21 12
88 21 346
89 21 457
90 21 14
91 21 586
92 21 8
93 21 2051
94 21 28
95 21 136
96 21 891
97 21 44
98 21 741
100 21 761
101 21 4
102 21 26
103 21 187
104 21 10
105 21 5
106 21 18
107 21 341
109 21 39
110 21 23
111 21 18
112 21 600
113 21 643
115 21 6
116 21 7
117 21 476
118 21 1382
120 21 18
121 21 37
122 21 2
123 21 1101
124 21 41
125 21 14
127 21 565
128 21 739
129 21 1312
131 21 794
132 21 412
133 21 4
134 21 1041
135 21 279
136 21 776
137 21 7
138 21 1439
139 21 859
140 21 467
141 21 1
142 21 530
143 21 8
145 21 452
146 21 671
147 21 942
148 21 732
149 21 34
150 21 3
151 21 422
152 21 804
154 21 48
155 21 38
156 21 376
157 21 1785
158 21 122
159 21 35
160 21 88
161 21 9
162 21 821
164 21 95
165 21 49
166 21 28
167 21 1100
168 21 14
169 21 523
172 21 24
174 21 14
175 21 20
176 21 786
177 21 54
179 21 25
180 21 16
181 21 442
182 21 611
183 21 11
184 21 575
185 21 133
186 21 5
187 21 11
188 21 801
189 21 770
190 21 1041
192 21 12
193 21 455
194 21 549
195 21 4
196 21 17
197 21 414
198 21 1021
199 21 9
200 21 28
201 21 486
202 21 615
203 21 334
204 21 32
205 21 853
206 21 5
208 21 116
209 21 6
210 21 173
211 21 882
213 21 373
214 21 173
215 21 339
216 21 13
217 21 912
219 21 22
220 21 8
221 21 587
222 21 180
223 21 497
224 21 67
225 21 9
226 21 124
227 21 62
228 21 1061
229 21 10
230 21 2
231 21 801
232 21 281
233 21 502
234 21 3
235 21 884
236 21 780
237 21 14
238 21 20
240 21 454
241 21 9
242 21 482
243 21 893
244 21 17
245 21 4
246 21 246
247 21 37
248 21 583
249 21 531
250 21 373
251 21 182
252 21 655
253 21 22
254 21 546
255 21 1103
256 21 1129
257 21 514
258 21 117
259 21 7
260 21 42
261 21 31
262 21 315
263 21 212
265 21 604
266 21 73
267 21 33
268 21 4
269 21 312
270 21 809
271 21 530
272 21 750
273 21 419
274 21 753
275 21 280
276 21 286
277 21 6
278 21 11
279 21 397
280 21 40
282 21 144
283 21 394
284 21 15
285 21 34
286 21 79
287 21 1533
288 21 889
289 21 600
290 21 32
291 21 40
292 21 568
294 21 622
295 21 642
296 21 51
297 21 694
298 21 15
300 21 378
301 21 31
302 21 452
303 21 1531
304 21 15
305 21 26
306 21 274
309 21 348
311 21 589
312 21 1084
314 21 179
315 21 30
316 21 159
317 21 17
318 21 359
319 21 18
320 21 13
321 21 648
322 21 588
323 21 659
324 21 54
326 21 5
327 21 9
328 21 179
329 21 532
330 21 433
331 21 537
332 21 52
333 21 486
334 21 11
335 21 11
336 21 140
337 21 191
338 21 5
340 21 3
341 21 5
342 21 9
343 21 2
344 21 9
345 21 184
346 21 35
348 21 51
349 21 128
350 21 32
351 21 202
352 21 12
353 21 626
354 21 6
356 21 5
357 21 820
359 21 5
360 21 573
361 21 446
363 21 10
364 21 7
365 21 3
366 21 1180
367 21 915
368 21 642
369 21 378
370 21 5
371 21 52
372 21 47
373 21 3
374 21 300
375 21 574
377 21 19
378 21 36
379 21 60
382 21 43
383 21 1611
384 21 496
385 21 10
386 21 18
387 21 585
388 21 1791
389 21 20
390 21 1456
391 21 8
392 21 8
393 21 23
394 21 286
395 21 232
396 21 154
397 21 24
398 21 624
400 21 73
401 21 2
402 21 1152
403 21 5
404 21 44
405 21 98
406 21 881
407 21 8
408 21 54
409 21 10
411 21 3
412 21 9
413 21 177
414 21 61
415 21 817
416 21 30
417 21 359
419 21 3
420 21 805
421 21 25
422 21 516
423 21 137
424 21 23
425 21 804
426 21 6
427 21 215
428 21 1102
429 21 602
430 21 18
431 21 923
432 21 124
433 21 49
434 21 21
436 21 325
437 21 267
438 21 232
439 21 880
440 21 218
441 21 264
442 21 365
443 21 389
444 21 6
445 21 447
446 21 147
447 21 45
448 21 2082
449 21 432
450 21 1608
451 21 11
452 21 333
453 21 7
454 21 346
455 21 108
456 21 913
457 21 59
458 21 9
459 21 1278
460 21 690
461 21 855
462 21 791
464 21 2
465 21 9
466 21 1303
467 21 8
468 21 511
469 21 320
470 21 538
471 21 4
472 21 26
473 21 62
474 21 24
475 21 137
476 21 46
477 21 564
479 21 913
480 21 10
481 21 800
482 21 484
483 21 300
485 21 30
486 21 916
487 21 515
488 21 617
489 21 238
490 21 562
491 21 1099
492 21 534
493 21 2
494 21 47
495 21 25
496 21 427
497 21 532
498 21 113
499 21 170
500 21 322
1 22 425
2 22 1033
3 22 921
4 22 376
5 22 393
6 22 825
7 22 478
8 22 1764
9 22 1240
10 22 866
11 22 1585
12 22 1426
13 22 782
14 22 1760
15 22 1403
16 22 588
17 22 1362
18 22 597
19 22 1087
20 22 659
21 22 761
22 22 1028
23 22 1192
24 22 1209
25 22 274
26 22 1470
27 22 1364
28 22 415
29 22 403
30 22 683
31 22 728
32 22 251
33 22 673
34 22 1267
35 22 615
36 22 746
37 22 1211
38 22 662
39 22 1325
40 22 680
41 22 415
42 22 205
43 22 1299
44 22 1384
45 22 1766
46 22 509
47 22 1799
48 22 1583
49 22 1221
50 22 1985
51 22 621
52 22 845
53 22 1149
54 22 1184
55 22 510
56 22 1458
57 22 1212
58 22 1302
59 22 478
60 22 1419
61 22 1375
62 22 1126
63 22 842
64 22 1128
65 22 727
66 22 634
67 22 517
68 22 1267
69 22 617
70 22 645
71 22 395
72 22 1317
73 22 400
74 22 293
75 22 1043
76 22 1099
77 22 581
78 22 1031
79 22 812
80 22 840
81 22 1575
82 22 1482
83 22 570
84 22 1915
85 22 976
86 22 1552
87 22 1470
88 22 443
89 22 1085
90 22 771
91 22 792
92 22 221
93 22 1475
94 22 824
95 22 621
96 22 667
97 22 892
98 22 788
99 22 272
100 22 364
101 22 1540
102 22 1613
103 22 220
104 22 1094
105 22 367
106 22 894
107 22 668
108 22 1454
109 22 1089
110 22 934
111 22 435
112 22 789
113 22 688
114 22 719
115 22 1210
116 22 1025
117 22 625
118 22 514
119 22 1353
120 22 857
121 22 1077
122 22 2481
123 22 1249
124 22 786
125 22 969
126 22 726
127 22 617
128 22 791
129 22 1684
130 22 584
131 22 321
132 22 441
133 22 620
134 22 855
135 22 711
136 22 831
137 22 768
138 22 761
139 22 1595
140 22 638
141 22 1244
142 22 499
143 22 1314
144 22 1310
145 22 662
146 22 1328
147 22 431
148 22 922
149 22 2410
150 22 1050
151 22 796
152 22 710
153 22 681
154 22 953
155 22 943
156 22 550
157 22 1677
158 22 644
159 22 983
160 22 1079
161 22 1419
162 22 517
163 22 1495
164 22 209
165 22 859
166 22 1532
167 22 994
168 22 413
169 22 1740
170 22 1710
171 22 665
172 22 1231
173 22 1795
174 22 1250
175 22 456
176 22 726
177 22 796
178 22 725
179 22 725
180 22 1458
181 22 691
182 22 401
183 22 1688
184 22 1506
185 22 1291
186 22 1520
187 22 1384
188 22 873
189 22 1217
190 22 1116
191 22 1128
192 22 657
193 22 631
194 22 1096
195 22 428
196 22 606
197 22 643
198 22 1903
199 22 1487
200 22 774
201 22 1127
202 22 631
203 22 138
204 22 1534
205 22 655
206 22 588
207 22 1204
208 22 288
209 22 1542
210 22 241
211 22 255
212 22 1065
213 22 670
214 22 885
215 22 929
216 22 810
217 22 459
218 22 362
219 22 1015
220 22 1143
221 22 788
222 22 491
223 22 616
224 22 692
225 22 1473
226 22 1136
227 22 862
228 22 631
229 22 1796
230 22 952
231 22 935
232 22 1841
233 22 884
234 22 662
235 22 724
236 22 1350
237 22 772
238 22 623
239 22 258
240 22 742
241 22 718
242 22 666
243 22 642
244 22 722
245 22 2130
246 22 537
247 22 659
248 22 819
249 22 975
250 22 613
251 22 436
252 22 1078
253 22 2040
254 22 557
255 22 732
256 22 1210
257 22 587
258 22 1152
259 22 831
260 22 667
261 22 1431
262 22 647
263 22 521
264 22 832
265 22 503
266 22 1206
267 22 1530
268 22 1518
269 22 430
270 22 1799
271 22 1237
272 22 282
273 22 629
274 22 777
275 22 665
276 22 831
277 22 1210
278 22 908
279 22 953
280 22 329
281 22 964
282 22 350
283 22 892
284 22 1161
285 22 1021
286 22 1238
287 22 553
288 22 753
289 22 907
290 22 1021
291 22 1410
292 22 1235
293 22 1377
294 22 1612
295 22 932
296 22 774
297 22 255
298 22 947
299 22 545
300 22 671
301 22 987
302 22 762
303 22 1240
304 22 1133
305 22 846
306 22 1522
307 22 1503
308 22 622
309 22 985
310 22 1117
311 22 469
312 22 1313
313 22 1143
314 22 1579
315 22 1957
316 22 893
317 22 1318
318 22 693
319 22 804
320 22 939
321 22 720
322 22 664
323 22 1329
324 22 1007
325 22 627
326 22 544
327 22 345
328 22 855
329 22 2574
330 22 1251
331 22 1210
332 22 1291
333 22 942
334 22 902
335 22 1308
336 22 558
337 22 1046
338 22 1471
339 22 590
340 22 1488
341 22 1480
342 22 228
343 22 389
344 22 498
345 22 1627
346 22 846
347 22 1046
348 22 760
349 22 490
350 22 1827
351 22 881
352 22 354
353 22 457
354 22 2810
355 22 262
356 22 934
357 22 963
358 22 2193
359 22 730
360 22 1600
361 22 195
362 22 1302
363 22 972
364 22 1540
365 22 1463
366 22 1266
367 22 347
368 22 512
369 22 591
370 22 1196
371 22 1351
372 22 512
373 22 2232
374 22 715
375 22 318
376 22 1139
377 22 1425
378 22 512
379 22 426
380 22 2085
381 22 871
382 22 479
383 22 1573
384 22 1786
385 22 2010
386 22 750
387 22 828
388 22 1597
389 22 993
390 22 882
391 22 473
392 22 398
393 22 969
394 22 886
395 22 1457
396 22 870
397 22 857
398 22 1116
399 22 593
400 22 1036
401 22 1255
402 22 934
403 22 1389
404 22 1838
405 22 1070
406 22 492
407 22 842
408 22 933
409 22 1011
410 22 1024
411 22 1409
412 22 1437
413 22 318
414 22 1127
415 22 963
416 22 1990
417 22 766
418 22 494
419 22 453
420 22 906
421 22 991
422 22 173
423 22 648
424 22 1651
425 22 1865
426 22 663
427 22 512
428 22 893
429 22 284
430 22 1102
431 22 976
432 22 1162
433 22 1208
434 22 1406
435 22 1619
436 22 706
437 22 543
438 22 552
439 22 652
440 22 555
441 22 1126
442 22 1073
443 22 617
444 22 1866
445 22 658
446 22 1450
447 22 988
448 22 1490
449 22 459
450 22 597
451 22 848
452 22 338
453 22 821
454 22 546
455 22 1359
456 22 490
457 22 774
458 22 931
459 22 1264
460 22 679
461 22 418
462 22 1388
463 22 156
464 22 571
465 22 1123
466 22 1769
467 22 1376
468 22 667
469 22 1428
470 22 621
471 22 485
472 22 976
473 22 1035
474 22 1377
475 22 1168
476 22 453
477 22 259
478 22 1591
479 22 549
480 22 856
481 22 863
482 22 1834
483 22 238
484 22 2132
485 22 1112
486 22 523
487 22 345
488 22 1408
489 22 611
490 22 1233
491 22 1794
492 22 1754
493 22 1532
494 22 543
495 22 920
496 22 1128
497 22 535
498 22 393
499 22 611
500 22 1015
1 23 816
6 23 6
8 23 875
10 23 1432
14 23 891
18 23 1416
20 23 1084
26 23 21
27 23 1856
28 23 835
29 23 3
30 23 636
31 23 900
35 23 658
36 23 1792
38 23 1044
40 23 559
42 23 29
43 23 4
44 23 1914
45 23 1167
48 23 660
51 23 1426
53 23 11
54 23 1843
59 23 614
60 23 532
61 23 524
63 23 1185
64 23 907
65 23 1324
67 23 467
70 23 16
71 23 1317
72 23 683
74 23 1043
76 23 5
78 23 7
82 23 1043
84 23 7
85 23 944
88 23 856
89 23 1601
91 23 1031
93 23 932
95 23 90
96 23 1316
97 23 5
98 23 989
100 23 427
103 23 43
106 23 7
107 23 1304
109 23 59
111 23 3
112 23 1497
113 23 963
115 23 10
117 23 1081
118 23 799
120 23 5
123 23 1410
124 23 6
127 23 1176
128 23 1050
129 23 988
131 23 1323
132 23 1155
134 23 1399
135 23 1204
136 23 986
138 23 1047
139 23 1165
140 23 1055
142 23 483
145 23 548
146 23 1040
147 23 1504
148 23 529
149 23 8
151 23 1158
152 23 653
154 23 4
155 23 2
156 23 937
157 23 1177
158 23 215
159 23 4
162 23 1040
164 23 29
165 23 16
166 23 9
167 23 985
169 23 823
175 23 5
176 23 796
177 23 1
181 23 487
182 23 1473
184 23 665
185 23 1867
188 23 1022
189 23 1100
190 23 1384
192 23 4
193 23 1073
194 23 566
196 23 10
197 23 867
198 23 2018
199 23 14
201 23 886
202 23 899
203 23 855
204 23 15
205 23 1737
210 23 1401
211 23 1330
213 23 359
214 23 227
215 23 696
217 23 931
221 23 1030
222 23 1077
223 23 1096
224 23 165
227 23 6
228 23 1597
231 23 1418
232 23 810
233 23 1450
234 23 4
235 23 406
236 23 678
238 23 1
240 23 1096
241 23 1
242 23 1591
243 23 1509
246 23 717
247 23 8
248 23 925
249 23 1286
250 23 512
251 23 1014
252 23 1004
254 23 750
255 23 2108
256 23 1349
257 23 1063
260 23 7
262 23 1537
263 23 1551
265 23 1646
267 23 8
269 23 859
270 23 1510
271 23 968
272 23 1156
273 23 846
274 23 1111
275 23 1484
276 23 1394
279 23 1014
280 23 3
282 23 755
283 23 1064
287 23 1262
288 23 405
289 23 1606
292 23 1807
294 23 1028
295 23 973
297 23 1105
300 23 1501
302 23 1160
303 23 1139
306 23 1920
309 23 1058
311 23 1015
312 23 1930
314 23 92
316 23 235
318 23 1484
321 23 871
322 23 993
323 23 1014
324 23 22
328 23 24
329 23 67
330 23 731
331 23 863
333 23 1525
334 23 6
336 23 69
337 23 2
345 23 300
346 23 29
348 23 167
349 23 624
351 23 23
353 23 1457
357 23 751
360 23 1141
361 23 717
362 23 4
364 23 5
366 23 2413
367 23 908
368 23 1588
369 23 836
373 23 5
374 23 1531
375 23 755
383 23 677
384 23 1174
387 23 834
388 23 1118
390 23 2236
394 23 1437
395 23 1916
396 23 250
398 23 1908
400 23 3
402 23 1187
405 23 688
406 23 2189
408 23 25
410 23 2
413 23 770
415 23 1068
417 23 1514
420 23 977
422 23 1178
423 23 72
424 23 11
425 23 1691
426 23 15
427 23 887
428 23 1457
429 23 2192
431 23 972
432 23 846
433 23 3
436 23 1567
437 23 989
438 23 1587
439 23 2099
440 23 585
441 23 908
442 23 1222
443 23 738
445 23 497
446 23 20
447 23 22
448 23 952
449 23 1160
450 23 1327
452 23 1227
454 23 1167
455 23 87
456 23 1397
459 23 2481
460 23 1029
461 23 1020
462 23 1663
466 23 1002
468 23 1501
469 23 486
470 23 724
473 23 162
476 23 4
477 23 1028
479 23 2345
481 23 1164
482 23 1114
483 23 544
486 23 447
487 23 960
488 23 1245
489 23 637
490 23 1815
491 23 1939
492 23 893
493 23 6
495 23 6
496 23 1315
497 23 461
498 23 827
499 23 1016
500 23 1296
1 24 829
2 24 921
3 24 932
4 24 755
5 24 753
6 24 464
7 24 1265
8 24 144
9 24 670
10 24 414
11 24 947
12 24 282
13 24 883
14 24 139
15 24 967
16 24 764
17 24 381
18 24 318
19 24 2474
20 24 1231
21 24 459
22 24 3367
23 24 507
24 24 333
25 24 538
26 24 1135
27 24 1543
28 24 711
29 24 513
30 24 462
31 24 1724
32 24 381
33 24 1279
34 24 668
35 24 421
36 24 263
37 24 474
38 24 731
39 24 1253
40 24 409
41 24 1607
42 24 1033
43 24 413
44 24 728
45 24 920
46 24 583
47 24 1489
48 24 1001
49 24 518
50 24 151
51 24 585
52 24 1626
53 24 1764
54 24 986
55 24 1236
56 24 664
57 24 318
58 24 350
59 24 391
60 24 1814
61 24 1462
62 24 1529
63 24 646
64 24 560
65 24 613
66 24 1938
67 24 892
68 24 996
69 24 1029
70 24 661
71 24 728
72 24 1261
73 24 1265
74 24 845
75 24 621
76 24 603
77 24 1643
78 24 634
79 24 913
80 24 542
81 24 1776
82 24 1360
83 24 1114
84 24 1882
85 24 1109
86 24 1043
87 24 859
88 24 1090
89 24 508
90 24 550
91 24 284
92 24 410
93 24 470
94 24 1104
95 24 923
96 24 649
97 24 1116
98 24 262
99 24 476
100 24 473
101 24 1796
102 24 760
103 24 1574
104 24 2170
105 24 1741
106 24 250
107 24 282
108 24 506
109 24 338
110 24 683
111 24 937
112 24 626
113 24 1041
114 24 1245
115 24 864
116 24 446
117 24 684
118 24 830
119 24 585
120 24 754
121 24 1514
122 24 1097
123 24 1324
124 24 487
125 24 932
126 24 751
127 24 1419
128 24 255
129 24 1377
130 24 1035
131 24 755
132 24 253
133 24 537
134 24 1442
135 24 905
136 24 946
137 24 966
138 24 877
139 24 1054
140 24 728
141 24 632
142 24 907
143 24 508
144 24 1852
145 24 443
146 24 777
147 24 833
148 24 886
149 24 2713
150 24 1040
151 24 452
152 24 782
153 24 515
154 24 566
155 24 800
156 24 595
157 24 998
158 24 796
159 24 1170
160 24 722
161 24 1751
162 24 807
163 24 283
164 24 1121
165 24 206
166 24 882
167 24 1058
168 24 288
169 24 135
170 24 197
171 24 715
172 24 920
173 24 203
174 24 448
175 24 933
176 24 809
177 24 484
178 24 821
179 24 1664
180 24 683
181 24 403
182 24 160
183 24 505
184 24 1017
185 24 1016
186 24 1104
187 24 1719
188 24 949
189 24 1230
190 24 868
191 24 878
192 24 640
193 24 736
194 24 1068
195 24 229
196 24 784
197 24 713
198 24 428
199 24 1870
200 24 476
201 24 243
202 24 1171
203 24 838
204 24 862
205 24 897
206 24 196
207 24 722
208 24 1134
209 24 543
210 24 206
211 24 680
212 24 541
213 24 728
214 24 2010
215 24 477
216 24 509
217 24 907
218 24 481
219 24 1332
220 24 1580
221 24 292
222 24 443
223 24 704
224 24 1508
225 24 1249
226 24 514
227 24 477
228 24 902
229 24 1482
230 24 488
231 24 644
232 24 426
233 24 937
234 24 1320
235 24 1442
236 24 1334
237 24 1531
238 24 768
239 24 469
240 24 639
241 24 652
242 24 681
243 24 1047
244 24 837
245 24 826
246 24 276
247 24 1288
248 24 513
249 24 187
250 24 196
251 24 496
252 24 1210
253 24 1619
254 24 535
255 24 267
256 24 1317
257 24 1472
258 24 530
259 24 990
260 24 1769
261 24 464
262 24 1045
263 24 685
264 24 1815
265 24 854
266 24 1677
267 24 1280
268 24 725
269 24 1015
270 24 1740
271 24 589
272 24 830
273 24 718
274 24 227
275 24 1116
276 24 434
277 24 639
278 24 1217
279 24 1053
280 24 688
281 24 986
282 24 1130
283 24 1097
284 24 1497
285 24 1496
286 24 1716
287 24 680
288 24 1450
289 24 534
290 24 687
291 24 492
292 24 982
293 24 235
294 24 837
295 24 1078
296 24 647
297 24 781
298 24 908
299 24 1009
300 24 692
301 24 1757
302 24 681
303 24 605
304 24 968
305 24 902
306 24 1163
307 24 488
308 24 1511
309 24 1001
310 24 1007
311 24 1628
312 24 1552
313 24 1224
314 24 1111
315 24 1910
316 24 2073
317 24 1683
318 24 473
319 24 1125
320 24 1569
321 24 1733
322 24 1218
323 24 758
324 24 103
325 24 1563
326 24 671
327 24 279
328 24 840
329 24 879
330 24 1562
331 24 266
332 24 408
333 24 633
334 24 291
335 24 448
336 24 916
337 24 670
338 24 1641
339 24 309
340 24 502
341 24 1057
342 24 501
343 24 240
344 24 1014
345 24 494
346 24 1852
347 24 2600
348 24 1553
349 24 370
350 24 1537
351 24 837
352 24 891
353 24 166
354 24 412
355 24 1521
356 24 1500
357 24 695
358 24 2303
359 24 1083
360 24 1159
361 24 517
362 24 388
363 24 879
364 24 1332
365 24 721
366 24 511
367 24 686
368 24 837
369 24 569
370 24 1090
371 24 1242
372 24 1749
373 24 978
374 24 1090
375 24 651
376 24 1566
377 24 705
378 24 1175
379 24 753
380 24 970
381 24 1759
382 24 705
383 24 985
384 24 932
385 24 1058
386 24 472
387 24 501
388 24 963
389 24 1003
390 24 671
391 24 233
392 24 461
393 24 727
394 24 411
395 24 1107
396 24 2110
397 24 1593
398 24 607
399 24 751
400 24 1251
401 24 408
402 24 320
403 24 1822
404 24 1413
405 24 707
406 24 413
407 24 590
408 24 112
409 24 214
410 24 1430
411 24 1068
412 24 1747
413 24 1072
414 24 924
415 24 693
416 24 1700
417 24 673
418 24 916
419 24 1719
420 24 941
421 24 590
422 24 735
423 24 895
424 24 2129
425 24 1750
426 24 967
427 24 1047
428 24 1369
429 24 1393
430 24 3453
431 24 1196
432 24 1051
433 24 1514
434 24 583
435 24 1151
436 24 1034
437 24 999
438 24 670
439 24 787
440 24 371
441 24 944
442 24 643
443 24 486
444 24 1711
445 24 411
446 24 1240
447 24 116
448 24 490
449 24 274
450 24 615
451 24 1934
452 24 1385
453 24 1288
454 24 387
455 24 1489
456 24 255
457 24 630
458 24 1827
459 24 526
460 24 1166
461 24 983
462 24 975
463 24 1553
464 24 619
465 24 441
466 24 1406
467 24 1186
468 24 591
469 24 1487
470 24 573
471 24 888
472 24 868
473 24 1413
474 24 269
475 24 501
476 24 775
477 24 178
478 24 1631
479 24 374
480 24 1981
481 24 684
482 24 941
483 24 1104
484 24 1015
485 24 753
486 24 548
487 24 633
488 24 788
489 24 927
490 24 977
491 24 427
492 24 162
493 24 1303
494 24 1773
495 24 794
496 24 1358
497 24 876
498 24 799
499 24 1106
500 24 693
2 25 2938
3 25 1004
4 25 1686
5 25 173
6 25 1522
7 25 2627
9 25 653
11 25 2512
12 25 2887
13 25 1626
15 25 1254
16 25 2672
17 25 2249
19 25 3362
21 25 79
22 25 2896
23 25 1602
24 25 4538
25 25 3099
26 25 9
29 25 859
32 25 1363
33 25 1688
34 25 636
37 25 172
39 25 1399
41 25 2871
42 25 85
43 25 1502
46 25 2773
47 25 1637
49 25 1605
50 25 2897
52 25 2330
53 25 24
55 25 1556
56 25 1582
57 25 3536
58 25 1643
61 25 6
62 25 504
66 25 2451
67 25 2
68 25 2098
69 25 3816
70 25 114
73 25 3449
75 25 2540
76 25 128
77 25 1811
78 25 154
79 25 1328
80 25 1314
81 25 157
83 25 2104
84 25 164
86 25 945
87 25 167
90 25 2425
92 25 1299
94 25 1219
95 25 38
97 25 340
99 25 2936
101 25 143
102 25 1584
103 25 7
104 25 3707
105 25 2638
106 25 200
107 25 5
108 25 1622
109 25 18
110 25 2614
111 25 2027
114 25 2071
115 25 159
116 25 1637
118 25 4
119 25 1981
120 25 1120
121 25 510
122 25 923
124 25 1542
125 25 1038
126 25 998
130 25 3711
133 25 2482
134 25 2
137 25 2321
141 25 2018
142 25 2
143 25 3066
144 25 1416
149 25 1365
150 25 1293
153 25 1451
154 25 684
155 25 561
158 25 24
159 25 326
160 25 128
161 25 1752
163 25 3431
164 25 81
165 25 123
166 25 613
168 25 1842
170 25 1698
171 25 1940
172 25 778
173 25 2139
174 25 844
175 25 2051
177 25 1511
178 25 2151
179 25 304
180 25 341
182 25 3
183 25 2608
186 25 2007
187 25 1288
189 25 6
191 25 2292
192 25 119
195 25 3914
196 25 466
199 25 76
200 25 2134
204 25 658
206 25 2242
207 25 1981
208 25 108
209 25 1642
212 25 1463
216 25 2476
218 25 2183
219 25 820
220 25 3877
224 25 17
225 25 2812
226 25 150
227 25 1536
229 25 4228
230 25 2028
234 25 715
237 25 1433
238 25 470
239 25 2881
241 25 146
244 25 2015
245 25 3230
247 25 90
253 25 3017
258 25 156
259 25 2967
260 25 1
261 25 1125
264 25 1254
265 25 2
266 25 1674
267 25 341
268 25 3190
277 25 1998
278 25 1173
280 25 606
281 25 3276
284 25 492
285 25 489
286 25 1603
290 25 2553
291 25 1117
293 25 2813
296 25 638
298 25 1667
299 25 3716
301 25 136
304 25 2571
305 25 1670
307 25 2220
308 25 1109
310 25 2485
313 25 1742
314 25 3
315 25 1917
317 25 1253
319 25 2167
320 25 2469
324 25 11
325 25 1024
326 25 1333
327 25 1280
328 25 15
332 25 1337
334 25 221
335 25 2695
336 25 44
337 25 73
338 25 1304
339 25 3462
340 25 1719
341 25 1768
342 25 3195
343 25 3876
344 25 2134
345 25 4
346 25 261
347 25 1396
348 25 19
350 25 1662
351 25 24
352 25 1761
353 25 3
354 25 3031
355 25 6583
356 25 2493
358 25 2623
359 25 2034
362 25 1548
363 25 985
364 25 563
365 25 2494
368 25 2
370 25 667
371 25 3249
372 25 451
373 25 543
376 25 834
377 25 338
378 25 1490
379 25 1757
380 25 2370
381 25 3287
382 25 1778
385 25 2751
386 25 2111
389 25 520
391 25 2289
392 25 1615
393 25 2693
397 25 2349
399 25 1533
400 25 267
401 25 695
403 25 923
404 25 2164
407 25 1737
408 25 9
409 25 3002
410 25 1499
411 25 3671
412 25 913
414 25 83
416 25 2878
418 25 2787
419 25 2132
421 25 1934
423 25 38
424 25 1526
426 25 1348
428 25 3
429 25 1
430 25 2944
432 25 3
433 25 563
434 25 559
435 25 2985
444 25 4769
446 25 14
447 25 17
451 25 2593
453 25 742
455 25 53
457 25 689
458 25 2641
463 25 2723
464 25 1275
465 25 875
467 25 2951
469 25 3
471 25 2073
472 25 1689
473 25 4
474 25 847
475 25 139
476 25 518
478 25 3376
480 25 2705
484 25 2505
485 25 597
493 25 567
494 25 472
495 25 615
497 25 3
500 25 1
1 26 956
2 26 6
3 26 39
4 26 49
5 26 100
6 26 42
7 26 21
8 26 1139
9 26 7
10 26 902
11 26 9
12 26 21
13 26 59
14 26 1140
15 26 20
16 26 5
17 26 23
18 26 1334
20 26 1861
21 26 125
22 26 26
24 26 9
26 26 181
27 26 1069
28 26 1057
29 26 98
30 26 508
31 26 561
32 26 26
33 26 49
34 26 9
35 26 979
36 26 996
37 26 1
38 26 791
39 26 88
40 26 1329
41 26 5
42 26 92
43 26 21
44 26 907
45 26 887
46 26 5
47 26 25
48 26 1373
51 26 381
52 26 4
53 26 1524
54 26 1043
55 26 11
56 26 32
57 26 10
58 26 31
59 26 725
60 26 1241
61 26 438
62 26 75
63 26 1257
64 26 498
65 26 433
66 26 6
67 26 517
68 26 7
70 26 123
71 26 835
72 26 311
73 26 6
74 26 1088
75 26 36
76 26 92
77 26 37
78 26 315
79 26 10
80 26 7
81 26 105
82 26 1196
83 26 8
84 26 82
85 26 203
86 26 82
87 26 33
88 26 632
89 26 655
90 26 18
91 26 433
92 26 17
93 26 1735
94 26 67
95 26 106
96 26 481
97 26 31
98 26 612
99 26 21
100 26 634
101 26 95
102 26 24
103 26 310
104 26 4
105 26 33
106 26 139
107 26 1181
108 26 21
109 26 506
110 26 47
111 26 46
112 26 861
113 26 1417
114 26 30
115 26 50
116 26 45
117 26 949
118 26 586
120 26 30
121 26 100
122 26 74
123 26 1303
124 26 37
125 26 58
127 26 496
128 26 580
129 26 589
131 26 1791
132 26 1206
133 26 5
134 26 1104
135 26 740
136 26 1258
138 26 990
139 26 1407
140 26 994
141 26 38
142 26 536
143 26 19
144 26 11
145 26 566
146 26 1715
147 26 456
148 26 636
149 26 68
150 26 83
151 26 1342
152 26 866
153 26 4
154 26 100
155 26 116
156 26 750
157 26 1060
158 26 540
159 26 26
160 26 90
161 26 22
162 26 1045
163 26 6
164 26 86
165 26 76
166 26 41
167 26 2266
168 26 32
169 26 1077
171 26 30
172 26 89
173 26 23
174 26 38
175 26 52
176 26 746
177 26 48
178 26 11
179 26 45
180 26 380
181 26 581
182 26 613
183 26 17
184 26 1586
185 26 775
186 26 40
187 26 5
188 26 1220
189 26 1484
190 26 755
191 26 8
192 26 112
193 26 974
194 26 957
195 26 7
196 26 40
197 26 1034
198 26 1128
199 26 99
200 26 28
201 26 802
202 26 718
203 26 704
204 26 30
205 26 1340
206 26 41
208 26 423
209 26 61
210 26 1094
211 26 1761
213 26 736
214 26 347
215 26 616
216 26 18
217 26 920
218 26 9
219 26 51
220 26 16
221 26 477
222 26 1307
223 26 1030
224 26 262
225 26 21
226 26 36
227 26 58
228 26 720
229 26 4
230 26 28
231 26 563
232 26 1418
233 26 544
234 26 17
235 26 1504
236 26 310
237 26 37
238 26 37
239 26 23
240 26 923
241 26 57
242 26 1520
243 26 558
244 26 11
245 26 145
246 26 602
247 26 30
248 26 447
249 26 1687
250 26 633
251 26 1323
252 26 718
253 26 20
254 26 788
255 26 942
256 26 1330
257 26 452
258 26 38
259 26 39
260 26 124
261 26 40
262 26 1625
263 26 1561
264 26 6
265 26 1457
266 26 38
267 26 116
268 26 20
269 26 594
270 26 702
271 26 472
272 26 1243
273 26 707
274 26 634
275 26 1742
276 26 809
277 26 27
278 26 14
279 26 886
280 26 71
281 26 6
282 26 1007
283 26 706
284 26 89
285 26 101
286 26 40
287 26 1702
288 26 1502
289 26 589
290 26 33
291 26 45
292 26 1042
293 26 14
294 26 1588
295 26 1898
296 26 46
297 26 1153
298 26 7
300 26 1674
301 26 95
302 26 964
303 26 1178
304 26 16
305 26 52
306 26 1182
307 26 5
308 26 32
309 26 866
311 26 1469
312 26 1116
313 26 31
314 26 490
315 26 21
316 26 367
317 26 7
318 26 497
319 26 4
320 26 61
321 26 531
322 26 1162
323 26 1691
324 26 213
325 26 39
326 26 3
327 26 21
328 26 464
329 26 270
330 26 1402
331 26 834
332 26 93
333 26 1098
334 26 150
336 26 95
337 26 82
339 26 10
340 26 60
343 26 7
344 26 8
345 26 649
346 26 92
347 26 4
348 26 275
349 26 747
350 26 40
351 26 529
352 26 22
353 26 631
355 26 5
356 26 37
357 26 776
359 26 1
360 26 949
361 26 1523
362 26 22
363 26 39
364 26 48
366 26 1460
367 26 556
368 26 1532
369 26 750
370 26 39
371 26 29
372 26 190
373 26 13
374 26 1773
375 26 569
376 26 52
377 26 398
378 26 2
379 26 8
380 26 42
381 26 3
382 26 11
383 26 1358
384 26 828
385 26 5
386 26 18
387 26 482
388 26 1100
389 26 93
390 26 1924
392 26 24
393 26 39
394 26 855
395 26 1160
396 26 386
397 26 4
398 26 1767
399 26 183
400 26 277
401 26 37
402 26 892
403 26 52
404 26 40
405 26 841
406 26 1417
407 26 11
408 26 186
409 26 5
410 26 6
412 26 53
413 26 908
414 26 22
415 26 1550
416 26 8
417 26 2463
418 26 9
419 26 48
420 26 1211
421 26 34
422 26 1099
423 26 83
424 26 30
425 26 708
426 26 28
427 26 870
428 26 1066
429 26 1342
430 26 30
431 26 216
432 26 794
433 26 105
434 26 41
435 26 12
436 26 1562
437 26 1077
438 26 1572
439 26 1128
440 26 411
441 26 1163
442 26 1073
443 26 981
444 26 7
445 26 567
446 26 159
447 26 206
448 26 1760
449 26 1107
450 26 1678
451 26 9
452 26 1044
453 26 29
454 26 594
455 26 508
456 26 1345
457 26 43
458 26 11
459 26 1418
460 26 1945
461 26 914
462 26 1353
463 26 7
464 26 8
465 26 31
466 26 578
467 26 31
468 26 956
469 26 504
470 26 820
471 26 4
472 26 4
473 26 173
474 26 79
475 26 59
476 26 40
477 26 599
478 26 42
479 26 1386
480 26 10
481 26 829
482 26 924
483 26 345
484 26 6
485 26 53
486 26 415
487 26 822
488 26 1028
489 26 935
490 26 1055
491 26 1132
492 26 1232
493 26 47
494 26 193
495 26 106
496 26 837
497 26 511
498 26 1021
499 26 897
500 26 973
1 27 7
2 27 381
3 27 291
4 27 785
5 27 626
6 27 172
7 27 1369
9 27 716
11 27 718
12 27 1251
13 27 417
15 27 760
16 27 717
17 27 855
19 27 1193
20 27 10
21 27 743
22 27 672
23 27 587
24 27 988
25 27 313
26 27 222
27 27 10
28 27 4
29 27 567
32 27 937
33 27 1394
34 27 735
36 27 6
37 27 565
38 27 5
39 27 577
40 27 2
41 27 1013
42 27 90
43 27 1010
45 27 2
46 27 424
47 27 314
49 27 582
50 27 788
52 27 375
53 27 107
55 27 1306
56 27 1958
57 27 891
58 27 505
60 27 9
61 27 21
62 27 940
63 27 4
66 27 536
67 27 3
68 27 340
69 27 751
70 27 558
71 27 3
73 27 521
75 27 1209
76 27 491
77 27 1679
78 27 1146
79 27 981
80 27 646
81 27 1093
82 27 5
83 27 836
84 27 634
86 27 1228
87 27 1482
88 27 2
89 27 3
90 27 1512
92 27 916
93 27 3
94 27 530
95 27 490
97 27 422
99 27 1012
101 27 1097
102 27 890
103 27 218
104 27 616
105 27 824
106 27 856
107 27 4
108 27 1070
109 27 123
110 27 873
111 27 326
112 27 4
114 27 1803
115 27 903
116 27 1466
118 27 4
119 27 797
120 27 584
121 27 1403
122 27 755
124 27 179
125 27 235
126 27 641
129 27 6
130 27 770
133 27 2053
136 27 10
137 27 635
138 27 5
141 27 1823
142 27 2
143 27 857
144 27 266
145 27 2
146 27 3
148 27 3
149 27 1093
150 27 776
151 27 12
153 27 1772
154 27 646
155 27 882
157 27 9
158 27 129
159 27 476
160 27 568
161 27 1578
163 27 696
164 27 119
165 27 1094
166 27 1088
167 27 15
168 27 1057
170 27 1639
171 27 213
172 27 352
173 27 1039
174 27 673
175 27 340
177 27 186
178 27 293
179 27 1120
180 27 478
181 27 5
182 27 2
183 27 1740
186 27 652
187 27 1671
188 27 3
190 27 3
191 27 817
192 27 575
195 27 1753
196 27 299
199 27 1453
200 27 1050
202 27 11
204 27 1012
206 27 833
207 27 1449
208 27 147
209 27 666
210 27 6
212 27 1261
213 27 3
214 27 107
215 27 1
216 27 1498
218 27 438
219 27 1342
220 27 1009
222 27 8
224 27 162
225 27 964
226 27 859
227 27 194
229 27 365
230 27 337
231 27 13
232 27 6
233 27 3
234 27 2014
237 27 136
238 27 305
239 27 1051
241 27 1174
244 27 407
245 27 827
247 27 270
250 27 3
251 27 15
253 27 1110
254 27 3
255 27 1
258 27 761
259 27 981
260 27 109
261 27 454
264 27 995
266 27 704
267 27 1253
268 27 2042
269 27 2
272 27 5
273 27 3
277 27 1956
278 27 667
279 27 2
280 27 990
281 27 1005
282 27 30
284 27 895
285 27 1391
286 27 688
287 27 10
289 27 4
290 27 1303
291 27 452
293 27 1250
294 27 4
295 27 5
296 27 1208
297 27 8
298 27 1533
299 27 774
300 27 4
301 27 410
304 27 1376
305 27 434
306 27 7
307 27 581
308 27 824
309 27 2
310 27 1581
311 27 12
312 27 9
313 27 796
314 27 35
315 27 902
316 27 95
317 27 1565
318 27 2
319 27 788
320 27 1982
322 27 12
323 27 6
324 27 71
325 27 800
326 27 1006
327 27 954
328 27 107
329 27 112
330 27 4
331 27 1
332 27 505
333 27 6
334 27 744
335 27 926
336 27 500
337 27 434
338 27 1905
339 27 1075
340 27 631
341 27 2233
342 27 329
343 27 1659
344 27 793
345 27 49
346 27 1572
347 27 748
348 27 136
350 27 311
351 27 93
352 27 710
353 27 2
354 27 1095
355 27 2150
356 27 611
358 27 1094
359 27 1218
361 27 7
362 27 993
363 27 251
364 27 854
365 27 1503
370 27 1879
371 27 2636
372 27 199
373 27 1603
376 27 908
377 27 452
378 27 1328
379 27 1209
380 27 566
381 27 1722
382 27 1176
384 27 7
385 27 622
386 27 1091
388 27 9
389 27 1412
390 27 4
391 27 389
392 27 550
393 27 980
395 27 6
396 27 90
397 27 438
399 27 200
400 27 1216
401 27 2556
402 27 2
403 27 860
404 27 896
405 27 1
407 27 869
408 27 78
409 27 378
410 27 658
411 27 1082
412 27 803
413 27 27
414 27 832
416 27 1142
417 27 5
418 27 917
419 27 1338
420 27 3
421 27 324
423 27 511
424 27 569
426 27 1865
430 27 620
432 27 6
433 27 509
434 27 837
435 27 766
440 27 3
441 27 2
444 27 774
445 27 8
446 27 240
447 27 81
448 27 4
450 27 13
451 27 884
453 27 364
454 27 2
455 27 106
457 27 1232
458 27 1627
460 27 9
461 27 7
463 27 826
464 27 954
465 27 898
466 27 7
467 27 947
469 27 20
470 27 4
471 27 593
472 27 1431
473 27 111
474 27 1303
475 27 798
476 27 310
477 27 2
478 27 2016
480 27 836
481 27 5
482 27 7
483 27 5
484 27 1758
485 27 492
486 27 71
487 27 9
493 27 849
494 27 212
495 27 857
497 27 1
498 27 7
499 27 9
500 27 4
1 28 342
5 28 16
8 28 1436
10 28 801
12 28 5
14 28 1432
18 28 322
20 28 936
21 28 153
26 28 748
27 28 507
28 28 350
29 28 16
30 28 738
31 28 545
32 28 3
35 28 1068
36 28 1060
37 28 15
38 28 999
40 28 790
41 28 5
42 28 143
44 28 801
45 28 1059
47 28 3
48 28 641
51 28 826
53 28 98
54 28 927
59 28 662
60 28 772
61 28 803
62 28 23
63 28 681
64 28 1581
65 28 1699
67 28 389
70 28 3
71 28 770
72 28 293
74 28 426
76 28 34
78 28 10
81 28 12
82 28 1018
84 28 7
85 28 1107
87 28 15
88 28 441
89 28 907
91 28 687
92 28 3
93 28 452
95 28 621
96 28 1721
97 28 2
98 28 945
100 28 496
101 28 8
103 28 953
105 28 7
106 28 13
107 28 362
108 28 4
109 28 197
112 28 209
113 28 1446
115 28 41
117 28 747
118 28 1132
120 28 4
121 28 25
122 28 6
123 28 710
127 28 941
128 28 888
129 28 1046
131 28 1033
132 28 1596
134 28 373
135 28 617
136 28 454
138 28 1332
139 28 1027
140 28 781
142 28 417
145 28 1065
146 28 1246
147 28 933
148 28 1330
149 28 2
150 28 4
151 28 1638
152 28 989
154 28 25
155 28 27
156 28 689
157 28 1365
158 28 720
160 28 39
161 28 2
162 28 841
164 28 158
165 28 15
167 28 756
169 28 1412
176 28 698
180 28 6
181 28 1078
182 28 285
184 28 1158
185 28 1120
188 28 436
189 28 1504
190 28 820
192 28 5
193 28 767
194 28 654
196 28 28
197 28 698
198 28 847
199 28 49
201 28 1165
202 28 852
203 28 749
205 28 1658
206 28 8
207 28 3
208 28 90
210 28 1851
211 28 1053
213 28 864
214 28 707
215 28 303
217 28 405
219 28 12
221 28 761
222 28 1038
223 28 757
224 28 1207
226 28 48
228 28 1850
231 28 1112
232 28 833
233 28 630
235 28 1062
236 28 254
238 28 19
240 28 1796
241 28 29
242 28 826
243 28 1364
246 28 644
247 28 25
248 28 1518
249 28 663
250 28 110
251 28 1054
252 28 704
254 28 374
255 28 835
256 28 700
257 28 962
258 28 57
260 28 97
261 28 2
262 28 117
263 28 752
265 28 243
266 28 4
267 28 17
269 28 430
270 28 270
271 28 1527
272 28 1609
273 28 538
274 28 925
275 28 1268
276 28 829
279 28 977
280 28 10
282 28 642
283 28 965
284 28 30
285 28 12
286 28 6
287 28 1325
288 28 1058
289 28 798
291 28 1
292 28 961
293 28 6
294 28 972
295 28 390
296 28 10
297 28 1589
300 28 580
301 28 29
302 28 1773
303 28 369
306 28 894
309 28 946
311 28 2043
312 28 479
314 28 1544
316 28 721
318 28 205
321 28 611
322 28 709
323 28 1302
324 28 458
328 28 588
329 28 922
330 28 766
331 28 1285
332 28 20
333 28 1096
334 28 11
336 28 720
337 28 53
345 28 1190
348 28 1252
349 28 709
350 28 3
351 28 564
353 28 275
357 28 676
360 28 836
361 28 947
364 28 14
366 28 1091
367 28 916
368 28 238
369 28 711
372 28 29
374 28 1302
375 28 1264
376 28 5
377 28 12
383 28 716
384 28 1039
387 28 1511
388 28 1395
389 28 10
390 28 244
394 28 836
395 28 883
396 28 717
398 28 1527
399 28 5
400 28 27
402 28 774
403 28 9
405 28 1048
406 28 935
408 28 469
410 28 8
412 28 6
413 28 682
414 28 55
415 28 1554
417 28 2441
420 28 443
422 28 618
423 28 641
424 28 4
425 28 295
427 28 632
428 28 373
429 28 2208
431 28 1059
432 28 1383
433 28 16
434 28 16
436 28 120
437 28 1049
438 28 741
439 28 865
440 28 675
441 28 807
442 28 722
443 28 1122
445 28 979
446 28 785
447 28 481
448 28 536
449 28 1589
450 28 1278
452 28 1144
454 28 1271
455 28 265
456 28 933
457 28 13
459 28 1134
460 28 939
461 28 767
462 28 349
466 28 1057
468 28 471
469 28 752
470 28 386
473 28 375
475 28 56
476 28 3
477 28 262
479 28 857
481 28 1639
482 28 1050
483 28 801
485 28 22
486 28 578
487 28 568
488 28 929
489 28 551
490 28 1001
491 28 845
492 28 1448
493 28 24
494 28 22
495 28 23
496 28 986
497 28 435
498 28 342
499 28 649
500 28 1334
2 29 957
3 29 164
4 29 562
5 29 1649
6 29 824
7 29 977
9 29 1397
11 29 646
12 29 726
13 29 729
15 29 900
16 29 1417
17 29 919
19 29 1044
21 29 625
22 29 858
23 29 759
24 29 831
25 29 1881
26 29 363
27 29 3
29 29 838
30 29 2
32 29 1120
33 29 1327
34 29 1416
35 29 1
37 29 1136
39 29 1772
41 29 760
42 29 1022
43 29 1120
46 29 662
47 29 981
49 29 762
50 29 1073
52 29 1730
53 29 1484
54 29 2
55 29 1503
56 29 419
57 29 1225
58 29 450
60 29 57
61 29 384
62 29 473
66 29 1080
67 29 3
68 29 1745
69 29 1235
70 29 785
73 29 381
74 29 2
75 29 592
76 29 852
77 29 1066
78 29 1575
79 29 721
80 29 788
81 29 1312
83 29 980
84 29 2462
86 29 999
87 29 1341
88 29 2
90 29 1544
92 29 1119
94 29 1025
95 29 1167
97 29 1643
99 29 632
100 29 7
101 29 1357
102 29 337
103 29 1129
104 29 741
105 29 993
106 29 852
108 29 474
109 29 942
110 29 1694
111 29 814
114 29 755
115 29 637
116 29 1065
117 29 3
119 29 212
120 29 512
121 29 1324
122 29 660
123 29 6
124 29 799
125 29 194
126 29 537
129 29 2
130 29 1239
133 29 1631
137 29 757
138 29 4
139 29 2
140 29 2
141 29 669
142 29 7
143 29 833
144 29 2005
145 29 2
146 29 5
149 29 1692
150 29 818
153 29 655
154 29 284
155 29 1126
156 29 2
158 29 297
159 29 1669
160 29 1059
161 29 697
163 29 705
164 29 1028
165 29 1306
166 29 787
168 29 1234
170 29 344
171 29 517
172 29 337
173 29 1401
174 29 1079
175 29 787
177 29 843
178 29 870
179 29 181
180 29 988
181 29 2
182 29 2
183 29 1125
186 29 945
187 29 1251
190 29 2
191 29 2168
192 29 775
195 29 751
196 29 757
199 29 1178
200 29 289
202 29 90
204 29 806
206 29 459
207 29 963
208 29 916
209 29 1375
210 29 4
212 29 480
214 29 545
216 29 1562
218 29 275
219 29 1478
220 29 1416
223 29 2
224 29 1236
225 29 1401
226 29 1401
227 29 807
229 29 1063
230 29 422
231 29 13
232 29 5
234 29 1199
235 29 2
237 29 580
238 29 690
239 29 617
241 29 660
242 29 3
243 29 16
244 29 584
245 29 456
247 29 559
248 29 4
250 29 4
252 29 2
253 29 1266
254 29 8
256 29 9
258 29 1452
259 29 1204
260 29 782
261 29 331
264 29 980
266 29 1277
267 29 592
268 29 1406
269 29 3
275 29 4
277 29 642
278 29 830
280 29 715
281 29 1431
282 29 66
283 29 5
284 29 493
285 29 1288
286 29 1226
288 29 4
289 29 9
290 29 608
291 29 338
292 29 2
293 29 686
295 29 10
296 29 3437
298 29 2511
299 29 1251
301 29 1279
304 29 892
305 29 759
307 29 1270
308 29 904
310 29 366
311 29 6
312 29 5
313 29 228
314 29 834
315 29 1343
316 29 535
317 29 1269
318 29 4
319 29 1107
320 29 651
323 29 1
324 29 1428
325 29 957
326 29 1228
327 29 1066
328 29 1044
329 29 853
330 29 7
332 29 707
334 29 779
335 29 1293
336 29 1087
337 29 1134
338 29 1918
339 29 416
340 29 1420
341 29 1327
342 29 1912
343 29 788
344 29 1040
345 29 523
346 29 1556
347 29 690
348 29 1386
350 29 933
351 29 998
352 29 1007
353 29 2
354 29 498
355 29 1000
356 29 720
358 29 1264
359 29 1499
360 29 20
362 29 1117
363 29 167
364 29 1124
365 29 1298
366 29 3
369 29 4
370 29 96
371 29 377
372 29 1243
373 29 2751
374 29 6
376 29 662
377 29 951
378 29 1517
379 29 944
380 29 1343
381 29 867
382 29 905
385 29 1394
386 29 267
387 29 3
389 29 563
391 29 373
392 29 1076
393 29 1684
396 29 506
397 29 1756
399 29 1343
400 29 839
401 29 1757
403 29 746
404 29 783
405 29 2
406 29 2
407 29 1198
408 29 1405
409 29 898
410 29 1218
411 29 645
412 29 751
413 29 55
414 29 579
416 29 1271
417 29 2
418 29 485
419 29 1145
421 29 1023
423 29 1097
424 29 1531
426 29 1346
429 29 4
430 29 843
432 29 162
433 29 1613
434 29 1209
435 29 415
440 29 5
443 29 1
444 29 2225
445 29 2
446 29 381
447 29 1414
451 29 358
453 29 1270
455 29 427
457 29 3354
458 29 808
459 29 3
463 29 768
464 29 1242
465 29 770
466 29 6
467 29 1327
469 29 406
470 29 11
471 29 467
472 29 2462
473 29 230
474 29 877
475 29 1500
476 29 958
478 29 634
479 29 6
480 29 310
481 29 5
483 29 4
484 29 1385
485 29 658
486 29 207
490 29 4
493 29 1167
494 29 1288
495 29 1192
496 29 6
497 29 6
499 29 1
500 29 50
1 30 655
2 30 56
3 30 12
4 30 46
5 30 478
6 30 63
7 30 13
8 30 1480
9 30 79
10 30 1755
12 30 4
13 30 45
14 30 1495
15 30 3
16 30 30
18 30 790
19 30 19
20 30 1907
21 30 172
22 30 38
23 30 109
24 30 20
25 30 15
26 30 221
27 30 342
28 30 670
29 30 495
30 30 575
31 30 938
32 30 39
33 30 96
34 30 86
35 30 325
36 30 2604
37 30 185
38 30 482
39 30 60
40 30 760
41 30 51
42 30 376
44 30 755
45 30 1513
46 30 11
47 30 158
48 30 1567
49 30 106
50 30 36
51 30 1111
53 30 1717
54 30 2332
55 30 42
56 30 136
57 30 5
58 30 85
59 30 880
60 30 951
61 30 969
62 30 211
63 30 705
64 30 1102
65 30 1308
66 30 35
67 30 802
68 30 51
69 30 2
70 30 394
71 30 645
72 30 770
73 30 9
74 30 1705
75 30 16
76 30 973
77 30 14
78 30 168
79 30 21
80 30 66
81 30 114
82 30 716
83 30 38
84 30 170
85 30 836
86 30 85
87 30 410
88 30 553
89 30 1142
90 30 54
91 30 571
92 30 45
93 30 1589
94 30 11
95 30 947
96 30 1287
97 30 286
98 30 1401
99 30 23
100 30 804
101 30 107
102 30 43
103 30 2238
104 30 57
105 30 16
106 30 88
107 30 954
108 30 92
109 30 353
110 30 21
111 30 29
112 30 1332
113 30 1776
114 30 2
115 30 140
116 30 126
117 30 766
118 30 1206
119 30 1
120 30 47
121 30 16
122 30 164
123 30 843
124 30 71
125 30 9
126 30 6
127 30 1466
128 30 1294
129 30 906
130 30 5
131 30 1407
132 30 510
133 30 35
134 30 1172
135 30 913
136 30 1108
137 30 49
138 30 983
139 30 1298
140 30 790
141 30 147
142 30 750
143 30 51
144 30 14
145 30 1309
146 30 1598
147 30 628
148 30 1539
149 30 184
150 30 59
151 30 2318
152 30 1240
153 30 10
154 30 139
155 30 117
156 30 565
157 30 809
158 30 827
159 30 254
160 30 80
161 30 13
162 30 460
163 30 6
164 30 422
165 30 533
166 30 46
167 30 995
168 30 21
169 30 1522
171 30 38
172 30 68
173 30 19
174 30 33
175 30 30
176 30 1135
177 30 67
178 30 23
179 30 88
180 30 96
181 30 1287
182 30 546
183 30 12
184 30 802
185 30 1266
186 30 186
187 30 7
188 30 1048
189 30 1567
190 30 806
191 30 17
192 30 396
193 30 777
194 30 265
195 30 11
196 30 113
197 30 1103
198 30 630
199 30 300
200 30 56
201 30 746
202 30 1888
203 30 1135
204 30 32
205 30 1083
206 30 31
207 30 7
208 30 119
209 30 46
210 30 1331
211 30 1353
212 30 36
213 30 623
214 30 802
215 30 1257
216 30 56
217 30 725
218 30 3
219 30 124
220 30 14
221 30 557
222 30 1211
223 30 778
224 30 1747
225 30 111
226 30 310
227 30 66
228 30 1338
229 30 40
230 30 17
231 30 1000
232 30 723
233 30 963
234 30 162
235 30 636
236 30 767
237 30 168
238 30 120
239 30 27
240 30 2121
241 30 36
242 30 628
243 30 1516
244 30 1
245 30 176
246 30 1158
247 30 76
248 30 766
249 30 1736
250 30 525
251 30 1227
252 30 1075
253 30 51
254 30 427
255 30 756
256 30 837
257 30 1543
258 30 318
259 30 59
260 30 640
261 30 149
262 30 673
263 30 1290
264 30 19
265 30 1256
266 30 49
267 30 227
268 30 60
269 30 541
270 30 1263
271 30 1155
272 30 1330
273 30 1004
274 30 1301
275 30 957
276 30 1742
277 30 150
278 30 53
279 30 902
280 30 36
282 30 871
283 30 318
284 30 209
285 30 10
286 30 46
287 30 1713
288 30 667
289 30 882
290 30 17
291 30 173
292 30 2275
293 30 16
294 30 666
295 30 212
296 30 451
297 30 1345
298 30 70
299 30 8
300 30 289
301 30 186
302 30 2237
303 30 894
304 30 8
305 30 52
306 30 1798
308 30 78
309 30 905
310 30 6
311 30 1282
312 30 377
313 30 23
314 30 820
315 30 70
316 30 798
317 30 3
318 30 1062
319 30 11
320 30 24
321 30 957
322 30 927
323 30 1666
324 30 612
325 30 107
326 30 53
327 30 18
328 30 541
329 30 1275
330 30 795
331 30 724
332 30 62
333 30 1531
334 30 85
335 30 57
336 30 932
337 30 504
338 30 109
339 30 24
340 30 37
341 30 4
342 30 5
343 30 16
344 30 40
345 30 1971
346 30 287
347 30 95
348 30 1707
349 30 968
350 30 181
351 30 553
352 30 95
353 30 554
354 30 22
356 30 6
357 30 922
359 30 4
360 30 1198
361 30 667
363 30 5
364 30 449
365 30 7
366 30 1339
367 30 421
368 30 1219
369 30 572
370 30 96
371 30 66
372 30 54
373 30 33
374 30 976
375 30 1912
376 30 126
377 30 91
378 30 39
379 30 32
380 30 24
381 30 19
382 30 31
383 30 1514
384 30 1544
385 30 29
386 30 62
387 30 741
388 30 800
389 30 105
390 30 2077
392 30 25
393 30 19
394 30 1690
395 30 1832
396 30 774
398 30 664
399 30 331
400 30 111
401 30 130
402 30 1299
403 30 71
404 30 138
405 30 761
406 30 1166
407 30 5
408 30 580
409 30 20
410 30 92
411 30 22
412 30 76
413 30 792
414 30 72
415 30 424
416 30 59
417 30 1817
418 30 21
419 30 7
420 30 1073
421 30 32
422 30 634
423 30 914
424 30 68
425 30 1365
426 30 119
427 30 1736
428 30 1265
429 30 1815
430 30 37
431 30 850
432 30 1844
433 30 113
434 30 196
435 30 18
436 30 695
437 30 1686
438 30 1288
439 30 567
440 30 525
441 30 1127
442 30 656
443 30 325
444 30 37
445 30 1356
446 30 222
447 30 592
448 30 1637
449 30 564
450 30 1696
451 30 9
452 30 631
453 30 15
454 30 1065
455 30 548
456 30 1170
457 30 445
458 30 56
459 30 1369
460 30 1897
461 30 587
462 30 1976
464 30 43
465 30 12
466 30 923
467 30 110
468 30 1362
469 30 1011
470 30 419
471 30 71
472 30 74
473 30 404
474 30 30
475 30 342
476 30 88
477 30 463
478 30 6
479 30 1183
480 30 12
481 30 1485
482 30 1563
483 30 494
484 30 5
485 30 210
486 30 958
487 30 283
488 30 1430
489 30 1045
490 30 2308
491 30 688
492 30 1530
493 30 508
494 30 65
495 30 123
496 30 987
497 30 749
498 30 659
499 30 978
500 30 801
2 31 811
3 31 1561
4 31 302
5 31 177
6 31 31
7 31 86
9 31 73
11 31 109
12 31 102
13 31 328
15 31 1413
16 31 1225
17 31 655
19 31 858
21 31 148
22 31 147
23 31 119
24 31 1883
25 31 2049
26 31 6
27 31 6
29 31 98
32 31 92
33 31 327
34 31 57
36 31 3
37 31 28
38 31 2
39 31 1019
41 31 352
42 31 43
43 31 248
46 31 1123
47 31 546
49 31 109
50 31 724
52 31 1555
53 31 9
55 31 210
56 31 303
57 31 555
58 31 139
61 31 4
62 31 826
66 31 102
68 31 858
69 31 129
70 31 89
73 31 1645
75 31 60
76 31 98
77 31 1502
78 31 150
79 31 502
80 31 122
81 31 76
83 31 98
84 31 272
85 31 4
86 31 624
87 31 193
90 31 163
91 31 2
92 31 90
93 31 4
94 31 184
95 31 6
97 31 93
99 31 302
101 31 77
102 31 1674
103 31 10
104 31 892
105 31 1395
106 31 230
107 31 2
108 31 886
109 31 7
110 31 237
111 31 280
113 31 2
114 31 2120
115 31 656
116 31 375
119 31 386
120 31 392
121 31 85
122 31 33
123 31 1
124 31 35
125 31 1471
126 31 827
130 31 129
133 31 103
134 31 2
137 31 1619
141 31 997
143 31 1210
144 31 1967
146 31 9
149 31 463
150 31 525
153 31 1011
154 31 260
155 31 90
158 31 3
159 31 92
160 31 88
161 31 108
163 31 1807
164 31 54
165 31 189
166 31 134
168 31 96
170 31 1589
171 31 23
172 31 1231
173 31 815
174 31 659
175 31 265
177 31 37
178 31 1063
179 31 12
180 31 77
183 31 387
186 31 1130
187 31 97
190 31 1
191 31 2233
192 31 72
195 31 914
196 31 94
199 31 297
200 31 489
204 31 109
205 31 1
206 31 117
207 31 1669
208 31 34
209 31 304
212 31 400
216 31 162
218 31 437
219 31 105
220 31 421
221 31 2
225 31 341
226 31 362
227 31 36
228 31 1
229 31 1084
230 31 69
234 31 850
237 31 347
238 31 85
239 31 280
240 31 4
241 31 69
244 31 402
245 31 2814
246 31 4
247 31 45
252 31 13
253 31 1712
255 31 5
256 31 5
258 31 382
259 31 669
260 31 58
261 31 75
264 31 1580
266 31 500
267 31 566
268 31 744
275 31 4
277 31 1065
278 31 129
280 31 31
281 31 303
282 31 2
284 31 792
285 31 65
286 31 531
287 31 4
289 31 1
290 31 55
291 31 74
293 31 113
295 31 9
296 31 340
298 31 355
299 31 125
301 31 28
302 31 6
303 31 3
304 31 91
305 31 342
307 31 195
308 31 183
310 31 654
311 31 5
312 31 2
313 31 1411
314 31 10
315 31 459
317 31 73
318 31 3
319 31 280
320 31 1340
322 31 8
323 31 12
324 31 11
325 31 149
326 31 280
327 31 172
328 31 31
329 31 10
332 31 155
334 31 262
335 31 1075
336 31 5
337 31 34
338 31 1097
339 31 2359
340 31 270
341 31 752
342 31 2147
343 31 866
344 31 102
345 31 14
346 31 144
347 31 1035
350 31 527
351 31 28
352 31 516
354 31 832
355 31 1204
356 31 1273
357 31 2
358 31 1697
359 31 196
361 31 6
362 31 246
363 31 1521
364 31 196
365 31 147
370 31 138
371 31 1203
372 31 68
373 31 1051
374 31 7
376 31 203
377 31 74
378 31 206
379 31 950
380 31 485
381 31 1761
382 31 920
385 31 1304
386 31 464
389 31 575
391 31 1257
392 31 53
393 31 239
397 31 1684
398 31 6
399 31 264
400 31 175
401 31 448
402 31 1
403 31 527
404 31 1166
405 31 2
407 31 85
408 31 8
409 31 14
410 31 271
411 31 647
412 31 501
414 31 193
416 31 1655
418 31 124
419 31 970
421 31 194
423 31 3
424 31 1358
426 31 1026
428 31 5
429 31 2
430 31 145
431 31 5
433 31 31
434 31 474
435 31 1099
442 31 3
444 31 1433
446 31 6
447 31 11
448 31 7
450 31 5
451 31 215
453 31 97
455 31 5
456 31 2
457 31 340
458 31 322
462 31 3
463 31 776
464 31 292
465 31 1235
467 31 322
469 31 2
471 31 49
472 31 355
473 31 8
474 31 866
475 31 392
476 31 83
478 31 1523
480 31 197
481 31 7
483 31 2
484 31 1490
485 31 9
487 31 1
489 31 1
493 31 179
494 31 66
495 31 81
496 31 1
500 31 3
1 32 311
2 32 61
3 32 55
5 32 171
6 32 16
7 32 20
8 32 546
9 32 80
10 32 679
12 32 4
14 32 580
16 32 24
18 32 1112
19 32 4
20 32 603
21 32 172
22 32 2
23 32 5
25 32 7
26 32 1077
27 32 1534
28 32 359
29 32 113
30 32 662
31 32 1039
32 32 24
33 32 46
34 32 69
35 32 656
36 32 1626
37 32 75
38 32 523
39 32 82
40 32 1046
41 32 18
42 32 430
44 32 494
45 32 443
47 32 35
48 32 396
49 32 3
50 32 4
51 32 770
53 32 805
54 32 849
55 32 13
56 32 57
58 32 20
59 32 426
60 32 611
61 32 641
62 32 56
63 32 419
64 32 755
65 32 661
67 32 472
68 32 6
70 32 186
71 32 626
72 32 883
74 32 669
75 32 22
76 32 164
78 32 276
80 32 4
81 32 42
82 32 491
84 32 178
85 32 1010
86 32 8
87 32 139
88 32 580
89 32 467
91 32 518
92 32 27
93 32 1190
94 32 51
95 32 996
96 32 600
97 32 51
98 32 598
99 32 3
100 32 314
101 32 58
103 32 1660
105 32 7
106 32 111
107 32 386
108 32 67
109 32 874
111 32 1
112 32 522
113 32 947
115 32 184
116 32 19
117 32 537
118 32 1510
120 32 8
121 32 33
122 32 7
123 32 1003
124 32 16
125 32 45
127 32 1104
128 32 586
129 32 1334
131 32 545
132 32 1013
133 32 3
134 32 677
135 32 562
136 32 851
138 32 891
139 32 793
140 32 586
142 32 454
143 32 12
144 32 3
145 32 891
146 32 495
147 32 848
148 32 718
149 32 51
150 32 10
151 32 784
152 32 1306
154 32 104
155 32 106
156 32 757
157 32 1137
158 32 626
159 32 50
160 32 206
161 32 4
162 32 210
164 32 471
165 32 107
166 32 99
167 32 1230
168 32 12
169 32 530
171 32 1
172 32 35
175 32 1
176 32 673
177 32 9
179 32 19
180 32 315
181 32 936
182 32 640
184 32 1094
185 32 770
186 32 82
188 32 823
189 32 202
190 32 462
192 32 185
193 32 581
194 32 383
196 32 21
197 32 339
198 32 719
199 32 87
200 32 4
201 32 751
202 32 1137
203 32 590
204 32 116
205 32 330
207 32 3
208 32 574
210 32 611
211 32 590
212 32 7
213 32 141
214 32 1150
215 32 679
217 32 466
219 32 30
220 32 9
221 32 485
222 32 329
223 32 564
224 32 1354
225 32 5
226 32 151
227 32 17
228 32 477
230 32 25
231 32 1028
232 32 1462
233 32 936
234 32 27
235 32 1451
236 32 918
237 32 6
238 32 16
239 32 5
240 32 819
241 32 340
242 32 1087
243 32 1266
244 32 7
245 32 3
246 32 728
247 32 118
248 32 759
249 32 1410
250 32 519
251 32 339
252 32 1175
254 32 704
255 32 711
256 32 1023
257 32 1255
258 32 165
259 32 11
260 32 651
261 32 58
262 32 488
263 32 735
265 32 936
266 32 1
267 32 111
269 32 568
270 32 594
271 32 720
272 32 1576
273 32 637
274 32 598
275 32 375
276 32 639
278 32 32
279 32 1183
280 32 60
282 32 930
283 32 830
284 32 70
285 32 26
286 32 5
287 32 530
288 32 1481
289 32 414
290 32 22
291 32 63
292 32 887
293 32 5
294 32 140
295 32 871
296 32 147
297 32 1631
298 32 6
300 32 976
301 32 62
302 32 735
303 32 1015
304 32 7
306 32 1453
308 32 3
309 32 1142
311 32 786
312 32 1622
314 32 820
316 32 1216
318 32 570
321 32 1061
322 32 899
323 32 520
324 32 749
325 32 3
326 32 21
328 32 714
329 32 254
330 32 928
331 32 729
332 32 109
333 32 805
334 32 133
336 32 1008
337 32 659
338 32 5
342 32 8
345 32 705
346 32 224
347 32 6
348 32 1319
349 32 435
350 32 37
351 32 741
352 32 16
353 32 635
356 32 3
357 32 486
359 32 10
360 32 739
361 32 427
363 32 44
364 32 153
365 32 1
366 32 503
367 32 349
368 32 893
369 32 763
370 32 9
371 32 41
372 32 65
373 32 23
374 32 361
375 32 1558
376 32 3
377 32 339
378 32 12
379 32 17
382 32 13
383 32 389
384 32 420
386 32 2
387 32 796
388 32 1213
389 32 5
390 32 704
392 32 58
394 32 657
395 32 1550
396 32 1162
398 32 1663
399 32 39
400 32 164
401 32 50
402 32 511
403 32 35
404 32 6
405 32 409
406 32 790
408 32 723
410 32 5
412 32 25
413 32 901
414 32 1469
415 32 545
417 32 847
420 32 808
421 32 5
422 32 858
423 32 942
424 32 4
425 32 649
426 32 86
427 32 555
428 32 650
429 32 924
430 32 2
431 32 1037
432 32 900
433 32 70
434 32 192
436 32 529
437 32 871
438 32 706
439 32 709
440 32 370
441 32 948
442 32 716
443 32 714
445 32 780
446 32 998
447 32 786
448 32 1255
449 32 1038
450 32 535
451 32 5
452 32 930
453 32 10
454 32 375
455 32 351
456 32 563
457 32 127
459 32 515
460 32 570
461 32 820
462 32 1042
464 32 20
465 32 13
466 32 1311
467 32 17
468 32 930
469 32 633
470 32 756
472 32 6
473 32 1256
474 32 16
475 32 177
476 32 95
477 32 490
478 32 13
479 32 833
480 32 5
481 32 1267
482 32 460
483 32 487
485 32 126
486 32 624
487 32 487
488 32 866
489 32 583
490 32 948
491 32 727
492 32 576
493 32 128
494 32 62
495 32 110
496 32 427
497 32 499
498 32 290
499 32 1124
500 32 1644
1 33 923
3 33 2
5 33 12
8 33 1119
9 33 7
10 33 1163
13 33 2
14 33 1206
18 33 1499
20 33 503
21 33 15
26 33 554
27 33 912
28 33 946
30 33 449
31 33 2228
34 33 8
35 33 607
36 33 1250
37 33 23
38 33 1059
40 33 647
42 33 70
44 33 1199
45 33 1281
48 33 1297
51 33 249
53 33 135
54 33 332
55 33 3
59 33 410
60 33 1381
61 33 1086
63 33 513
64 33 938
65 33 2083
67 33 499
70 33 49
71 33 391
72 33 1192
74 33 667
76 33 36
78 33 13
81 33 19
82 33 1196
84 33 15
85 33 1603
87 33 3
88 33 433
89 33 492
91 33 553
93 33 1986
95 33 1242
96 33 2162
97 33 7
98 33 377
100 33 783
101 33 8
103 33 1672
106 33 11
107 33 1354
108 33 3
109 33 1640
112 33 1300
113 33 1156
115 33 4
117 33 697
118 33 346
120 33 4
123 33 738
125 33 4
127 33 1203
128 33 416
129 33 1177
131 33 1161
132 33 784
134 33 1408
135 33 1013
136 33 276
138 33 936
139 33 962
140 33 719
142 33 518
143 33 1
145 33 643
146 33 1984
147 33 898
148 33 1039
149 33 5
151 33 852
152 33 288
154 33 8
155 33 10
156 33 559
157 33 558
158 33 462
159 33 4
160 33 14
162 33 1170
164 33 66
165 33 28
166 33 3
167 33 155
169 33 1163
176 33 1555
179 33 4
180 33 36
181 33 709
182 33 336
184 33 862
185 33 938
188 33 262
189 33 852
190 33 750
192 33 56
193 33 674
194 33 981
197 33 831
198 33 723
199 33 43
201 33 514
202 33 1446
203 33 1225
204 33 6
205 33 836
208 33 23
210 33 806
211 33 1181
213 33 714
214 33 872
215 33 492
217 33 850
219 33 5
221 33 542
222 33 1149
223 33 683
224 33 1501
226 33 7
228 33 1111
231 33 325
232 33 1038
233 33 1396
234 33 7
235 33 1429
236 33 1204
240 33 192
241 33 11
242 33 1798
243 33 585
246 33 671
247 33 2
248 33 879
249 33 1133
250 33 405
251 33 1177
252 33 792
254 33 929
255 33 1244
256 33 759
257 33 1215
258 33 18
259 33 2
260 33 852
261 33 17
262 33 547
263 33 937
265 33 437
267 33 4
269 33 452
270 33 356
271 33 872
272 33 1063
273 33 641
274 33 421
275 33 1285
276 33 1150
279 33 941
280 33 9
282 33 593
283 33 640
287 33 1191
288 33 1377
289 33 354
291 33 16
292 33 340
294 33 1103
295 33 1295
296 33 8
297 33 1072
300 33 300
301 33 10
302 33 211
303 33 683
305 33 4
306 33 992
309 33 988
311 33 713
312 33 910
314 33 364
316 33 866
318 33 1899
321 33 2146
322 33 1027
323 33 1956
324 33 113
328 33 648
329 33 709
330 33 1732
331 33 504
332 33 9
333 33 796
334 33 10
336 33 1231
337 33 70
345 33 1226
346 33 39
348 33 1485
349 33 400
351 33 665
353 33 340
357 33 628
360 33 897
361 33 1063
363 33 4
366 33 928
367 33 665
368 33 405
369 33 585
372 33 5
374 33 1266
375 33 271
377 33 34
378 33 2
383 33 1263
384 33 1255
387 33 891
388 33 505
390 33 1601
394 33 1124
395 33 911
396 33 910
398 33 919
400 33 53
402 33 897
403 33 7
404 33 5
405 33 1033
406 33 491
407 33 6
408 33 122
412 33 8
413 33 542
414 33 52
415 33 1502
417 33 725
420 33 314
422 33 1017
423 33 1254
425 33 321
426 33 3
427 33 948
428 33 1340
429 33 993
431 33 1514
432 33 283
433 33 23
434 33 29
436 33 626
437 33 600
438 33 987
439 33 1128
440 33 369
441 33 883
442 33 470
443 33 567
445 33 675
446 33 617
447 33 120
448 33 2061
449 33 825
450 33 1153
452 33 661
454 33 1327
455 33 990
456 33 115
457 33 3
459 33 884
460 33 522
461 33 779
462 33 1066
466 33 1171
468 33 1412
469 33 1106
470 33 944
473 33 686
475 33 12
477 33 665
479 33 499
481 33 942
482 33 1312
483 33 325
485 33 6
486 33 738
487 33 794
488 33 963
489 33 622
490 33 334
491 33 785
492 33 1142
494 33 6
495 33 24
496 33 940
497 33 491
498 33 954
499 33 428
500 33 940
2 34 1710
3 34 1239
4 34 990
5 34 298
6 34 326
7 34 880
9 34 1777
11 34 1309
12 34 1094
13 34 1072
15 34 1025
16 34 1646
17 34 1140
19 34 708
21 34 773
22 34 1197
23 34 2171
24 34 892
25 34 1045
29 34 509
32 34 973
33 34 482
34 34 1710
37 34 912
39 34 1533
41 34 708
42 34 383
43 34 592
46 34 738
47 34 2136
49 34 2132
50 34 1332
52 34 768
53 34 2
55 34 227
56 34 1572
57 34 1072
58 34 1202
62 34 1701
66 34 928
68 34 422
69 34 1176
70 34 2200
73 34 1337
75 34 1782
76 34 4
77 34 2558
78 34 1948
79 34 1540
80 34 804
83 34 835
84 34 877
86 34 1583
87 34 539
90 34 1326
92 34 968
94 34 379
97 34 481
99 34 616
102 34 1997
103 34 5
104 34 1362
105 34 775
106 34 712
108 34 839
110 34 1015
111 34 1223
114 34 872
115 34 1305
116 34 1290
119 34 1002
120 34 814
121 34 1152
122 34 1496
124 34 368
125 34 1159
126 34 1178
130 34 1109
133 34 2141
137 34 900
141 34 1454
143 34 753
144 34 812
149 34 1822
150 34 1677
153 34 464
154 34 1632
155 34 154
159 34 442
160 34 1332
161 34 1275
163 34 1174
164 34 361
165 34 537
166 34 949
168 34 116
170 34 1645
171 34 896
172 34 3076
173 34 402
174 34 384
175 34 1247
177 34 357
178 34 1179
179 34 132
180 34 33
183 34 651
186 34 1022
187 34 1020
191 34 1123
192 34 2266
195 34 457
196 34 43
199 34 852
200 34 904
204 34 957
206 34 1415
207 34 929
208 34 3
209 34 1899
212 34 1853
216 34 1228
218 34 431
219 34 1348
220 34 1324
225 34 641
226 34 1391
227 34 327
229 34 1209
230 34 572
234 34 2946
237 34 803
238 34 46
239 34 604
241 34 4
244 34 1296
245 34 1493
247 34 96
253 34 1181
258 34 1397
259 34 869
261 34 183
264 34 1377
266 34 2263
267 34 724
268 34 646
277 34 1448
278 34 1222
280 34 72
281 34 930
284 34 1646
285 34 1115
286 34 2199
290 34 1804
291 34 195
293 34 1063
296 34 447
298 34 192
299 34 1123
301 34 60
304 34 1161
305 34 1025
307 34 1224
308 34 721
310 34 1792
313 34 1694
315 34 1781
317 34 1001
319 34 550
320 34 1971
324 34 3
325 34 722
326 34 913
327 34 604
332 34 490
334 34 664
335 34 1448
337 34 10
338 34 1038
339 34 1785
340 34 1761
341 34 1480
342 34 1033
343 34 423
344 34 948
346 34 854
347 34 1936
350 34 2133
352 34 595
354 34 2088
355 34 2161
356 34 1930
358 34 2108
359 34 714
362 34 545
363 34 1187
364 34 1795
365 34 1304
370 34 848
371 34 1557
372 34 689
373 34 1255
376 34 829
377 34 37
378 34 204
379 34 1253
380 34 351
381 34 2344
382 34 1251
385 34 1316
386 34 882
389 34 1516
391 34 1682
392 34 843
393 34 1024
397 34 732
399 34 1401
400 34 1585
401 34 1947
403 34 480
404 34 1871
407 34 1131
408 34 11
409 34 885
410 34 1495
411 34 693
412 34 485
414 34 2654
416 34 1304
418 34 1405
419 34 1325
421 34 1026
422 34 1
424 34 631
426 34 761
430 34 1202
433 34 15
434 34 961
435 34 1538
444 34 643
447 34 6
451 34 667
453 34 495
457 34 451
458 34 1700
463 34 1230
464 34 854
465 34 1723
467 34 667
471 34 601
472 34 190
474 34 1351
475 34 1442
476 34 460
478 34 1474
480 34 606
484 34 2179
485 34 1351
493 34 1846
494 34 696
495 34 157
1 35 510
2 35 60
3 35 39
4 35 38
5 35 14
6 35 64
7 35 75
8 35 1297
9 35 83
10 35 149
11 35 10
12 35 173
13 35 23
14 35 1277
15 35 34
17 35 31
18 35 200
19 35 49
20 35 1350
21 35 276
22 35 33
23 35 7
24 35 32
25 35 16
26 35 546
27 35 292
28 35 519
29 35 40
30 35 577
31 35 778
32 35 62
33 35 84
34 35 94
35 35 596
36 35 506
37 35 299
38 35 352
39 35 70
40 35 392
41 35 21
42 35 111
43 35 66
44 35 1010
45 35 513
47 35 84
48 35 1084
49 35 6
50 35 33
51 35 393
52 35 49
53 35 681
54 35 1058
55 35 44
56 35 36
57 35 35
58 35 73
59 35 588
60 35 356
61 35 862
62 35 71
63 35 503
64 35 537
65 35 400
66 35 31
67 35 743
68 35 70
69 35 28
70 35 48
71 35 538
72 35 127
73 35 14
74 35 244
75 35 30
76 35 184
77 35 44
78 35 91
79 35 8
80 35 42
81 35 1241
82 35 196
83 35 33
84 35 58
85 35 394
86 35 84
87 35 64
88 35 547
89 35 390
90 35 12
91 35 354
92 35 55
93 35 937
94 35 45
95 35 1042
96 35 385
97 35 139
98 35 493
99 35 17
100 35 379
101 35 1182
102 35 29
103 35 592
104 35 114
105 35 56
106 35 23
107 35 1072
108 35 95
109 35 489
110 35 49
111 35 23
112 35 764
113 35 1110
114 35 16
115 35 11
116 35 14
117 35 400
118 35 829
119 35 22
120 35 22
121 35 44
122 35 189
123 35 447
124 35 82
125 35 54
126 35 17
127 35 550
128 35 535
129 35 731
130 35 29
131 35 1033
132 35 812
133 35 53
134 35 539
135 35 821
136 35 857
137 35 19
138 35 503
139 35 1004
140 35 405
141 35 17
142 35 637
143 35 77
144 35 53
145 35 570
146 35 999
147 35 1184
148 35 522
149 35 42
150 35 8
151 35 489
152 35 852
153 35 73
154 35 53
155 35 212
156 35 620
157 35 1564
158 35 623
159 35 159
160 35 540
161 35 90
162 35 1026
163 35 25
164 35 121
165 35 194
166 35 26
167 35 755
168 35 282
169 35 1300
170 35 30
171 35 17
172 35 14
173 35 54
174 35 64
175 35 24
176 35 331
177 35 62
178 35 57
179 35 105
180 35 455
181 35 544
182 35 597
183 35 193
184 35 454
185 35 1087
186 35 31
187 35 57
188 35 857
189 35 230
190 35 1147
191 35 32
192 35 44
193 35 381
194 35 991
195 35 130
196 35 366
197 35 674
198 35 892
199 35 36
200 35 42
201 35 586
202 35 2699
203 35 770
204 35 11
205 35 555
206 35 14
207 35 45
208 35 179
209 35 76
210 35 1140
211 35 1101
212 35 26
213 35 723
214 35 1293
215 35 291
216 35 8
217 35 156
218 35 67
219 35 55
220 35 9
221 35 352
222 35 1006
223 35 429
224 35 373
225 35 7
226 35 52
227 35 81
228 35 956
229 35 53
230 35 15
231 35 196
232 35 487
233 35 963
234 35 60
235 35 611
236 35 102
237 35 3
238 35 368
239 35 10
240 35 1109
241 35 290
242 35 960
243 35 842
244 35 10
245 35 30
246 35 515
247 35 191
248 35 575
249 35 1027
250 35 367
251 35 935
252 35 681
253 35 27
254 35 377
255 35 597
256 35 481
257 35 541
258 35 57
259 35 46
260 35 1476
261 35 128
262 35 1049
263 35 818
264 35 25
265 35 733
266 35 57
267 35 11
268 35 28
269 35 518
270 35 618
271 35 566
272 35 1073
273 35 1046
274 35 513
275 35 484
276 35 159
277 35 23
278 35 43
279 35 562
280 35 140
281 35 78
282 35 753
283 35 1113
284 35 71
285 35 60
286 35 55
287 35 857
288 35 617
289 35 981
290 35 25
291 35 115
292 35 1047
293 35 164
294 35 439
295 35 306
296 35 52
297 35 1008
298 35 53
299 35 29
300 35 784
301 35 278
302 35 1160
303 35 868
304 35 53
305 35 13
306 35 794
307 35 50
308 35 96
309 35 631
310 35 78
311 35 465
312 35 330
313 35 69
314 35 575
315 35 59
316 35 1328
317 35 48
318 35 463
319 35 7
320 35 29
321 35 794
322 35 840
323 35 1101
324 35 585
325 35 100
326 35 16
327 35 23
328 35 357
329 35 638
330 35 320
331 35 553
332 35 61
333 35 870
334 35 22
335 35 27
336 35 1083
337 35 164
338 35 8
339 35 388
340 35 78
341 35 26
342 35 21
343 35 139
344 35 36
345 35 402
346 35 63
347 35 60
348 35 385
349 35 571
350 35 85
351 35 373
352 35 47
353 35 624
354 35 22
355 35 46
356 35 16
357 35 248
358 35 50
359 35 100
360 35 819
361 35 847
362 35 62
363 35 48
364 35 18
365 35 41
366 35 581
367 35 832
368 35 732
369 35 569
370 35 54
371 35 22
372 35 88
373 35 77
374 35 527
375 35 673
376 35 170
377 35 462
378 35 57
379 35 93
380 35 6
381 35 40
382 35 70
383 35 1084
384 35 535
385 35 46
386 35 53
387 35 577
388 35 1584
389 35 104
390 35 415
391 35 23
392 35 75
393 35 42
394 35 154
395 35 753
396 35 1272
397 35 46
398 35 1094
399 35 39
400 35 90
401 35 58
402 35 501
403 35 128
404 35 5
405 35 1141
406 35 432
407 35 58
408 35 616
409 35 81
410 35 39
411 35 38
412 35 137
413 35 774
414 35 50
415 35 1550
416 35 37
417 35 1789
418 35 60
419 35 26
420 35 832
421 35 68
422 35 254
423 35 1108
424 35 163
425 35 701
426 35 29
427 35 740
428 35 582
429 35 1027
430 35 24
431 35 401
432 35 801
433 35 1104
434 35 58
435 35 89
436 35 1099
437 35 679
438 35 771
439 35 493
440 35 558
441 35 1035
442 35 515
443 35 585
444 35 35
445 35 550
446 35 591
447 35 605
448 35 917
449 35 774
450 35 885
451 35 145
452 35 1276
453 35 447
454 35 583
455 35 594
456 35 1170
457 35 48
458 35 40
459 35 603
460 35 1335
461 35 988
462 35 484
463 35 37
464 35 21
465 35 59
466 35 712
467 35 11
468 35 767
469 35 923
470 35 472
471 35 50
472 35 47
473 35 1248
474 35 69
475 35 47
476 35 270
477 35 619
478 35 21
479 35 437
480 35 138
481 35 774
482 35 549
483 35 408
484 35 43
485 35 110
486 35 1223
487 35 435
488 35 801
489 35 603
490 35 1042
491 35 868
492 35 1338
493 35 23
494 35 55
495 35 187
496 35 667
497 35 687
498 35 519
499 35 187
500 35 1042
1 36 1623
2 36 5
3 36 26
4 36 7
5 36 25
6 36 672
7 36 107
8 36 1429
9 36 108
10 36 1530
11 36 31
12 36 45
13 36 6
14 36 1482
15 36 16
16 36 11
17 36 31
18 36 1404
19 36 4
20 36 3070
21 36 1817
22 36 3
23 36 14
24 36 12
25 36 60
26 36 2062
27 36 1911
28 36 1549
29 36 753
30 36 583
31 36 2276
32 36 529
33 36 77
34 36 117
35 36 1056
36 36 1844
37 36 788
38 36 2332
39 36 72
40 36 1377
41 36 3
42 36 370
43 36 20
44 36 1577
45 36 1649
46 36 5
47 36 115
48 36 2149
49 36 11
50 36 32
51 36 2369
52 36 5
53 36 2665
54 36 1509
55 36 186
56 36 20
57 36 49
58 36 10
59 36 1397
60 36 3163
61 36 2960
62 36 59
63 36 1904
64 36 1819
65 36 2902
66 36 34
67 36 693
68 36 32
69 36 50
70 36 33
71 36 1858
72 36 1790
73 36 31
74 36 1713
76 36 1954
77 36 52
78 36 96
79 36 23
80 36 22
81 36 3072
82 36 1721
84 36 34
85 36 1925
86 36 6
87 36 27
88 36 1538
89 36 1465
90 36 17
91 36 714
92 36 527
93 36 1895
94 36 31
95 36 3603
96 36 2954
97 36 45
98 36 724
100 36 586
101 36 3024
102 36 6
103 36 3116
104 36 47
105 36 77
106 36 34
107 36 2894
108 36 58
109 36 1673
110 36 31
111 36 12
112 36 2936
113 36 1998
114 36 14
115 36 33
116 36 20
117 36 2018
118 36 1171
119 36 10
120 36 11
121 36 67
122 36 155
123 36 1788
124 36 684
125 36 22
126 36 49
127 36 2203
128 36 715
129 36 2503
130 36 46
131 36 1795
132 36 1812
133 36 43
134 36 1910
135 36 2407
136 36 1420
137 36 37
138 36 1457
139 36 2255
140 36 2006
141 36 9
142 36 740
143 36 9
144 36 65
145 36 1412
146 36 2079
147 36 1033
148 36 2290
149 36 26
150 36 7
151 36 2352
152 36 1527
153 36 5
154 36 89
155 36 1834
156 36 1369
157 36 1927
158 36 1666
159 36 39
160 36 138
161 36 35
162 36 1792
163 36 1
164 36 390
165 36 74
166 36 5
167 36 2318
168 36 1223
169 36 1572
170 36 7
171 36 13
172 36 32
173 36 73
174 36 14
175 36 20
176 36 1219
177 36 655
178 36 5
179 36 1426
180 36 1663
181 36 1492
182 36 1145
183 36 155
184 36 1341
185 36 1932
187 36 64
188 36 1353
189 36 1565
190 36 1651
191 36 51
192 36 33
193 36 1979
194 36 993
195 36 27
196 36 1907
197 36 1289
198 36 1821
199 36 11
200 36 232
201 36 2339
202 36 2349
203 36 1359
204 36 11
205 36 916
206 36 18
207 36 77
208 36 2584
209 36 42
210 36 2265
211 36 1778
212 36 73
213 36 1327
214 36 3205
215 36 1359
216 36 9
217 36 1884
218 36 22
219 36 80
220 36 9
221 36 753
222 36 1888
223 36 1978
224 36 1529
225 36 9
226 36 8
227 36 629
228 36 2966
229 36 79
230 36 44
231 36 1552
232 36 1759
233 36 2064
234 36 64
235 36 2255
236 36 1853
237 36 36
238 36 1849
240 36 2894
241 36 1495
242 36 1445
243 36 2347
244 36 12
245 36 32
246 36 615
247 36 1766
248 36 2814
249 36 1448
250 36 1068
251 36 1830
252 36 1557
253 36 7
254 36 1442
255 36 1767
256 36 1764
257 36 2283
258 36 4
259 36 10
260 36 2599
261 36 1735
262 36 2117
263 36 2209
264 36 17
265 36 2143
266 36 16
267 36 86
268 36 8
269 36 1382
270 36 854
271 36 1854
272 36 2315
273 36 1170
274 36 725
275 36 1774
276 36 1630
277 36 5
278 36 1
279 36 2074
280 36 1309
281 36 4
282 36 2554
283 36 2051
284 36 70
285 36 70
286 36 21
287 36 1808
288 36 2231
289 36 2330
291 36 1716
292 36 1378
293 36 81
294 36 1337
295 36 1955
296 36 18
297 36 2381
298 36 1282
299 36 57
300 36 2068
301 36 963
302 36 2974
303 36 1361
304 36 41
305 36 10
306 36 1251
308 36 42
309 36 2158
310 36 11
311 36 2215
312 36 1967
313 36 61
314 36 2855
315 36 190
316 36 3172
317 36 76
318 36 1655
319 36 14
320 36 9
321 36 2309
322 36 1777
323 36 2030
324 36 3088
325 36 46
326 36 8
327 36 101
328 36 1619
329 36 1136
330 36 2247
331 36 2310
332 36 20
333 36 1730
334 36 36
335 36 5
336 36 3641
337 36 2551
338 36 23
339 36 26
340 36 48
341 36 26
342 36 41
343 36 31
345 36 2467
346 36 56
347 36 108
348 36 1541
349 36 1386
350 36 108
351 36 1591
352 36 21
353 36 1161
354 36 29
355 36 135
356 36 22
357 36 1094
359 36 99
360 36 1549
361 36 1194
362 36 14
363 36 22
364 36 40
365 36 2
366 36 1479
367 36 1040
368 36 2265
369 36 1293
370 36 36
371 36 50
372 36 94
373 36 33
374 36 1712
375 36 2159
376 36 122
377 36 1719
378 36 198
379 36 38
380 36 24
381 36 15
382 36 40
383 36 2271
384 36 1586
385 36 12
386 36 233
387 36 2709
388 36 1869
389 36 113
390 36 3428
391 36 45
392 36 91
393 36 24
394 36 1552
395 36 1259
396 36 3158
397 36 3
398 36 2702
399 36 203
400 36 1907
401 36 2
402 36 999
403 36 6
405 36 2668
406 36 575
407 36 5
408 36 3142
409 36 15
410 36 14
411 36 14
412 36 9
413 36 2490
414 36 6
415 36 1588
416 36 10
417 36 2052
418 36 8
419 36 5
420 36 1326
421 36 33
422 36 1659
423 36 3630
424 36 17
425 36 888
426 36 127
427 36 2349
428 36 1898
429 36 2251
430 36 8
431 36 1920
432 36 2595
433 36 2287
434 36 23
435 36 40
436 36 2096
437 36 1417
438 36 2214
439 36 1717
440 36 732
441 36 2269
442 36 1727
443 36 1037
444 36 5
445 36 1426
446 36 2072
447 36 3146
448 36 1840
449 36 1778
450 36 1837
451 36 34
452 36 1615
453 36 266
454 36 1324
455 36 2343
456 36 2379
457 36 7
458 36 17
459 36 1568
460 36 3075
461 36 1884
462 36 2332
464 36 9
466 36 2598
467 36 18
468 36 2172
469 36 2839
470 36 1521
471 36 141
472 36 1248
473 36 1913
474 36 60
475 36 3
476 36 1325
477 36 1030
478 36 4
479 36 614
480 36 28
481 36 2408
482 36 1636
483 36 1267
484 36 15
485 36 137
486 36 2253
487 36 1367
488 36 1447
489 36 1476
490 36 1364
491 36 1699
492 36 1582
493 36 46
494 36 95
495 36 1951
496 36 1409
497 36 707
498 36 1684
499 36 1160
500 36 3873
2 37 498
3 37 775
4 37 585
5 37 710
6 37 65
7 37 421
9 37 201
11 37 635
12 37 702
13 37 1273
15 37 1079
16 37 694
17 37 747
19 37 1480
21 37 57
22 37 1794
23 37 954
24 37 2273
25 37 834
29 37 95
32 37 95
33 37 677
34 37 239
37 37 59
39 37 945
41 37 1783
42 37 589
43 37 493
46 37 724
47 37 125
48 37 7
49 37 893
50 37 2081
52 37 1052
53 37 26
55 37 141
56 37 519
57 37 1042
58 37 528
62 37 248
66 37 1055
68 37 627
69 37 1597
70 37 563
71 37 4
73 37 1687
75 37 673
76 37 42
77 37 1004
78 37 1392
79 37 943
80 37 880
83 37 536
84 37 1354
86 37 886
87 37 858
90 37 241
92 37 104
94 37 686
97 37 544
99 37 752
102 37 837
103 37 10
104 37 950
105 37 991
106 37 557
108 37 329
110 37 965
111 37 1055
114 37 546
115 37 1455
116 37 1257
119 37 1022
120 37 1047
121 37 1088
122 37 446
124 37 81
125 37 856
126 37 806
130 37 1617
133 37 1049
137 37 1171
141 37 1644
143 37 974
144 37 289
149 37 417
150 37 1453
153 37 309
154 37 829
155 37 59
156 37 2
157 37 10
159 37 535
160 37 527
161 37 61
163 37 2704
164 37 535
165 37 625
166 37 330
168 37 58
170 37 670
171 37 945
172 37 973
173 37 388
174 37 1211
175 37 1028
177 37 70
178 37 1341
179 37 76
180 37 43
183 37 842
186 37 445
187 37 944
191 37 553
192 37 555
195 37 883
196 37 11
199 37 765
200 37 1093
204 37 356
206 37 527
207 37 582
208 37 20
209 37 139
212 37 931
216 37 252
218 37 966
219 37 541
220 37 477
224 37 3
225 37 408
226 37 540
227 37 73
228 37 6
229 37 814
230 37 1334
234 37 1531
237 37 1492
238 37 8
239 37 798
241 37 35
243 37 3
244 37 1228
245 37 797
247 37 24
253 37 318
254 37 2
258 37 525
259 37 1642
260 37 14
261 37 67
264 37 1810
266 37 1098
267 37 1882
268 37 330
277 37 1630
278 37 1470
280 37 107
281 37 927
284 37 257
285 37 1092
286 37 1085
290 37 720
291 37 80
293 37 740
296 37 684
298 37 158
299 37 1630
301 37 53
304 37 978
305 37 1210
307 37 1473
308 37 1076
310 37 637
313 37 640
314 37 2
315 37 772
317 37 926
319 37 1162
320 37 2350
324 37 19
325 37 1144
326 37 915
327 37 921
332 37 217
334 37 512
335 37 746
337 37 42
338 37 788
339 37 1585
340 37 127
341 37 1173
342 37 767
343 37 886
344 37 566
345 37 6
346 37 1863
347 37 724
348 37 1
350 37 102
352 37 592
354 37 623
355 37 1421
356 37 1769
357 37 1
358 37 778
359 37 694
362 37 510
363 37 871
364 37 1275
365 37 1869
366 37 2
367 37 2
369 37 4
370 37 396
371 37 329
372 37 470
373 37 1586
376 37 695
377 37 35
378 37 149
379 37 516
380 37 1628
381 37 1090
382 37 557
383 37 1
385 37 372
386 37 1103
388 37 11
389 37 202
390 37 2
391 37 337
392 37 288
393 37 887
397 37 1155
399 37 1645
400 37 383
401 37 1117
403 37 1184
404 37 1518
407 37 1383
408 37 38
409 37 935
410 37 476
411 37 1498
412 37 1169
414 37 2082
416 37 309
418 37 1109
419 37 476
421 37 122
422 37 2
424 37 1038
426 37 1250
430 37 1777
433 37 46
434 37 229
435 37 647
444 37 865
447 37 30
451 37 668
453 37 619
457 37 701
458 37 1762
459 37 3
463 37 1145
464 37 856
465 37 1108
467 37 402
470 37 6
471 37 496
472 37 164
474 37 257
475 37 542
476 37 33
478 37 680
480 37 782
481 37 4
484 37 243
485 37 243
486 37 1
493 37 1229
494 37 485
495 37 63
496 37 4
2 38 1296
3 38 2422
4 38 1492
5 38 180
6 38 347
7 38 1003
9 38 644
11 38 215
12 38 1667
13 38 370
15 38 1185
16 38 672
17 38 2518
19 38 1336
20 38 10
21 38 255
22 38 1637
23 38 688
24 38 389
25 38 1799
26 38 142
29 38 1055
32 38 1228
33 38 1171
34 38 664
36 38 19
37 38 426
39 38 999
41 38 975
42 38 1056
43 38 1424
46 38 1506
47 38 1873
49 38 681
50 38 1197
52 38 1429
53 38 270
55 38 415
56 38 422
57 38 1541
58 38 568
60 38 34
61 38 12
62 38 985
66 38 2335
68 38 366
69 38 2022
70 38 470
73 38 1724
75 38 694
76 38 450
77 38 1944
78 38 979
79 38 650
80 38 566
81 38 84
83 38 1662
84 38 927
86 38 265
87 38 1920
90 38 1730
92 38 1147
93 38 2
94 38 418
95 38 24
97 38 1512
99 38 607
101 38 105
102 38 1666
103 38 291
104 38 540
105 38 343
106 38 851
108 38 1040
109 38 415
110 38 1645
111 38 990
114 38 990
115 38 46
116 38 704
119 38 1087
120 38 978
121 38 96
122 38 668
124 38 333
125 38 2461
126 38 1699
129 38 6
130 38 2101
131 38 6
133 38 2341
137 38 2579
141 38 470
143 38 1334
144 38 1613
149 38 728
150 38 43
151 38 6
153 38 826
154 38 1359
155 38 253
158 38 1498
159 38 1508
160 38 745
161 38 1098
163 38 1740
164 38 1081
165 38 753
166 38 820
168 38 590
170 38 1841
171 38 1103
172 38 1047
173 38 266
174 38 943
175 38 1045
177 38 348
178 38 1068
179 38 1144
180 38 765
183 38 764
186 38 1303
187 38 963
191 38 1233
192 38 451
195 38 2075
196 38 2241
199 38 172
200 38 2258
202 38 35
204 38 846
206 38 1978
207 38 357
208 38 914
209 38 899
210 38 95
211 38 3
212 38 80
214 38 218
216 38 1763
218 38 672
219 38 141
220 38 1698
224 38 593
225 38 1547
226 38 1336
227 38 374
229 38 1203
230 38 2138
234 38 697
237 38 935
238 38 2323
239 38 627
241 38 1877
244 38 622
245 38 1901
247 38 443
253 38 2006
258 38 1230
259 38 2293
260 38 1549
261 38 1446
264 38 1667
266 38 995
267 38 1599
268 38 1226
277 38 471
278 38 480
280 38 94
281 38 1806
282 38 42
284 38 1096
285 38 81
286 38 1001
290 38 728
291 38 1395
293 38 1628
296 38 597
298 38 977
299 38 2070
301 38 273
304 38 967
305 38 352
306 38 4
307 38 1639
308 38 1540
310 38 1057
313 38 593
314 38 82
315 38 2185
316 38 209
317 38 948
319 38 965
320 38 1322
322 38 7
324 38 215
325 38 1561
326 38 1476
327 38 538
328 38 154
329 38 826
332 38 639
334 38 806
335 38 655
336 38 24
337 38 742
338 38 2200
339 38 2421
340 38 910
341 38 123
342 38 1807
343 38 2071
344 38 1640
345 38 605
346 38 1366
347 38 1684
348 38 596
350 38 2001
351 38 154
352 38 527
354 38 685
355 38 639
356 38 500
358 38 1997
359 38 997
362 38 1389
363 38 2354
364 38 729
365 38 73
370 38 428
371 38 819
372 38 744
373 38 246
376 38 3082
377 38 825
378 38 370
379 38 1642
380 38 667
381 38 407
382 38 1677
385 38 1750
386 38 2164
389 38 2295
391 38 1364
392 38 202
393 38 1710
395 38 8
396 38 207
397 38 1339
399 38 2825
400 38 1284
401 38 873
403 38 463
404 38 895
407 38 1641
408 38 167
409 38 1626
410 38 1285
411 38 1143
412 38 480
413 38 38
414 38 178
416 38 2074
418 38 1547
419 38 2386
421 38 1193
423 38 37
424 38 694
426 38 61
429 38 3
430 38 1691
432 38 192
433 38 877
434 38 1031
435 38 156
444 38 1189
446 38 179
447 38 179
448 38 4
451 38 1610
453 38 993
455 38 856
457 38 614
458 38 1881
460 38 7
463 38 1478
464 38 1494
465 38 585
466 38 6
467 38 1613
469 38 13
471 38 348
472 38 1023
473 38 385
474 38 619
475 38 1338
476 38 526
478 38 1612
480 38 1683
481 38 4
484 38 2425
485 38 878
486 38 82
493 38 769
494 38 713
495 38 226
500 38 50
2 39 718
3 39 1259
4 39 1242
5 39 1080
6 39 708
7 39 677
8 39 37
9 39 919
11 39 99
12 39 1197
13 39 67
14 39 40
15 39 1727
16 39 956
17 39 1628
19 39 1727
20 39 30
21 39 276
22 39 683
23 39 375
24 39 269
25 39 297
26 39 130
27 39 2
29 39 726
32 39 464
33 39 1374
34 39 926
36 39 90
37 39 818
39 39 1065
41 39 324
42 39 752
43 39 1253
46 39 1091
47 39 1191
49 39 351
50 39 1464
52 39 1008
53 39 243
55 39 479
56 39 162
57 39 1812
58 39 1641
60 39 333
61 39 85
62 39 703
65 39 4
66 39 1730
68 39 495
69 39 1089
70 39 1369
72 39 16
73 39 2171
75 39 453
76 39 245
77 39 1027
78 39 747
79 39 1489
80 39 180
81 39 308
83 39 789
84 39 994
86 39 187
87 39 1562
90 39 515
92 39 478
93 39 6
94 39 435
95 39 150
96 39 3
97 39 954
99 39 1282
101 39 290
102 39 279
103 39 188
104 39 633
105 39 740
106 39 1881
108 39 979
109 39 763
110 39 593
111 39 602
114 39 490
115 39 191
116 39 722
119 39 718
120 39 765
121 39 1002
122 39 1393
124 39 673
125 39 1216
126 39 509
129 39 60
130 39 1090
131 39 4
133 39 428
137 39 1253
139 39 34
141 39 1320
143 39 779
144 39 1472
149 39 1289
150 39 85
151 39 74
153 39 1116
154 39 985
155 39 368
157 39 5
158 39 594
159 39 979
160 39 1199
161 39 1610
163 39 579
164 39 689
165 39 830
166 39 426
168 39 480
169 39 38
170 39 1482
171 39 673
172 39 331
173 39 1204
174 39 756
175 39 599
177 39 684
178 39 1090
179 39 885
180 39 380
183 39 323
186 39 1008
187 39 853
191 39 1551
192 39 1370
195 39 738
196 39 1123
199 39 231
200 39 1758
202 39 198
204 39 441
206 39 1385
207 39 740
208 39 646
209 39 1236
210 39 149
211 39 3
212 39 280
214 39 435
216 39 500
218 39 396
219 39 1629
220 39 1411
224 39 640
225 39 798
226 39 1010
227 39 705
229 39 862
230 39 920
231 39 11
234 39 637
235 39 12
236 39 22
237 39 559
238 39 1193
239 39 1285
240 39 2
241 39 1104
244 39 399
245 39 2186
247 39 828
253 39 987
258 39 1106
259 39 1713
260 39 718
261 39 161
264 39 2624
266 39 946
267 39 812
268 39 647
277 39 1336
278 39 712
280 39 1080
281 39 1504
282 39 421
284 39 706
285 39 955
286 39 893
288 39 10
290 39 434
291 39 179
293 39 1155
296 39 1338
298 39 643
299 39 1059
301 39 420
302 39 5
304 39 216
305 39 63
306 39 78
307 39 1123
308 39 158
310 39 514
311 39 63
312 39 2
313 39 1248
314 39 256
315 39 987
316 39 437
317 39 861
319 39 839
320 39 671
322 39 39
324 39 523
325 39 145
326 39 575
327 39 906
328 39 498
329 39 163
332 39 1032
334 39 1879
335 39 724
336 39 124
337 39 1098
338 39 349
339 39 693
340 39 1275
341 39 706
342 39 269
343 39 822
344 39 833
345 39 318
346 39 1084
347 39 674
348 39 609
350 39 1188
351 39 456
352 39 993
354 39 876
355 39 352
356 39 569
358 39 264
359 39 339
360 39 8
362 39 1152
363 39 1329
364 39 1461
365 39 244
370 39 902
371 39 747
372 39 545
373 39 551
376 39 565
377 39 423
378 39 534
379 39 331
380 39 329
381 39 459
382 39 355
385 39 530
386 39 1762
388 39 8
389 39 935
391 39 867
392 39 473
393 39 615
395 39 63
396 39 442
397 39 932
398 39 3
399 39 563
400 39 885
401 39 994
403 39 2094
404 39 641
407 39 566
408 39 552
409 39 900
410 39 752
411 39 1291
412 39 2100
413 39 428
414 39 474
416 39 1024
418 39 443
419 39 439
421 39 419
423 39 157
424 39 763
426 39 483
429 39 39
430 39 638
432 39 580
433 39 914
434 39 308
435 39 1075
444 39 330
446 39 136
447 39 545
448 39 5
451 39 1416
453 39 705
455 39 1162
457 39 1441
458 39 3421
460 39 22
463 39 1022
464 39 595
465 39 489
466 39 89
467 39 753
469 39 58
471 39 578
472 39 651
473 39 606
474 39 526
475 39 1074
476 39 710
478 39 618
480 39 1333
481 39 21
484 39 644
485 39 685
486 39 204
492 39 39
493 39 1466
494 39 574
495 39 345
500 39 65
2 40 275
3 40 89
4 40 285
5 40 180
6 40 87
7 40 56
8 40 12
9 40 269
11 40 68
12 40 156
13 40 30
14 40 12
15 40 94
16 40 191
17 40 1137
19 40 968
20 40 6
21 40 205
22 40 467
23 40 230
24 40 148
25 40 120
26 40 55
27 40 4
29 40 370
32 40 288
33 40 150
34 40 257
36 40 75
37 40 129
39 40 727
41 40 94
42 40 187
43 40 225
46 40 307
47 40 213
49 40 263
50 40 141
52 40 249
53 40 130
55 40 216
56 40 148
57 40 377
58 40 280
60 40 18
61 40 64
62 40 727
66 40 176
68 40 163
69 40 50
70 40 168
72 40 8
73 40 269
75 40 67
76 40 111
77 40 141
78 40 256
79 40 72
80 40 66
81 40 67
83 40 980
84 40 148
86 40 259
87 40 154
90 40 462
92 40 279
94 40 74
95 40 75
97 40 134
99 40 700
101 40 60
102 40 336
103 40 103
104 40 149
105 40 118
106 40 170
108 40 158
109 40 61
110 40 223
111 40 143
114 40 90
115 40 119
116 40 310
119 40 162
120 40 198
121 40 46
122 40 35
124 40 66
125 40 86
126 40 43
129 40 13
130 40 59
133 40 542
137 40 138
139 40 5
141 40 94
143 40 747
144 40 545
149 40 296
150 40 97
151 40 2
153 40 154
154 40 175
155 40 103
157 40 17
158 40 143
159 40 156
160 40 77
161 40 560
163 40 493
164 40 156
165 40 421
166 40 662
168 40 77
169 40 8
170 40 432
171 40 196
172 40 536
173 40 125
174 40 358
175 40 156
177 40 70
178 40 179
179 40 650
180 40 171
183 40 739
186 40 421
187 40 224
191 40 482
192 40 181
195 40 418
196 40 80
199 40 139
200 40 67
202 40 78
204 40 633
206 40 103
207 40 86
208 40 81
209 40 162
210 40 77
212 40 489
214 40 68
216 40 414
218 40 169
219 40 112
220 40 303
224 40 132
225 40 674
226 40 129
227 40 64
229 40 136
230 40 670
234 40 229
235 40 3
236 40 5
237 40 193
238 40 76
239 40 725
241 40 35
244 40 55
245 40 429
247 40 441
253 40 214
258 40 140
259 40 65
260 40 252
261 40 121
264 40 201
266 40 471
267 40 479
268 40 175
277 40 90
278 40 84
280 40 27
281 40 507
282 40 46
284 40 819
285 40 54
286 40 419
288 40 2
290 40 62
291 40 98
293 40 194
296 40 215
298 40 79
299 40 63
301 40 55
304 40 35
305 40 33
306 40 8
307 40 445
308 40 100
310 40 134
311 40 38
312 40 3
313 40 212
314 40 36
315 40 132
316 40 56
317 40 226
319 40 513
320 40 76
322 40 13
324 40 97
325 40 110
326 40 159
327 40 629
328 40 23
329 40 178
332 40 543
334 40 136
335 40 146
336 40 81
337 40 89
338 40 232
339 40 372
340 40 141
341 40 139
342 40 137
343 40 387
344 40 1022
345 40 56
346 40 323
347 40 148
348 40 125
350 40 213
351 40 20
352 40 84
354 40 235
355 40 1554
356 40 468
358 40 669
359 40 166
362 40 221
363 40 87
364 40 141
365 40 373
370 40 37
371 40 251
372 40 615
373 40 346
376 40 204
377 40 136
378 40 228
379 40 330
380 40 202
381 40 97
382 40 309
385 40 373
386 40 68
388 40 6
389 40 379
390 40 4
391 40 99
392 40 53
393 40 215
395 40 3
396 40 58
397 40 251
399 40 558
400 40 55
401 40 54
403 40 227
404 40 302
407 40 771
408 40 126
409 40 87
410 40 320
411 40 90
412 40 255
413 40 54
414 40 59
416 40 194
418 40 285
419 40 573
421 40 727
423 40 68
424 40 271
426 40 68
430 40 501
432 40 59
433 40 73
434 40 136
435 40 84
444 40 217
446 40 61
447 40 119
448 40 4
451 40 169
453 40 172
455 40 84
457 40 231
458 40 226
460 40 12
463 40 378
464 40 188
465 40 511
466 40 6
467 40 692
469 40 61
471 40 248
472 40 91
473 40 168
474 40 79
475 40 90
476 40 131
478 40 192
480 40 174
481 40 20
484 40 1340
485 40 89
486 40 32
492 40 15
493 40 143
494 40 599
495 40 152
500 40 11
23 41 2
42 41 7
49 41 4
56 41 9
60 41 1
74 41 3
115 41 1
131 41 4
143 41 6
152 41 3
153 41 6
164 41 7
184 41 1
200 41 3
202 41 3
203 41 3
210 41 2
211 41 5
217 41 1
252 41 4
253 41 7
269 41 4
287 41 3
298 41 5
303 41 4
320 41 4
337 41 6
358 41 4
359 41 4
385 41 3
386 41 6
398 41 2
401 41 3
414 41 9
415 41 4
416 41 7
440 41 1
450 41 7
451 41 7
462 41 2
472 41 4
480 41 10
496 41 3
499 41 2
1 42 21
2 42 74
3 42 142
4 42 30
5 42 28
6 42 40
7 42 14
8 42 51
9 42 32
11 42 49
12 42 48
13 42 57
14 42 43
15 42 26
16 42 63
17 42 17
19 42 42
20 42 225
21 42 280
22 42 38
23 42 19
24 42 141
25 42 89
26 42 28
27 42 65
28 42 30
29 42 128
30 42 15
31 42 93
32 42 69
33 42 77
34 42 31
35 42 20
36 42 27
37 42 241
38 42 17
39 42 123
40 42 12
41 42 56
42 42 91
43 42 104
44 42 30
45 42 25
46 42 103
47 42 85
48 42 261
49 42 23
50 42 47
51 42 6
52 42 21
53 42 24
54 42 11
55 42 8
56 42 33
57 42 22
58 42 214
59 42 8
60 42 43
61 42 16
62 42 37
63 42 21
64 42 5
65 42 84
66 42 81
67 42 33
68 42 104
69 42 70
70 42 48
71 42 4
72 42 32
73 42 32
74 42 8
75 42 80
76 42 17
77 42 8
78 42 271
79 42 84
80 42 32
81 42 36
82 42 8
83 42 27
84 42 6
85 42 13
86 42 190
87 42 171
88 42 26
89 42 31
90 42 53
91 42 4
92 42 73
93 42 9
94 42 436
95 42 77
96 42 90
97 42 19
98 42 14
99 42 43
100 42 13
101 42 42
102 42 32
103 42 56
104 42 188
105 42 39
106 42 18
107 42 50
108 42 237
109 42 69
110 42 67
111 42 33
112 42 7
113 42 20
114 42 9
115 42 54
116 42 39
118 42 1
119 42 34
120 42 11
121 42 25
122 42 39
123 42 26
124 42 26
125 42 119
126 42 73
127 42 24
128 42 9
129 42 45
130 42 97
131 42 28
132 42 7
133 42 18
134 42 65
135 42 16
136 42 20
137 42 33
138 42 13
139 42 44
141 42 24
142 42 30
143 42 73
144 42 43
145 42 19
146 42 129
147 42 5
148 42 27
149 42 153
150 42 31
151 42 13
152 42 64
153 42 37
154 42 26
155 42 60
156 42 22
157 42 34
158 42 6
159 42 23
160 42 25
161 42 134
162 42 22
163 42 121
164 42 81
165 42 151
166 42 35
167 42 15
168 42 46
169 42 44
170 42 8
171 42 22
172 42 62
173 42 42
174 42 95
175 42 22
176 42 5
177 42 29
178 42 55
179 42 23
180 42 37
181 42 15
182 42 32
183 42 29
184 42 2
185 42 9
186 42 40
187 42 71
188 42 26
190 42 17
191 42 85
192 42 44
194 42 11
195 42 153
196 42 64
197 42 12
198 42 55
199 42 58
200 42 85
201 42 22
202 42 32
203 42 6
204 42 38
205 42 23
206 42 103
207 42 21
208 42 37
209 42 15
210 42 17
211 42 25
212 42 10
213 42 5
214 42 55
216 42 74
217 42 27
218 42 79
219 42 29
220 42 24
221 42 2
222 42 5
224 42 42
225 42 24
226 42 43
227 42 29
228 42 264
229 42 5
230 42 18
231 42 19
232 42 7
233 42 6
234 42 88
235 42 60
236 42 34
237 42 139
238 42 84
239 42 49
240 42 17
241 42 34
242 42 74
243 42 28
244 42 27
245 42 104
246 42 14
247 42 126
248 42 134
249 42 49
250 42 1
251 42 6
252 42 3
253 42 32
254 42 10
255 42 27
256 42 26
257 42 24
258 42 45
259 42 65
260 42 66
261 42 181
262 42 2
263 42 38
264 42 48
265 42 24
266 42 28
267 42 43
268 42 49
269 42 21
270 42 3
271 42 8
272 42 9
273 42 1
274 42 9
275 42 20
277 42 27
278 42 13
279 42 65
280 42 33
281 42 68
282 42 34
284 42 46
285 42 40
286 42 33
287 42 8
288 42 50
289 42 19
290 42 71
291 42 120
292 42 4
293 42 44
294 42 36
295 42 10
296 42 53
297 42 6
298 42 78
299 42 92
300 42 55
301 42 17
302 42 23
303 42 7
304 42 10
305 42 46
306 42 51
307 42 35
308 42 64
309 42 51
310 42 63
311 42 50
312 42 81
313 42 111
314 42 91
315 42 66
316 42 47
317 42 71
318 42 8
319 42 25
320 42 120
321 42 85
322 42 8
323 42 118
324 42 14
325 42 72
326 42 59
327 42 121
328 42 70
329 42 99
330 42 114
331 42 25
332 42 101
333 42 62
334 42 21
335 42 16
336 42 79
337 42 53
338 42 125
339 42 41
340 42 8
341 42 61
342 42 85
343 42 160
344 42 27
345 42 85
346 42 142
347 42 37
348 42 42
349 42 6
350 42 86
351 42 66
352 42 100
353 42 19
354 42 43
355 42 49
356 42 5
357 42 18
358 42 13
359 42 25
360 42 63
361 42 45
362 42 116
363 42 118
364 42 55
365 42 12
366 42 16
367 42 25
368 42 6
369 42 16
370 42 67
371 42 105
372 42 29
373 42 29
374 42 29
375 42 30
376 42 71
377 42 40
378 42 3
379 42 57
380 42 37
381 42 50
382 42 66
383 42 228
384 42 31
385 42 131
386 42 116
387 42 101
388 42 43
389 42 101
390 42 62
391 42 20
392 42 24
393 42 50
395 42 49
396 42 53
397 42 23
398 42 43
399 42 147
400 42 77
401 42 45
403 42 251
404 42 88
405 42 60
406 42 35
407 42 54
408 42 13
409 42 141
410 42 57
411 42 27
412 42 247
413 42 35
414 42 94
415 42 19
416 42 33
417 42 52
418 42 8
419 42 78
420 42 20
421 42 8
422 42 2
423 42 54
424 42 39
425 42 4
426 42 32
427 42 21
428 42 64
429 42 53
430 42 35
431 42 9
432 42 49
433 42 93
434 42 63
435 42 37
436 42 2
437 42 27
438 42 33
439 42 64
440 42 8
441 42 65
442 42 12
443 42 19
444 42 43
445 42 9
446 42 27
447 42 8
448 42 9
449 42 4
450 42 12
451 42 4
453 42 66
454 42 27
455 42 114
456 42 18
457 42 57
458 42 17
459 42 23
460 42 190
461 42 47
462 42 41
463 42 17
464 42 45
465 42 106
466 42 50
467 42 18
468 42 31
469 42 16
470 42 9
471 42 26
472 42 81
473 42 19
474 42 64
475 42 63
476 42 68
477 42 28
478 42 73
479 42 21
480 42 2
481 42 5
482 42 20
483 42 17
484 42 40
485 42 225
486 42 29
487 42 5
488 42 1
489 42 7
490 42 6
491 42 75
492 42 39
493 42 72
494 42 30
495 42 55
496 42 12
497 42 31
498 42 39
499 42 14
500 42 38
1 43 361
2 43 3803
3 43 2978
4 43 1769
5 43 2554
6 43 1521
7 43 1943
8 43 1069
9 43 2296
10 43 967
11 43 1773
12 43 874
13 43 1080
14 43 1007
15 43 3429
16 43 2716
17 43 3925
18 43 1123
19 43 1822
20 43 1413
21 43 3579
22 43 2257
23 43 1799
24 43 1428
25 43 2214
26 43 2146
27 43 940
28 43 423
29 43 1293
30 43 763
31 43 2044
32 43 1310
33 43 2415
34 43 2392
35 43 723
36 43 2367
37 43 1987
38 43 1140
39 43 1724
40 43 484
41 43 3128
42 43 2587
43 43 1320
44 43 930
45 43 926
46 43 4101
47 43 2792
48 43 2330
49 43 1806
50 43 1087
51 43 1418
52 43 2501
53 43 2014
54 43 655
55 43 2100
56 43 1749
57 43 2387
58 43 822
59 43 742
60 43 1784
61 43 1486
62 43 4182
63 43 884
64 43 624
65 43 909
66 43 2347
67 43 549
68 43 2122
69 43 1364
70 43 2231
71 43 651
72 43 1625
73 43 2151
74 43 1249
75 43 1020
76 43 1829
77 43 1549
78 43 2446
79 43 1630
80 43 915
81 43 1835
82 43 1103
83 43 2276
84 43 2783
85 43 309
86 43 1712
87 43 2555
88 43 821
89 43 797
90 43 1780
91 43 1311
92 43 1300
93 43 1754
94 43 996
95 43 1111
96 43 985
97 43 2799
98 43 1610
99 43 1389
100 43 760
101 43 1940
102 43 4312
103 43 2398
104 43 2267
105 43 2057
106 43 2968
107 43 744
108 43 3287
109 43 1446
110 43 1851
111 43 760
112 43 917
113 43 2385
114 43 3143
115 43 3320
116 43 1696
117 43 1308
118 43 661
119 43 1561
120 43 1652
121 43 1044
122 43 1765
123 43 1263
124 43 1547
125 43 3040
126 43 1858
127 43 1160
128 43 1622
129 43 435
130 43 1421
131 43 1690
132 43 1120
133 43 1484
134 43 760
135 43 993
136 43 1010
137 43 4220
138 43 1382
139 43 1396
140 43 1320
141 43 2608
142 43 545
143 43 1900
144 43 3516
145 43 684
146 43 1328
147 43 1639
148 43 617
149 43 4039
150 43 2564
151 43 1452
152 43 1165
153 43 1495
154 43 3585
155 43 697
156 43 542
157 43 817
158 43 1482
159 43 2824
160 43 2085
161 43 2032
162 43 980
163 43 3087
164 43 2475
165 43 1567
166 43 1620
167 43 1411
168 43 2713
169 43 1069
170 43 2171
171 43 1253
172 43 3741
173 43 3703
174 43 1455
175 43 691
176 43 1363
177 43 1510
178 43 2537
179 43 2541
180 43 789
181 43 595
182 43 574
183 43 1424
184 43 871
185 43 1018
186 43 2977
187 43 1431
188 43 996
189 43 1245
190 43 941
191 43 1718
192 43 2242
193 43 1431
194 43 722
195 43 2867
196 43 1302
197 43 483
198 43 766
199 43 1521
200 43 3033
201 43 807
202 43 2025
203 43 937
204 43 1621
205 43 1854
206 43 861
207 43 1190
208 43 1124
209 43 2401
210 43 2574
211 43 1669
212 43 1864
213 43 2035
214 43 1681
215 43 1410
216 43 1730
217 43 899
218 43 1550
219 43 1066
220 43 1562
221 43 1321
222 43 1243
223 43 1392
224 43 1787
225 43 3834
226 43 797
227 43 1528
228 43 1454
229 43 2598
230 43 325
231 43 931
232 43 670
233 43 922
234 43 2415
235 43 1758
236 43 1507
237 43 2736
238 43 1234
239 43 1312
240 43 1106
241 43 1092
242 43 1692
243 43 1894
244 43 477
245 43 3045
246 43 584
247 43 710
248 43 1334
249 43 1151
250 43 1060
251 43 1319
252 43 1003
253 43 1569
254 43 737
255 43 1850
256 43 1335
257 43 1130
258 43 861
259 43 1545
260 43 803
261 43 1549
262 43 701
263 43 1549
264 43 2559
265 43 2446
266 43 1033
267 43 2209
268 43 2007
269 43 900
270 43 968
271 43 629
272 43 1289
273 43 1366
274 43 1570
275 43 1260
276 43 955
277 43 2603
278 43 1580
279 43 795
280 43 961
281 43 2317
282 43 1586
283 43 1015
284 43 4344
285 43 978
286 43 993
287 43 1727
288 43 1702
289 43 653
290 43 1067
291 43 1501
292 43 693
293 43 853
294 43 551
295 43 649
296 43 1403
297 43 1276
298 43 409
299 43 1388
300 43 1598
301 43 1231
302 43 1088
303 43 1192
304 43 1364
305 43 1029
306 43 1181
307 43 2055
308 43 956
309 43 800
310 43 760
311 43 2054
312 43 986
313 43 1775
314 43 1131
315 43 3789
316 43 1750
317 43 1464
318 43 535
319 43 1478
320 43 3688
321 43 2104
322 43 3074
323 43 1314
324 43 1075
325 43 975
326 43 2270
327 43 1467
328 43 1528
329 43 2287
330 43 1033
331 43 758
332 43 1097
333 43 829
334 43 3038
335 43 2255
336 43 1128
337 43 1554
338 43 1866
339 43 3534
340 43 2375
341 43 3053
342 43 2236
343 43 2818
344 43 2341
345 43 1772
346 43 2466
347 43 1678
348 43 1782
349 43 695
350 43 2879
351 43 1587
352 43 798
353 43 563
354 43 1075
355 43 3035
356 43 1364
357 43 1391
358 43 2267
359 43 1963
360 43 973
361 43 756
362 43 1306
363 43 2934
364 43 2075
365 43 503
366 43 947
367 43 768
368 43 2436
369 43 574
370 43 2206
371 43 2683
372 43 2259
373 43 3351
374 43 1349
375 43 1317
376 43 3272
377 43 751
378 43 2070
379 43 2671
380 43 2020
381 43 3129
382 43 2625
383 43 2309
384 43 945
385 43 2410
386 43 3068
387 43 1386
388 43 845
389 43 2881
390 43 1295
391 43 1802
392 43 1506
393 43 1998
394 43 980
395 43 1239
396 43 1699
397 43 2454
398 43 1229
399 43 1859
400 43 2000
401 43 1491
402 43 1697
403 43 1222
404 43 4112
405 43 710
406 43 1334
407 43 2073
408 43 1075
409 43 1563
410 43 1303
411 43 1520
412 43 1233
413 43 1502
414 43 3385
415 43 1718
416 43 1437
417 43 1552
418 43 1063
419 43 2992
420 43 1021
421 43 902
422 43 840
423 43 1101
424 43 2309
425 43 987
426 43 2662
427 43 1187
428 43 783
429 43 1532
430 43 2137
431 43 280
432 43 2048
433 43 2611
434 43 2996
435 43 3408
436 43 731
437 43 1030
438 43 1659
439 43 1903
440 43 748
441 43 1224
442 43 1031
443 43 753
444 43 1817
445 43 684
446 43 2126
447 43 1075
448 43 1826
449 43 1119
450 43 1825
451 43 1075
452 43 1455
453 43 2193
454 43 581
455 43 1630
456 43 968
457 43 1437
458 43 1869
459 43 954
460 43 1438
461 43 447
462 43 1070
463 43 1011
464 43 2355
465 43 1643
466 43 462
467 43 3942
468 43 960
469 43 1513
470 43 765
471 43 2553
472 43 425
473 43 1004
474 43 1350
475 43 839
476 43 2067
477 43 719
478 43 3889
479 43 1398
480 43 1035
481 43 1806
482 43 879
483 43 845
484 43 2596
485 43 1387
486 43 922
487 43 890
488 43 1324
489 43 819
490 43 692
491 43 807
492 43 1057
493 43 2086
494 43 2323
495 43 681
496 43 820
497 43 564
498 43 420
499 43 567
500 43 1587
1 44 2
3 44 4
6 44 4
8 44 3
9 44 20
11 44 5
14 44 3
18 44 3
21 44 5
22 44 5
24 44 16
27 44 2
28 44 2
31 44 5
34 44 21
39 44 9
53 44 9
60 44 6
67 44 1
79 44 2
80 44 10
87 44 4
90 44 1
94 44 19
98 44 1
108 44 6
124 44 2
125 44 7
128 44 5
134 44 5
142 44 2
144 44 3
146 44 1
148 44 1
157 44 3
161 44 4
162 44 10
165 44 13
169 44 3
174 44 1
177 44 2
182 44 2
216 44 3
218 44 3
227 44 8
237 44 5
247 44 15
248 44 8
253 44 14
260 44 5
264 44 11
274 44 5
310 44 5
312 44 4
313 44 5
314 44 2
321 44 5
323 44 2
329 44 2
333 44 13
341 44 4
345 44 5
356 44 8
358 44 3
363 44 4
366 44 6
367 44 6
370 44 6
379 44 2
382 44 8
385 44 8
387 44 6
388 44 4
389 44 3
398 44 4
399 44 3
405 44 10
409 44 7
411 44 5
414 44 8
416 44 11
421 44 4
428 44 6
430 44 1
433 44 8
437 44 7
451 44 5
452 44 3
453 44 4
459 44 3
462 44 4
463 44 1
471 44 8
480 44 2
483 44 4
492 44 4
497 44 1
498 44 1
1 45 766
2 45 2069
3 45 3032
4 45 1642
5 45 1644
6 45 2434
7 45 2122
8 45 2269
9 45 1308
10 45 1586
11 45 2786
12 45 2182
13 45 1346
14 45 2225
15 45 2260
16 45 2882
17 45 2262
18 45 1100
19 45 1979
20 45 2844
21 45 4392
22 45 2080
23 45 1347
24 45 1964
25 45 1731
26 45 1348
27 45 2049
28 45 746
29 45 1029
30 45 691
31 45 1298
32 45 2979
33 45 2002
34 45 1309
35 45 942
36 45 1693
37 45 1860
38 45 999
39 45 2393
40 45 1657
41 45 1725
42 45 2126
43 45 1823
44 45 847
45 45 842
46 45 3402
47 45 1117
48 45 2665
49 45 1390
50 45 1774
51 45 1434
52 45 3589
53 45 1637
54 45 1171
55 45 1098
56 45 1495
57 45 1764
58 45 2510
59 45 1071
60 45 1225
61 45 2574
62 45 3669
63 45 1311
64 45 1863
65 45 1990
66 45 2058
67 45 907
68 45 2568
69 45 1068
70 45 3245
71 45 1943
72 45 2002
73 45 3085
74 45 1841
75 45 1438
76 45 2034
77 45 2982
78 45 2513
79 45 2240
80 45 1562
81 45 1779
82 45 1688
83 45 1273
84 45 2947
85 45 2137
86 45 2659
87 45 2870
88 45 974
89 45 2222
90 45 2634
91 45 932
92 45 2890
93 45 1916
94 45 1507
95 45 1629
96 45 1982
97 45 2188
98 45 2427
99 45 2919
100 45 870
101 45 1767
102 45 2513
103 45 1965
104 45 2003
105 45 2484
106 45 3034
107 45 1124
108 45 1369
109 45 1389
110 45 1782
111 45 1417
112 45 1436
113 45 1016
114 45 2418
115 45 2583
116 45 1704
117 45 1129
118 45 1765
119 45 1560
120 45 2038
121 45 1827
122 45 321
123 45 2333
124 45 2389
125 45 2963
126 45 1301
127 45 2448
128 45 2472
129 45 949
130 45 1075
131 45 1892
132 45 928
133 45 2680
134 45 1220
135 45 707
136 45 1175
137 45 3479
138 45 1498
139 45 1798
140 45 1209
141 45 1316
142 45 915
143 45 785
144 45 2217
145 45 1692
146 45 1611
147 45 973
148 45 2073
149 45 4282
150 45 1527
151 45 1689
152 45 1598
153 45 1716
154 45 1860
155 45 2071
156 45 1327
157 45 1239
158 45 2890
159 45 2144
160 45 1278
161 45 3126
162 45 1083
163 45 2603
164 45 2148
165 45 2886
166 45 1387
167 45 1506
168 45 1753
169 45 2261
170 45 2465
171 45 1734
172 45 2083
173 45 1635
174 45 4190
175 45 1418
176 45 1064
177 45 2433
178 45 1649
179 45 2282
180 45 1202
181 45 1638
182 45 541
183 45 1513
184 45 1394
185 45 1571
186 45 2840
187 45 1006
188 45 1330
189 45 1627
190 45 822
191 45 2898
192 45 3293
193 45 1204
194 45 1828
195 45 1388
196 45 1679
197 45 1363
198 45 1952
199 45 1440
200 45 2449
201 45 611
202 45 685
203 45 1017
204 45 1416
205 45 1147
206 45 2278
207 45 1711
208 45 1071
209 45 1302
210 45 2042
211 45 1888
212 45 1949
213 45 1704
214 45 1587
215 45 1155
216 45 2632
217 45 431
218 45 1952
219 45 2580
220 45 1832
221 45 962
222 45 1747
223 45 1192
224 45 2484
225 45 779
226 45 2132
227 45 2451
228 45 1803
229 45 1504
230 45 2635
231 45 1837
232 45 1621
233 45 1076
234 45 1072
235 45 2121
236 45 2041
237 45 2598
238 45 1663
239 45 2919
240 45 868
241 45 1699
242 45 808
243 45 1524
244 45 2072
245 45 3601
246 45 1400
247 45 1678
248 45 1398
249 45 2192
250 45 1148
251 45 1731
252 45 1788
253 45 2133
254 45 1489
255 45 1114
256 45 2363
257 45 2399
258 45 2069
259 45 2506
260 45 2191
261 45 1303
262 45 2057
263 45 1432
264 45 1325
265 45 1573
266 45 2382
267 45 2698
268 45 2286
269 45 918
270 45 2102
271 45 1842
272 45 1318
273 45 1988
274 45 2473
275 45 1705
276 45 1592
277 45 1392
278 45 4451
279 45 1701
280 45 1724
281 45 2277
282 45 1574
283 45 2239
284 45 3493
285 45 1807
286 45 2373
287 45 1093
288 45 2171
289 45 1372
290 45 1493
291 45 1357
292 45 1172
293 45 2158
294 45 1150
295 45 1290
296 45 2501
297 45 1249
298 45 2498
299 45 1040
300 45 1430
301 45 2532
302 45 861
303 45 2433
304 45 1315
305 45 1430
306 45 1588
307 45 1356
308 45 1651
309 45 1688
310 45 2202
311 45 1435
312 45 1937
313 45 2751
314 45 1470
315 45 4368
316 45 1604
317 45 1041
318 45 2213
319 45 2060
320 45 1700
321 45 1292
322 45 1771
323 45 1619
324 45 1590
325 45 1634
326 45 1574
327 45 2300
328 45 2552
329 45 3294
330 45 1563
331 45 633
332 45 2819
333 45 1320
334 45 2958
335 45 2238
336 45 1605
337 45 1097
338 45 3661
339 45 1955
340 45 1329
341 45 2101
342 45 1750
343 45 1376
344 45 1350
345 45 1175
346 45 2694
347 45 2460
348 45 2492
349 45 1094
350 45 1165
351 45 2523
352 45 2279
353 45 552
354 45 1909
355 45 2522
356 45 2278
357 45 1214
358 45 2375
359 45 2072
360 45 2483
361 45 1257
362 45 1791
363 45 3069
364 45 2335
365 45 1477
366 45 1575
367 45 1387
368 45 1639
369 45 1297
370 45 1680
371 45 2237
372 45 1634
373 45 1585
374 45 1681
375 45 2136
376 45 1869
377 45 1218
378 45 1117
379 45 2258
380 45 2648
381 45 3237
382 45 2245
383 45 2767
384 45 824
385 45 4177
386 45 2549
387 45 1345
388 45 1291
389 45 4026
390 45 2065
391 45 3089
392 45 2486
393 45 1791
394 45 1600
395 45 1638
396 45 1691
397 45 3593
398 45 1688
399 45 2989
400 45 2785
401 45 3347
402 45 1294
403 45 1220
404 45 1824
405 45 714
406 45 2112
407 45 1908
408 45 1591
409 45 1544
410 45 2302
411 45 1663
412 45 1213
413 45 1551
414 45 2845
415 45 1888
416 45 2051
417 45 2051
418 45 1907
419 45 3316
420 45 1362
421 45 1803
422 45 1310
423 45 1655
424 45 2061
425 45 2073
426 45 3186
427 45 1430
428 45 1202
429 45 2442
430 45 2140
431 45 2142
432 45 1626
433 45 1921
434 45 3676
435 45 4232
436 45 1987
437 45 1339
438 45 1461
439 45 1838
440 45 737
441 45 1605
442 45 1658
443 45 987
444 45 1860
445 45 1606
446 45 1351
447 45 1594
448 45 2077
449 45 870
450 45 1129
451 45 2389
452 45 1406
453 45 1112
454 45 1893
455 45 1439
456 45 1466
457 45 2611
458 45 2523
459 45 1587
460 45 2798
461 45 1615
462 45 1887
463 45 2395
464 45 1719
465 45 1752
466 45 881
467 45 773
468 45 1798
469 45 2409
470 45 1340
471 45 1648
472 45 2542
473 45 2138
474 45 2616
475 45 2050
476 45 1197
477 45 719
478 45 1775
479 45 1998
480 45 2360
481 45 2625
482 45 800
483 45 854
484 45 1215
485 45 1842
486 45 1830
487 45 1247
488 45 614
489 45 1099
490 45 1202
491 45 1991
492 45 2345
493 45 2416
494 45 1766
495 45 2030
496 45 1120
497 45 865
498 45 717
499 45 1162
500 45 1882
1 46 970
10 46 616
13 46 8
15 46 8
18 46 10
20 46 7
24 46 5
28 46 996
29 46 13
30 46 987
32 46 3
35 46 960
37 46 6
38 46 1068
39 46 3
40 46 925
44 46 235
47 46 4
51 46 961
56 46 7
59 46 681
63 46 13
67 46 943
69 46 4
71 46 310
74 46 1179
75 46 6
76 46 1
79 46 6
80 46 4
82 46 761
88 46 996
89 46 20
91 46 394
92 46 4
98 46 1085
100 46 245
103 46 5
104 46 4
105 46 6
109 46 3
112 46 38
113 46 4
117 46 1204
118 46 767
121 46 5
122 46 2
126 46 6
128 46 1079
129 46 4
130 46 7
133 46 6
135 46 877
136 46 117
138 46 80
140 46 1196
141 46 8
142 46 953
143 46 6
145 46 587
147 46 7
148 46 12
149 46 4
153 46 8
154 46 4
156 46 592
162 46 1123
165 46 4
170 46 8
171 46 8
176 46 1033
181 46 569
182 46 657
184 46 38
187 46 5
188 46 103
190 46 720
193 46 1156
194 46 1277
197 46 1408
198 46 4
200 46 6
201 46 1278
203 46 572
210 46 9
213 46 1147
215 46 687
217 46 664
219 46 6
221 46 401
222 46 4
223 46 1189
228 46 9
232 46 953
233 46 6
234 46 3
235 46 4
242 46 9
246 46 594
248 46 2
250 46 931
251 46 7
252 46 1063
253 46 5
254 46 2
262 46 2
266 46 4
268 46 3
269 46 1056
272 46 2
273 46 1117
274 46 1096
275 46 6
276 46 598
277 46 6
280 46 8
283 46 347
285 46 3
286 46 3
287 46 644
288 46 2
289 46 5
290 46 8
294 46 1
297 46 2
299 46 6
301 46 5
303 46 5
305 46 8
307 46 1
314 46 2
317 46 2
318 46 64
330 46 5
331 46 1322
332 46 6
346 46 5
349 46 725
350 46 4
353 46 638
354 46 5
356 46 7
357 46 492
358 46 3
359 46 5
361 46 5
364 46 5
366 46 12
367 46 1549
369 46 569
374 46 6
375 46 5
379 46 7
382 46 4
386 46 3
387 46 6
389 46 12
391 46 9
394 46 673
398 46 4
400 46 6
402 46 3
403 46 8
405 46 1470
406 46 2
407 46 10
410 46 1
412 46 9
416 46 6
417 46 13
419 46 7
420 46 107
421 46 11
422 46 734
424 46 8
427 46 33
428 46 5
434 46 6
436 46 1
437 46 24
439 46 7
440 46 459
442 46 1263
443 46 1037
445 46 609
450 46 602
452 46 104
456 46 770
459 46 11
460 46 4
461 46 4
462 46 9
466 46 5
468 46 97
470 46 10
477 46 404
479 46 9
483 46 739
487 46 540
488 46 872
489 46 812
491 46 3
493 46 3
496 46 714
497 46 935
498 46 948
499 46 786
2 47 937
3 47 1064
4 47 1160
5 47 2461
6 47 495
7 47 533
8 47 969
9 47 327
11 47 974
12 47 771
13 47 241
14 47 978
15 47 396
16 47 837
17 47 490
19 47 835
20 47 625
21 47 1275
22 47 867
23 47 1596
24 47 1637
25 47 925
26 47 945
27 47 2227
29 47 871
31 47 1113
32 47 473
33 47 1114
34 47 343
36 47 1257
37 47 481
39 47 562
41 47 2777
42 47 543
43 47 1588
45 47 659
46 47 601
47 47 1342
48 47 910
49 47 1561
50 47 632
52 47 289
53 47 582
54 47 402
55 47 49
56 47 873
57 47 1053
58 47 883
60 47 1064
61 47 1256
62 47 2173
64 47 1025
65 47 1321
66 47 1387
68 47 1426
69 47 924
70 47 859
72 47 892
73 47 664
75 47 573
76 47 1011
77 47 1028
78 47 957
79 47 585
80 47 875
81 47 1517
83 47 1009
84 47 280
85 47 555
86 47 532
87 47 471
90 47 600
92 47 455
93 47 1214
94 47 839
95 47 704
96 47 1324
97 47 1255
99 47 381
101 47 1502
102 47 1729
103 47 1115
104 47 2601
105 47 283
106 47 945
107 47 562
108 47 669
109 47 1329
110 47 1603
111 47 321
112 47 4
113 47 503
114 47 646
115 47 545
116 47 2136
119 47 1062
120 47 751
121 47 999
122 47 1228
123 47 888
124 47 520
125 47 1042
126 47 239
127 47 1314
129 47 937
130 47 846
131 47 869
132 47 22
133 47 739
134 47 24
137 47 1219
139 47 1049
141 47 977
143 47 326
144 47 2558
146 47 1106
148 47 4
149 47 317
150 47 934
151 47 669
152 47 281
153 47 1299
154 47 1365
155 47 1499
157 47 150
158 47 808
159 47 1303
160 47 437
161 47 739
163 47 1381
164 47 507
165 47 618
166 47 885
167 47 978
168 47 160
169 47 997
170 47 399
171 47 83
172 47 429
173 47 1418
174 47 643
175 47 288
177 47 556
178 47 324
179 47 1499
180 47 371
183 47 998
184 47 3
185 47 1606
186 47 972
187 47 1370
189 47 836
191 47 719
192 47 872
195 47 1119
196 47 891
198 47 1201
199 47 1751
200 47 472
202 47 2577
204 47 776
205 47 1345
206 47 539
207 47 828
208 47 822
209 47 923
210 47 1238
211 47 917
212 47 915
214 47 1042
216 47 570
218 47 414
219 47 990
220 47 178
224 47 621
225 47 883
226 47 511
227 47 567
228 47 495
229 47 169
230 47 553
231 47 1257
234 47 572
235 47 508
236 47 959
237 47 398
238 47 811
239 47 386
240 47 1317
241 47 1387
242 47 400
243 47 528
244 47 1104
245 47 1292
247 47 749
248 47 908
249 47 199
253 47 185
254 47 2
255 47 1065
256 47 901
257 47 1357
258 47 527
259 47 1072
260 47 325
261 47 492
262 47 276
263 47 90
264 47 1634
265 47 104
266 47 784
267 47 1992
268 47 421
270 47 627
271 47 991
272 47 700
275 47 14
277 47 1020
278 47 399
279 47 879
280 47 116
281 47 357
282 47 778
284 47 2243
285 47 972
286 47 784
288 47 474
289 47 354
290 47 566
291 47 480
292 47 476
293 47 773
294 47 154
295 47 232
296 47 392
297 47 767
298 47 1417
299 47 845
300 47 498
301 47 654
302 47 1343
303 47 64
304 47 920
305 47 225
306 47 929
307 47 1682
308 47 738
309 47 895
310 47 658
311 47 944
312 47 2282
313 47 230
314 47 1273
315 47 1265
316 47 966
317 47 1377
319 47 705
320 47 1313
321 47 1176
322 47 702
323 47 1100
324 47 1453
325 47 719
326 47 1476
327 47 1071
328 47 458
329 47 1122
330 47 409
332 47 719
333 47 725
334 47 910
335 47 2451
336 47 690
337 47 1286
338 47 1726
339 47 828
340 47 975
341 47 779
342 47 932
343 47 1179
344 47 1026
345 47 297
346 47 950
347 47 770
348 47 611
350 47 1306
351 47 423
352 47 825
354 47 539
355 47 1212
356 47 703
358 47 1737
359 47 970
360 47 253
361 47 20
362 47 1600
363 47 1053
364 47 1673
365 47 192
366 47 319
368 47 125
370 47 796
371 47 304
372 47 722
373 47 1333
374 47 8
375 47 268
376 47 815
377 47 405
378 47 64
379 47 271
380 47 700
381 47 771
382 47 264
383 47 869
384 47 659
385 47 974
386 47 438
387 47 892
388 47 157
389 47 1705
390 47 1302
391 47 162
392 47 345
393 47 1627
395 47 876
396 47 978
397 47 329
398 47 707
399 47 1838
400 47 513
401 47 1176
402 47 3
403 47 1040
404 47 463
406 47 40
407 47 729
408 47 1462
409 47 1045
410 47 233
411 47 976
412 47 1047
413 47 706
414 47 769
415 47 1232
416 47 190
417 47 114
418 47 499
419 47 842
421 47 1644
423 47 643
424 47 898
425 47 630
426 47 1714
427 47 4
428 47 29
429 47 337
430 47 893
431 47 529
432 47 1043
433 47 1461
434 47 396
435 47 854
436 47 272
437 47 8
438 47 90
439 47 880
441 47 803
444 47 761
446 47 968
447 47 1472
448 47 1171
449 47 21
451 47 390
453 47 703
454 47 641
455 47 483
457 47 443
458 47 937
459 47 352
460 47 704
461 47 721
462 47 227
463 47 1030
464 47 1491
465 47 999
466 47 967
467 47 889
469 47 1312
470 47 9
471 47 692
472 47 1367
473 47 315
474 47 1104
475 47 570
476 47 426
478 47 1082
479 47 50
480 47 394
481 47 659
482 47 658
484 47 2143
485 47 1274
486 47 531
490 47 439
491 47 1174
492 47 944
493 47 1629
494 47 696
495 47 1434
500 47 818
2 48 2866
3 48 2146
4 48 2660
5 48 2794
6 48 2359
7 48 3960
8 48 2686
9 48 2426
11 48 2613
12 48 2091
13 48 1163
14 48 2674
15 48 2317
16 48 3949
17 48 3358
18 48 3
19 48 2364
20 48 1314
21 48 2673
22 48 2715
23 48 2923
24 48 2884
25 48 3549
26 48 1727
27 48 2873
29 48 1162
31 48 2744
32 48 1718
33 48 2717
34 48 2542
36 48 3541
37 48 3134
39 48 3594
41 48 2692
42 48 2722
43 48 2706
45 48 1782
46 48 2318
47 48 3363
48 48 3220
49 48 2769
50 48 2707
52 48 4342
53 48 2281
54 48 3191
55 48 1083
56 48 1483
57 48 1876
58 48 4067
60 48 2640
61 48 2343
62 48 3533
63 48 12
64 48 1325
65 48 2428
66 48 2307
68 48 2629
69 48 1632
70 48 3417
72 48 1993
73 48 2642
75 48 2298
76 48 3972
77 48 2583
78 48 3676
79 48 1768
80 48 2063
81 48 2910
83 48 2107
84 48 2792
85 48 1608
86 48 2206
87 48 3406
89 48 35
90 48 3448
92 48 1762
93 48 1992
94 48 2604
95 48 2361
96 48 2452
97 48 2285
99 48 1940
101 48 2953
102 48 4119
103 48 3726
104 48 2628
105 48 4565
106 48 3674
107 48 1925
108 48 2990
109 48 1338
110 48 2580
111 48 2620
113 48 1112
114 48 2246
115 48 3198
116 48 1950
119 48 2633
120 48 2145
121 48 2384
122 48 2758
123 48 2355
124 48 2328
125 48 2228
126 48 2767
127 48 1586
129 48 2456
130 48 1607
131 48 1923
132 48 338
133 48 3146
134 48 98
137 48 2675
139 48 3678
141 48 1703
143 48 3126
144 48 2896
146 48 2225
148 48 6
149 48 3421
150 48 1610
151 48 2214
152 48 1430
153 48 3082
154 48 2764
155 48 2151
157 48 2830
158 48 3509
159 48 2256
160 48 2773
161 48 3336
163 48 1992
164 48 2751
165 48 4134
166 48 1998
167 48 2316
168 48 2768
169 48 2669
170 48 2625
171 48 2391
172 48 2058
173 48 2731
174 48 2395
175 48 2502
177 48 2295
178 48 3242
179 48 2667
180 48 2785
183 48 2748
184 48 3
185 48 1708
186 48 3492
187 48 2235
189 48 2724
191 48 2802
192 48 3224
195 48 4867
196 48 3738
198 48 1314
199 48 3165
200 48 3229
202 48 2950
204 48 2029
205 48 1735
206 48 3241
207 48 4770
208 48 2367
209 48 2561
210 48 3561
211 48 1927
212 48 4877
214 48 1513
216 48 3467
218 48 1920
219 48 2091
220 48 1866
224 48 2545
225 48 3930
226 48 3794
227 48 2354
228 48 2703
229 48 2237
230 48 2127
231 48 1997
233 48 56
234 48 2230
235 48 3754
236 48 1985
237 48 2795
238 48 3628
239 48 1913
240 48 3539
241 48 2495
242 48 2945
243 48 925
244 48 2633
245 48 2503
247 48 1581
248 48 2495
249 48 1471
253 48 4434
254 48 3
255 48 1093
256 48 2407
257 48 1590
258 48 3871
259 48 3739
260 48 4215
261 48 2714
262 48 1216
263 48 911
264 48 3903
265 48 2631
266 48 2495
267 48 3227
268 48 1312
270 48 2534
271 48 1306
272 48 2060
275 48 41
277 48 1687
278 48 2720
279 48 1827
280 48 3283
281 48 2204
282 48 3270
284 48 3622
285 48 2235
286 48 2520
288 48 3736
289 48 1149
290 48 2332
291 48 2749
292 48 3359
293 48 2074
294 48 2833
295 48 1504
296 48 2511
297 48 2209
298 48 2350
299 48 1650
300 48 2683
301 48 1983
302 48 3517
303 48 288
304 48 2707
305 48 1261
306 48 3593
307 48 2694
308 48 2821
309 48 1813
310 48 1601
311 48 3920
312 48 2941
313 48 2889
314 48 1800
315 48 2014
316 48 1516
317 48 2218
319 48 1928
320 48 2184
321 48 2796
322 48 3270
323 48 2204
324 48 4509
325 48 2808
326 48 2502
327 48 2316
328 48 2333
329 48 4159
330 48 1808
332 48 3379
333 48 985
334 48 3724
335 48 4369
336 48 2367
337 48 1845
338 48 3569
339 48 4955
340 48 2622
341 48 3333
342 48 3699
343 48 4922
344 48 2021
345 48 3349
346 48 3311
347 48 3523
348 48 2567
350 48 3368
351 48 2311
352 48 1978
354 48 2562
355 48 3223
356 48 2280
358 48 3062
359 48 2298
360 48 2150
361 48 299
362 48 2703
363 48 2203
364 48 3146
365 48 1602
366 48 1243
368 48 2672
370 48 3069
371 48 3562
372 48 2108
373 48 1621
374 48 43
375 48 1144
376 48 3063
377 48 2715
378 48 1083
379 48 2753
380 48 3790
381 48 2986
382 48 2765
383 48 3169
384 48 1777
385 48 2391
386 48 3195
387 48 2555
388 48 2777
389 48 3430
390 48 3246
391 48 1706
392 48 2122
393 48 2634
395 48 3544
396 48 1599
397 48 4387
398 48 2969
399 48 2154
400 48 3077
401 48 2849
402 48 6
403 48 2560
404 48 2611
406 48 1148
407 48 2566
408 48 4436
409 48 1415
410 48 2101
411 48 2679
412 48 2677
413 48 3176
414 48 4667
415 48 1034
416 48 4325
417 48 1182
418 48 3201
419 48 2802
421 48 1889
423 48 2366
424 48 2953
425 48 2513
426 48 2927
427 48 60
428 48 117
429 48 1562
430 48 2704
431 48 1615
432 48 1570
433 48 2113
434 48 2609
435 48 2585
436 48 1243
438 48 854
439 48 1090
441 48 2832
444 48 3897
446 48 1819
447 48 4481
448 48 1981
449 48 360
451 48 3589
453 48 2091
454 48 1699
455 48 1454
457 48 2544
458 48 4898
459 48 1138
460 48 1308
461 48 2364
462 48 2064
463 48 3067
464 48 2497
465 48 1338
466 48 2505
467 48 3875
469 48 2355
470 48 2
471 48 1915
472 48 2325
473 48 2168
474 48 3399
475 48 3840
476 48 1985
478 48 3038
479 48 1168
480 48 3663
481 48 1387
482 48 1822
484 48 3461
485 48 2062
486 48 3224
490 48 3361
491 48 1323
492 48 2841
493 48 3174
494 48 2090
495 48 2104
500 48 1895
2 49 1475
3 49 361
4 49 516
5 49 1210
15 49 712
16 49 1306
17 49 341
19 49 641
21 49 1004
22 49 145
23 49 11
24 49 555
25 49 579
39 49 361
41 49 309
42 49 765
43 49 81
46 49 778
47 49 1181
49 49 17
50 49 1522
52 49 1634
56 49 288
57 49 122
58 49 111
62 49 808
66 49 311
68 49 659
69 49 162
70 49 665
73 49 839
75 49 410
77 49 567
78 49 886
79 49 124
80 49 9
83 49 20
84 49 290
86 49 1044
87 49 943
90 49 42
97 49 20
102 49 322
104 49 952
105 49 269
106 49 454
108 49 1455
110 49 154
111 49 482
114 49 340
115 49 400
117 49 3
119 49 14
125 49 396
126 49 654
130 49 149
133 49 377
137 49 967
140 49 2
141 49 318
143 49 1075
144 49 727
149 49 270
150 49 707
153 49 324
154 49 1420
159 49 19
161 49 1109
163 49 1298
164 49 840
165 49 434
166 49 503
170 49 807
172 49 890
173 49 237
174 49 475
175 49 440
178 49 623
186 49 1016
187 49 626
191 49 433
192 49 683
193 49 5
195 49 856
199 49 547
200 49 284
204 49 439
206 49 59
207 49 342
216 49 47
220 49 265
223 49 1
225 49 618
226 49 187
229 49 2556
230 49 23
234 49 866
237 49 615
244 49 262
245 49 380
253 49 1617
258 49 164
259 49 472
264 49 226
266 49 281
267 49 282
268 49 385
277 49 287
278 49 18
281 49 569
284 49 759
286 49 252
290 49 377
296 49 875
299 49 150
307 49 71
310 49 440
313 49 590
315 49 527
317 49 687
319 49 11
320 49 240
332 49 732
334 49 466
335 49 1298
338 49 1629
339 49 745
341 49 707
342 49 644
343 49 910
344 49 25
346 49 245
347 49 585
350 49 1155
352 49 2
354 49 147
355 49 489
356 49 1383
358 49 662
362 49 80
363 49 349
364 49 158
365 49 80
370 49 445
371 49 492
373 49 384
376 49 3
379 49 246
380 49 472
381 49 275
382 49 262
385 49 309
386 49 308
389 49 1903
391 49 1060
392 49 2
393 49 154
397 49 1671
400 49 916
401 49 1069
403 49 291
404 49 1415
407 49 43
410 49 7
411 49 818
412 49 281
414 49 182
416 49 1612
418 49 122
419 49 258
421 49 127
424 49 511
426 49 411
430 49 129
434 49 407
435 49 1608
444 49 539
457 49 834
458 49 316
463 49 74
465 49 920
467 49 680
474 49 184
475 49 171
478 49 827
484 49 1384
493 49 167
5 50 8
23 50 4
33 50 5
35 50 4
41 50 8
49 50 2
53 50 3
60 50 5
64 50 1
65 50 3
67 50 4
74 50 3
77 50 8
89 50 4
96 50 3
100 50 3
103 50 2
106 50 11
108 50 7
118 50 9
126 50 13
129 50 5
134 50 6
141 50 8
142 50 2
148 50 1
150 50 6
153 50 8
162 50 5
167 50 4
178 50 7
179 50 5
190 50 4
215 50 3
217 50 3
219 50 4
232 50 3
233 50 1
271 50 1
273 50 2
275 50 4
277 50 6
283 50 2
320 50 7
333 50 3
334 50 4
356 50 4
370 50 7
374 50 4
376 50 6
390 50 5
407 50 2
417 50 1
418 50 8
419 50 5
428 50 3
439 50 2
440 50 2
443 50 5
453 50 5
455 50 5
466 50 4
471 50 5
478 50 12
485 50 5
487 50 1
496 50 9
497 50 2
500 50 5
1 51 245
2 51 372
3 51 1323
4 51 279
5 51 495
6 51 634
7 51 1645
8 51 395
9 51 364
10 51 199
11 51 405
12 51 155
13 51 304
14 51 371
15 51 156
16 51 1078
17 51 457
18 51 106
19 51 476
20 51 772
21 51 1094
22 51 1179
23 51 891
24 51 1896
25 51 466
26 51 813
27 51 1555
28 51 233
29 51 771
30 51 424
31 51 711
32 51 820
33 51 478
34 51 349
35 51 384
36 51 986
37 51 340
38 51 656
39 51 917
40 51 664
41 51 1381
42 51 1368
43 51 813
44 51 1023
45 51 810
46 51 958
47 51 383
48 51 895
49 51 890
50 51 1128
51 51 588
52 51 434
53 51 598
54 51 557
55 51 488
56 51 209
57 51 629
58 51 896
59 51 235
60 51 241
61 51 166
62 51 804
63 51 606
64 51 737
65 51 958
66 51 476
67 51 315
68 51 638
69 51 1143
70 51 373
71 51 661
72 51 310
73 51 314
74 51 95
75 51 591
76 51 1215
77 51 962
78 51 471
79 51 383
80 51 698
81 51 423
82 51 246
83 51 610
84 51 924
85 51 1206
86 51 808
87 51 1067
88 51 196
89 51 382
90 51 377
91 51 550
92 51 912
93 51 761
94 51 984
95 51 960
96 51 965
97 51 522
98 51 282
99 51 889
100 51 260
101 51 405
102 51 1423
103 51 66
104 51 477
105 51 425
106 51 624
107 51 670
108 51 285
109 51 610
110 51 529
111 51 313
112 51 588
113 51 228
114 51 262
115 51 631
116 51 418
117 51 565
118 51 710
119 51 285
120 51 658
121 51 187
122 51 960
123 51 797
124 51 680
125 51 1301
126 51 255
127 51 895
128 51 288
129 51 1274
130 51 1105
131 51 492
132 51 637
133 51 1070
134 51 302
135 51 277
136 51 1368
137 51 227
138 51 810
139 51 460
140 51 530
141 51 222
142 51 337
143 51 285
144 51 887
145 51 705
146 51 547
147 51 244
148 51 670
149 51 916
150 51 169
151 51 1032
152 51 539
153 51 571
154 51 643
155 51 1869
156 51 328
157 51 1876
158 51 1400
159 51 521
160 51 842
161 51 549
162 51 428
163 51 231
164 51 1251
165 51 941
166 51 204
167 51 384
168 51 522
169 51 409
170 51 460
171 51 943
172 51 971
173 51 489
174 51 1099
175 51 330
176 51 394
177 51 667
178 51 964
179 51 420
180 51 774
181 51 698
182 51 293
183 51 1423
184 51 94
185 51 402
186 51 190
187 51 246
188 51 1358
189 51 1336
190 51 494
191 51 1271
192 51 405
193 51 572
194 51 743
195 51 567
196 51 837
197 51 305
198 51 961
199 51 283
200 51 863
201 51 402
202 51 710
203 51 689
204 51 190
205 51 318
206 51 746
207 51 320
208 51 323
209 51 233
210 51 1366
211 51 489
212 51 777
213 51 419
214 51 371
215 51 217
216 51 353
217 51 253
218 51 100
219 51 117
220 51 1040
221 51 542
222 51 102
223 51 549
224 51 963
225 51 550
226 51 380
227 51 648
228 51 213
229 51 843
230 51 1101
231 51 160
232 51 668
233 51 1504
234 51 1898
235 51 284
236 51 340
237 51 2216
238 51 869
239 51 814
240 51 128
241 51 296
242 51 749
243 51 628
244 51 788
245 51 1048
246 51 348
247 51 546
248 51 756
249 51 233
250 51 635
251 51 88
252 51 425
253 51 297
254 51 369
255 51 179
256 51 772
257 51 870
258 51 298
259 51 639
260 51 310
261 51 951
262 51 358
263 51 1684
264 51 150
265 51 294
266 51 1013
267 51 229
268 51 1498
269 51 211
270 51 398
271 51 770
272 51 403
273 51 670
274 51 282
275 51 636
276 51 207
277 51 229
278 51 560
279 51 397
280 51 920
281 51 511
282 51 1038
283 51 353
284 51 787
285 51 193
286 51 1013
287 51 290
288 51 289
289 51 441
290 51 613
291 51 931
292 51 593
293 51 172
294 51 114
295 51 609
296 51 422
297 51 475
298 51 341
299 51 1121
300 51 343
301 51 710
302 51 101
303 51 687
304 51 661
305 51 258
306 51 919
307 51 1079
308 51 544
309 51 384
310 51 756
311 51 449
312 51 1557
313 51 771
314 51 201
315 51 1600
316 51 377
317 51 280
318 51 356
319 51 909
320 51 1083
321 51 712
322 51 917
323 51 598
324 51 764
325 51 605
326 51 538
327 51 930
328 51 192
329 51 115
330 51 1012
331 51 357
332 51 2001
333 51 175
334 51 576
335 51 1195
336 51 1046
337 51 191
338 51 1032
339 51 929
340 51 239
341 51 504
342 51 470
343 51 564
344 51 586
345 51 567
346 51 611
347 51 1550
348 51 1010
349 51 240
350 51 347
351 51 169
352 51 648
353 51 296
354 51 865
355 51 659
356 51 271
357 51 354
358 51 934
359 51 349
360 51 325
361 51 531
362 51 779
363 51 1286
364 51 446
365 51 763
366 51 692
367 51 409
368 51 300
369 51 329
370 51 750
371 51 408
372 51 562
373 51 1502
374 51 651
375 51 107
376 51 283
377 51 769
378 51 486
379 51 840
380 51 168
381 51 219
382 51 792
383 51 894
384 51 812
385 51 316
386 51 861
387 51 832
388 51 1863
389 51 249
390 51 833
391 51 879
392 51 188
393 51 526
394 51 194
395 51 1007
396 51 372
397 51 486
398 51 275
399 51 370
400 51 816
401 51 885
402 51 438
403 51 430
404 51 1654
405 51 371
406 51 376
407 51 705
408 51 791
409 51 384
410 51 868
411 51 874
412 51 469
413 51 1022
414 51 570
415 51 624
416 51 319
417 51 776
418 51 951
419 51 945
420 51 1386
421 51 1538
422 51 567
423 51 968
424 51 183
425 51 409
426 51 953
427 51 1005
428 51 303
429 51 469
430 51 1175
431 51 1219
432 51 1075
433 51 618
434 51 532
435 51 529
436 51 401
437 51 339
438 51 1656
439 51 576
440 51 470
441 51 87
442 51 363
443 51 386
444 51 1510
445 51 680
446 51 771
447 51 811
448 51 740
449 51 655
450 51 287
451 51 1038
452 51 617
453 51 882
454 51 344
455 51 256
456 51 1067
457 51 400
458 51 950
459 51 645
460 51 732
461 51 295
462 51 280
463 51 109
464 51 568
465 51 261
466 51 1281
467 51 600
468 51 431
469 51 159
470 51 345
471 51 681
472 51 364
473 51 710
474 51 290
475 51 378
476 51 93
477 51 281
478 51 925
479 51 414
480 51 1050
481 51 1008
482 51 830
483 51 285
484 51 513
485 51 749
486 51 944
487 51 133
488 51 1057
489 51 358
490 51 595
491 51 941
492 51 366
493 51 524
494 51 562
495 51 1904
496 51 785
497 51 395
498 51 262
499 51 778
500 51 831
1 52 1057
2 52 2288
3 52 2925
4 52 990
5 52 1044
6 52 1349
7 52 1230
8 52 4001
9 52 1369
10 52 1665
11 52 1648
12 52 2699
13 52 4650
14 52 4086
15 52 3760
16 52 2000
17 52 1793
18 52 1180
19 52 2557
20 52 3152
21 52 2835
22 52 1369
23 52 1931
24 52 658
25 52 3190
26 52 2619
27 52 2212
28 52 1031
29 52 1390
30 52 809
31 52 1594
32 52 2022
33 52 2084
34 52 1397
35 52 1302
36 52 1490
37 52 1386
38 52 1386
39 52 1957
40 52 1281
41 52 2672
42 52 3439
43 52 1653
44 52 1860
45 52 2948
46 52 1957
47 52 2079
48 52 2055
49 52 1947
50 52 4579
51 52 2768
52 52 1889
53 52 2371
54 52 1353
55 52 645
56 52 2319
57 52 2682
58 52 2027
59 52 753
60 52 2549
61 52 1621
62 52 1982
63 52 1365
64 52 1366
65 52 1748
66 52 685
67 52 676
68 52 1984
69 52 2020
70 52 1906
71 52 1266
72 52 1600
73 52 2861
74 52 1352
75 52 1682
76 52 1323
77 52 2659
78 52 3341
79 52 1575
80 52 1423
81 52 2087
82 52 1292
83 52 2228
84 52 2128
85 52 1264
86 52 1310
87 52 2162
88 52 881
89 52 2502
90 52 2096
91 52 1428
92 52 1976
93 52 3133
94 52 1598
95 52 2211
96 52 1788
97 52 777
98 52 2118
99 52 1398
100 52 691
101 52 2095
102 52 1815
103 52 2072
104 52 2142
105 52 1232
106 52 2023
107 52 2138
108 52 1722
109 52 2428
110 52 2080
111 52 1781
112 52 1305
113 52 953
114 52 3144
115 52 2580
116 52 4024
117 52 1003
118 52 3409
119 52 1789
120 52 2168
121 52 1513
122 52 2498
123 52 2410
124 52 1313
125 52 2967
126 52 2869
127 52 1721
128 52 2140
129 52 2604
130 52 1929
131 52 3213
132 52 1088
133 52 2265
134 52 1867
135 52 962
136 52 1219
137 52 4337
138 52 1505
139 52 2281
140 52 1022
141 52 3896
142 52 686
143 52 2338
144 52 3086
145 52 942
146 52 1539
147 52 1495
148 52 949
149 52 1299
150 52 4060
151 52 2675
152 52 546
153 52 2007
154 52 2538
155 52 494
156 52 1096
157 52 1651
158 52 2760
159 52 801
160 52 2867
161 52 2566
162 52 1540
163 52 1613
164 52 3368
165 52 2644
166 52 3042
167 52 1357
168 52 2247
169 52 3925
170 52 2529
171 52 2121
172 52 2718
173 52 2749
174 52 2822
175 52 1719
176 52 1310
177 52 1356
178 52 4065
179 52 2830
180 52 2117
181 52 923
182 52 1165
183 52 2980
184 52 1718
185 52 1340
186 52 3294
187 52 1775
188 52 1214
189 52 1298
190 52 1181
191 52 3045
192 52 1945
193 52 979
194 52 1742
195 52 1773
196 52 1789
197 52 1490
198 52 1606
199 52 3277
200 52 3431
201 52 1420
202 52 2098
203 52 1163
204 52 3030
205 52 3037
206 52 1742
207 52 1666
208 52 1383
209 52 2981
210 52 3323
211 52 3158
212 52 908
213 52 627
214 52 2893
215 52 1482
216 52 2098
217 52 991
218 52 2784
219 52 2214
220 52 2530
221 52 1461
222 52 810
223 52 1008
224 52 2779
225 52 2081
226 52 1229
227 52 1402
228 52 2233
229 52 1469
230 52 1612
231 52 2180
232 52 1361
233 52 954
234 52 2040
235 52 1721
236 52 1583
237 52 3032
238 52 1906
239 52 1387
240 52 2330
241 52 1573
242 52 479
243 52 1010
244 52 2138
245 52 3127
246 52 1358
247 52 2234
248 52 1491
249 52 798
250 52 956
251 52 875
252 52 1965
253 52 1594
254 52 1453
255 52 1784
256 52 2377
257 52 1756
258 52 1156
259 52 1922
260 52 1610
261 52 1937
262 52 1569
263 52 1596
264 52 2483
265 52 1903
266 52 2494
267 52 1921
268 52 2417
269 52 788
270 52 927
271 52 1513
272 52 2030
273 52 1057
274 52 2036
275 52 933
276 52 1616
277 52 3767
278 52 1481
279 52 2284
280 52 2008
281 52 2064
282 52 1264
283 52 1332
284 52 1900
285 52 1650
286 52 2667
287 52 1812
288 52 1720
289 52 1606
290 52 1631
291 52 1955
292 52 1385
293 52 2712
294 52 2005
295 52 2447
296 52 2937
297 52 2177
298 52 1388
299 52 2051
300 52 1272
301 52 1120
302 52 2143
303 52 1246
304 52 1636
305 52 4691
306 52 1772
307 52 1744
308 52 2718
309 52 2252
310 52 2456
311 52 2678
312 52 2262
313 52 1969
314 52 1892
315 52 2669
316 52 2834
317 52 1773
318 52 1666
319 52 2500
320 52 651
321 52 1490
322 52 4242
323 52 1549
324 52 1419
325 52 2774
326 52 1633
327 52 542
328 52 1618
329 52 3052
330 52 1356
331 52 1476
332 52 2213
333 52 2328
334 52 2031
335 52 1619
336 52 2115
337 52 1779
338 52 2527
339 52 3301
340 52 3030
341 52 2893
342 52 3183
343 52 1859
344 52 2179
345 52 2913
346 52 3095
347 52 1928
348 52 2759
349 52 727
350 52 2062
351 52 1618
352 52 3832
353 52 1130
354 52 2379
355 52 1383
356 52 3390
357 52 1139
358 52 1329
359 52 2244
360 52 1572
361 52 1993
362 52 1615
363 52 3011
364 52 2510
365 52 2619
366 52 905
367 52 1659
368 52 1816
369 52 1069
370 52 1651
371 52 3360
372 52 2080
373 52 2936
374 52 927
375 52 2085
376 52 3235
377 52 2071
378 52 667
379 52 1045
380 52 2414
381 52 1576
382 52 1024
383 52 2016
384 52 2979
385 52 3739
386 52 3392
387 52 1423
388 52 1685
389 52 2623
390 52 3519
391 52 2410
392 52 1298
393 52 2018
394 52 1577
395 52 1722
396 52 2902
397 52 1878
398 52 1455
399 52 3205
400 52 1305
401 52 2164
402 52 2371
403 52 2819
404 52 4396
405 52 1056
406 52 1014
407 52 2332
408 52 1466
409 52 1159
410 52 1770
411 52 3700
412 52 2948
413 52 1246
414 52 1323
415 52 2110
416 52 1574
417 52 2218
418 52 2803
419 52 2442
420 52 1118
421 52 1491
422 52 1422
423 52 2278
424 52 1344
425 52 969
426 52 2885
427 52 2808
428 52 1831
429 52 2677
430 52 1418
431 52 1265
432 52 4174
433 52 3216
434 52 2511
435 52 3870
436 52 1654
437 52 1299
438 52 1623
439 52 2932
440 52 1070
441 52 1666
442 52 1820
443 52 1343
444 52 2374
445 52 987
446 52 2645
447 52 1502
448 52 3061
449 52 1143
450 52 1881
451 52 2146
452 52 1388
453 52 1342
454 52 1126
455 52 2802
456 52 1554
457 52 2987
458 52 1781
459 52 866
460 52 3162
461 52 2163
462 52 1441
463 52 1724
464 52 1651
465 52 3623
466 52 2545
467 52 2099
468 52 1793
469 52 1599
470 52 1315
471 52 685
472 52 1378
473 52 2183
474 52 3409
475 52 1156
476 52 1572
477 52 1510
478 52 2190
479 52 1013
480 52 2076
481 52 2986
482 52 3007
483 52 1089
484 52 2010
485 52 2094
486 52 1909
487 52 754
488 52 776
489 52 1158
490 52 1358
491 52 1555
492 52 4041
493 52 2493
494 52 2119
495 52 500
496 52 897
497 52 663
498 52 1046
499 52 1035
500 52 1588
1 53 177
2 53 690
3 53 753
4 53 306
5 53 1451
6 53 145
7 53 182
8 53 531
9 53 136
10 53 396
11 53 240
12 53 241
13 53 180
14 53 505
15 53 248
16 53 878
17 53 1695
18 53 124
19 53 341
20 53 176
21 53 968
22 53 561
23 53 888
24 53 242
25 53 442
26 53 890
27 53 359
28 53 170
29 53 162
30 53 69
31 53 458
32 53 813
33 53 1540
34 53 149
35 53 248
36 53 247
37 53 167
38 53 182
39 53 317
40 53 86
41 53 284
42 53 327
43 53 293
44 53 355
45 53 566
46 53 427
47 53 596
48 53 452
49 53 908
50 53 234
51 53 491
52 53 373
53 53 231
54 53 223
55 53 120
56 53 657
57 53 606
58 53 839
59 53 135
60 53 150
61 53 408
62 53 1002
63 53 82
64 53 85
65 53 894
66 53 1678
67 53 174
68 53 585
69 53 1054
70 53 205
71 53 249
72 53 158
73 53 225
74 53 80
75 53 253
76 53 323
77 53 138
78 53 618
79 53 216
80 53 343
81 53 389
82 53 116
83 53 319
84 53 726
85 53 273
86 53 174
87 53 143
88 53 197
89 53 689
90 53 182
91 53 95
92 53 758
93 53 216
94 53 364
95 53 932
96 53 892
97 53 330
98 53 460
99 53 593
100 53 38
101 53 356
102 53 832
103 53 916
104 53 379
105 53 427
106 53 246
107 53 752
108 53 271
109 53 316
110 53 1351
111 53 179
112 53 617
113 53 340
114 53 255
115 53 201
116 53 298
117 53 564
118 53 183
119 53 557
120 53 112
121 53 170
122 53 350
123 53 504
124 53 139
125 53 778
126 53 548
127 53 97
128 53 438
129 53 320
130 53 1041
131 53 466
132 53 258
133 53 929
134 53 131
135 53 243
136 53 149
137 53 546
138 53 103
139 53 138
140 53 619
141 53 1002
142 53 207
143 53 168
144 53 541
145 53 564
146 53 704
147 53 598
148 53 370
149 53 571
150 53 1190
151 53 356
152 53 485
153 53 488
154 53 770
155 53 162
156 53 449
157 53 264
158 53 434
159 53 321
160 53 474
161 53 164
162 53 175
163 53 106
164 53 314
165 53 378
166 53 435
167 53 458
168 53 567
169 53 542
170 53 178
171 53 856
172 53 187
173 53 1211
174 53 484
175 53 153
176 53 711
177 53 145
178 53 466
179 53 210
180 53 237
181 53 524
182 53 231
183 53 303
184 53 284
185 53 311
186 53 486
187 53 303
188 53 172
189 53 506
190 53 957
191 53 320
192 53 179
193 53 605
194 53 143
195 53 610
196 53 254
197 53 670
198 53 387
199 53 424
200 53 168
201 53 184
202 53 179
203 53 176
204 53 451
205 53 830
206 53 304
207 53 441
208 53 195
209 53 143
210 53 198
211 53 476
212 53 88
213 53 65
214 53 501
215 53 606
216 53 170
217 53 279
218 53 244
219 53 157
220 53 624
221 53 97
222 53 85
223 53 598
224 53 519
225 53 906
226 53 336
227 53 143
228 53 1355
229 53 326
230 53 1168
231 53 283
232 53 375
233 53 206
234 53 468
235 53 121
236 53 184
237 53 396
238 53 224
239 53 582
240 53 402
241 53 105
242 53 88
243 53 451
244 53 389
245 53 581
246 53 208
247 53 104
248 53 348
249 53 751
250 53 176
251 53 75
252 53 392
253 53 265
254 53 559
255 53 763
256 53 506
257 53 99
258 53 347
259 53 244
260 53 128
261 53 594
262 53 318
263 53 348
264 53 211
265 53 238
266 53 434
267 53 409
268 53 240
269 53 210
270 53 51
271 53 76
272 53 79
273 53 158
274 53 494
275 53 245
276 53 389
277 53 999
278 53 429
279 53 1128
280 53 296
281 53 787
282 53 172
283 53 421
284 53 985
285 53 147
286 53 460
287 53 552
288 53 109
289 53 340
290 53 264
291 53 648
292 53 263
293 53 258
294 53 31
295 53 137
296 53 223
297 53 78
298 53 168
299 53 1015
300 53 321
301 53 282
302 53 330
303 53 399
304 53 149
305 53 167
306 53 192
307 53 784
308 53 199
309 53 1033
310 53 522
311 53 638
312 53 358
313 53 349
314 53 207
315 53 206
316 53 529
317 53 280
318 53 677
319 53 258
320 53 428
321 53 463
322 53 103
323 53 668
324 53 504
325 53 176
326 53 307
327 53 550
328 53 89
329 53 1024
330 53 313
331 53 157
332 53 271
333 53 875
334 53 257
335 53 1087
336 53 941
337 53 289
338 53 569
339 53 1183
340 53 149
341 53 113
342 53 460
343 53 670
344 53 285
345 53 531
346 53 664
347 53 580
348 53 549
349 53 122
350 53 617
351 53 112
352 53 137
353 53 206
354 53 107
355 53 297
356 53 863
357 53 493
358 53 239
359 53 685
360 53 770
361 53 483
362 53 288
363 53 711
364 53 255
365 53 170
366 53 118
367 53 61
368 53 175
369 53 472
370 53 576
371 53 182
372 53 85
373 53 431
374 53 263
375 53 522
376 53 463
377 53 248
378 53 108
379 53 187
380 53 330
381 53 206
382 53 215
383 53 432
384 53 573
385 53 382
386 53 161
387 53 359
388 53 268
389 53 474
390 53 242
391 53 172
392 53 485
393 53 1363
394 53 383
395 53 194
396 53 513
397 53 360
398 53 223
399 53 535
400 53 152
401 53 229
402 53 824
403 53 165
404 53 686
405 53 459
406 53 209
407 53 255
408 53 463
409 53 564
410 53 363
411 53 287
412 53 140
413 53 159
414 53 187
415 53 48
416 53 216
417 53 748
418 53 682
419 53 726
420 53 183
421 53 119
422 53 349
423 53 931
424 53 387
425 53 43
426 53 505
427 53 271
428 53 123
429 53 831
430 53 534
431 53 278
432 53 693
433 53 284
434 53 548
435 53 415
436 53 304
437 53 243
438 53 370
439 53 594
440 53 44
441 53 1042
442 53 594
443 53 274
444 53 334
445 53 533
446 53 843
447 53 509
448 53 194
449 53 250
450 53 645
451 53 558
452 53 647
453 53 177
454 53 149
455 53 203
456 53 134
457 53 257
458 53 197
459 53 103
460 53 193
461 53 243
462 53 199
463 53 64
464 53 285
465 53 795
466 53 331
467 53 852
468 53 425
469 53 442
470 53 510
471 53 1472
472 53 188
473 53 443
474 53 911
475 53 381
476 53 653
477 53 249
478 53 547
479 53 240
480 53 516
481 53 709
482 53 616
483 53 109
484 53 540
485 53 607
486 53 433
487 53 111
488 53 161
489 53 60
490 53 269
491 53 369
492 53 488
493 53 287
494 53 92
495 53 184
496 53 52
497 53 181
498 53 181
499 53 263
500 53 171
2 54 803
3 54 313
4 54 61
5 54 403
15 54 401
16 54 1380
17 54 975
19 54 780
21 54 178
22 54 64
24 54 1379
25 54 1029
39 54 810
41 54 1568
42 54 166
46 54 1570
47 54 123
50 54 366
52 54 1211
56 54 1325
57 54 129
58 54 6
62 54 1108
68 54 771
69 54 12
70 54 457
73 54 424
77 54 202
78 54 1308
79 54 28
84 54 894
86 54 1261
87 54 329
102 54 1035
104 54 607
105 54 1482
106 54 519
108 54 834
110 54 7
111 54 374
114 54 1223
115 54 706
125 54 282
126 54 457
130 54 14
133 54 104
137 54 1537
141 54 1230
143 54 665
144 54 395
149 54 834
150 54 1369
153 54 824
154 54 705
161 54 68
163 54 1183
164 54 171
165 54 1309
166 54 55
170 54 1167
172 54 1308
173 54 1714
174 54 132
175 54 342
178 54 1810
186 54 552
187 54 5
191 54 1297
192 54 471
195 54 1261
199 54 589
200 54 2140
204 54 52
205 54 5
206 54 17
207 54 671
220 54 74
225 54 574
226 54 621
229 54 2033
230 54 2
234 54 579
237 54 1235
244 54 51
245 54 1156
253 54 672
258 54 623
259 54 389
264 54 892
266 54 31
267 54 2421
268 54 168
277 54 1205
281 54 137
284 54 1179
286 54 35
296 54 1392
299 54 11
307 54 6
310 54 64
313 54 744
315 54 1326
317 54 5
320 54 157
332 54 101
334 54 515
335 54 1426
338 54 542
339 54 701
341 54 1189
342 54 1049
343 54 1266
346 54 838
347 54 576
350 54 106
354 54 164
355 54 574
356 54 1346
358 54 1149
363 54 306
364 54 47
370 54 44
371 54 1785
373 54 606
379 54 1504
380 54 891
381 54 1844
382 54 1535
385 54 236
386 54 2130
389 54 563
391 54 995
393 54 5
397 54 1230
400 54 1029
401 54 216
403 54 1310
404 54 1157
411 54 123
412 54 1331
414 54 661
416 54 680
418 54 26
419 54 265
421 54 3
424 54 654
426 54 224
430 54 81
434 54 767
435 54 366
444 54 602
457 54 1285
458 54 807
465 54 1941
467 54 565
474 54 1382
475 54 575
478 54 1393
484 54 1538
493 54 57
1 55 568
2 55 15
3 55 306
4 55 480
5 55 23
6 55 438
7 55 1541
8 55 1069
9 55 326
10 55 1473
11 55 800
12 55 1560
13 55 1068
14 55 1101
15 55 517
16 55 35
17 55 65
18 55 1188
19 55 29
20 55 701
21 55 374
22 55 1883
23 55 995
24 55 62
25 55 28
26 55 1206
27 55 604
28 55 560
29 55 490
30 55 368
31 55 1207
32 55 735
33 55 303
34 55 305
35 55 976
36 55 1524
37 55 1867
38 55 712
39 55 66
40 55 508
41 55 20
42 55 379
43 55 1361
44 55 1109
45 55 868
46 55 10
47 55 112
48 55 2335
49 55 980
50 55 202
51 55 970
52 55 22
53 55 1423
54 55 693
55 55 1358
56 55 53
57 55 172
58 55 1640
59 55 1003
60 55 571
61 55 1219
62 55 79
63 55 143
64 55 752
65 55 2505
66 55 1287
67 55 408
68 55 42
69 55 1123
70 55 37
71 55 842
72 55 1186
73 55 14
74 55 828
75 55 1689
76 55 740
77 55 60
78 55 35
79 55 946
80 55 844
81 55 1565
82 55 913
83 55 1782
84 55 25
85 55 189
86 55 50
87 55 92
88 55 565
89 55 830
90 55 1457
91 55 768
92 55 855
93 55 2303
94 55 588
95 55 718
96 55 2391
97 55 818
98 55 921
99 55 430
100 55 536
101 55 1588
102 55 25
103 55 793
104 55 323
105 55 30
106 55 166
107 55 849
108 55 4
109 55 1085
110 55 1506
111 55 60
112 55 1206
113 55 1317
114 55 47
115 55 29
116 55 1491
117 55 1006
118 55 1109
119 55 1659
120 55 1140
121 55 1663
122 55 1846
123 55 689
124 55 450
125 55 306
126 55 32
127 55 1131
128 55 1006
129 55 740
130 55 1166
131 55 453
132 55 935
133 55 597
134 55 689
135 55 1513
136 55 921
137 55 145
138 55 1311
139 55 579
140 55 913
141 55 48
142 55 407
143 55 11
144 55 206
145 55 672
146 55 697
147 55 1719
148 55 814
149 55 6
150 55 71
151 55 598
152 55 918
153 55 22
154 55 55
155 55 920
156 55 626
157 55 1045
158 55 2302
159 55 815
160 55 995
161 55 302
162 55 282
163 55 31
164 55 416
165 55 60
166 55 887
167 55 888
168 55 1752
169 55 1028
170 55 66
171 55 851
172 55 70
173 55 28
174 55 106
175 55 62
176 55 1247
177 55 452
178 55 26
179 55 2361
180 55 996
181 55 636
182 55 507
183 55 2507
184 55 624
185 55 1359
186 55 13
187 55 2261
188 55 940
189 55 966
190 55 743
191 55 27
192 55 37
193 55 940
194 55 986
195 55 25
196 55 726
197 55 223
198 55 762
199 55 42
200 55 82
201 55 1090
202 55 1110
203 55 499
204 55 858
205 55 977
206 55 1101
207 55 63
208 55 1920
209 55 672
210 55 1518
211 55 438
212 55 1510
213 55 1223
214 55 1745
215 55 1075
216 55 1541
217 55 668
218 55 1570
219 55 1016
220 55 851
221 55 794
222 55 1191
223 55 980
224 55 1904
225 55 142
226 55 115
227 55 480
228 55 1319
229 55 15
230 55 1227
231 55 2237
232 55 932
233 55 1075
234 55 77
235 55 1616
236 55 1280
237 55 17
238 55 695
239 55 463
240 55 719
241 55 900
242 55 726
243 55 505
244 55 1207
245 55 92
246 55 574
247 55 1023
248 55 988
249 55 1317
250 55 518
251 55 1089
252 55 1106
253 55 9
254 55 790
255 55 1313
256 55 729
257 55 1155
258 55 110
259 55 222
260 55 1001
261 55 215
262 55 599
263 55 1034
264 55 98
265 55 273
266 55 1668
267 55 35
268 55 221
269 55 600
270 55 336
271 55 726
272 55 1205
273 55 830
274 55 948
275 55 980
276 55 1390
277 55 55
278 55 1136
279 55 477
280 55 1213
281 55 999
282 55 664
283 55 520
284 55 58
285 55 1587
286 55 1735
287 55 978
288 55 1602
289 55 554
290 55 1693
291 55 214
292 55 750
293 55 1607
294 55 1436
295 55 1356
296 55 17
297 55 1222
298 55 1701
299 55 1178
300 55 1211
301 55 514
302 55 791
303 55 586
304 55 1320
305 55 1107
306 55 1936
307 55 1693
308 55 1161
309 55 470
310 55 957
311 55 771
312 55 577
313 55 41
314 55 1858
316 55 1762
317 55 2366
318 55 1430
319 55 846
320 55 30
321 55 1205
322 55 2141
323 55 643
324 55 632
325 55 1119
326 55 1636
327 55 1311
328 55 828
329 55 832
330 55 1319
331 55 996
332 55 566
333 55 963
334 55 159
336 55 712
337 55 1512
338 55 23
339 55 20
340 55 706
341 55 68
342 55 26
343 55 22
344 55 1742
345 55 901
346 55 91
347 55 6
348 55 1859
349 55 894
350 55 121
351 55 831
352 55 308
353 55 518
354 55 243
355 55 15
356 55 21
357 55 1096
358 55 39
359 55 1584
360 55 915
361 55 528
362 55 1334
363 55 320
364 55 436
365 55 1072
366 55 203
367 55 1493
368 55 294
369 55 615
370 55 1884
371 55 54
372 55 1367
373 55 175
374 55 1000
375 55 1471
376 55 2399
377 55 974
378 55 1458
379 55 69
380 55 114
381 55 11
382 55 71
383 55 2311
384 55 882
385 55 781
386 55 75
387 55 943
388 55 1068
389 55 75
390 55 1110
391 55 5
392 55 1155
393 55 1541
394 55 1424
395 55 1952
396 55 1618
397 55 18
398 55 1240
399 55 1317
400 55 87
401 55 178
402 55 878
403 55 46
404 55 20
405 55 635
406 55 929
407 55 1469
408 55 587
409 55 957
410 55 1112
411 55 1629
412 55 41
413 55 624
414 55 49
415 55 1243
416 55 12
417 55 715
418 55 1058
419 55 125
420 55 937
421 55 1180
422 55 840
423 55 654
424 55 3
425 55 319
426 55 46
427 55 1321
428 55 676
429 55 1103
430 55 1844
431 55 219
432 55 1851
433 55 1407
434 55 34
435 55 16
436 55 564
437 55 654
438 55 971
439 55 1595
440 55 824
441 55 728
442 55 389
443 55 951
444 55 13
445 55 659
446 55 1151
447 55 623
448 55 2329
449 55 939
450 55 1019
451 55 2762
452 55 1259
453 55 1292
454 55 1104
455 55 505
456 55 558
457 55 14
458 55 7
459 55 216
460 55 651
461 55 1981
462 55 1105
463 55 1546
464 55 1559
465 55 37
466 55 741
467 55 163
468 55 1196
469 55 1161
470 55 817
471 55 912
472 55 1721
473 55 723
474 55 13
475 55 117
476 55 1393
477 55 597
478 55 22
479 55 955
480 55 2730
481 55 1400
482 55 889
483 55 350
484 55 84
485 55 1080
486 55 981
487 55 665
488 55 615
489 55 372
490 55 721
491 55 703
492 55 1052
493 55 399
494 55 1353
495 55 840
496 55 878
497 55 414
498 55 602
499 55 805
500 55 996
2 56 227
3 56 337
4 56 71
5 56 588
15 56 852
16 56 944
17 56 302
19 56 1221
21 56 803
22 56 76
24 56 1688
25 56 682
39 56 1283
41 56 850
42 56 147
46 56 451
47 56 353
50 56 110
52 56 1007
56 56 1342
57 56 65
62 56 719
66 56 7
68 56 1316
70 56 462
73 56 351
75 56 13
77 56 169
78 56 621
79 56 38
83 56 3
84 56 172
86 56 606
87 56 406
90 56 3
102 56 298
104 56 240
105 56 1077
106 56 268
108 56 662
110 56 3
111 56 932
114 56 232
115 56 139
125 56 316
126 56 334
133 56 193
137 56 234
141 56 1355
143 56 250
144 56 402
149 56 1481
150 56 1120
153 56 1228
154 56 287
161 56 109
163 56 1020
164 56 119
165 56 291
166 56 93
170 56 863
172 56 1209
173 56 482
174 56 463
175 56 908
178 56 929
186 56 243
191 56 1174
192 56 495
195 56 1242
199 56 666
200 56 215
204 56 95
207 56 987
216 56 6
220 56 29
225 56 318
226 56 356
229 56 862
230 56 4
234 56 724
237 56 442
243 56 3
244 56 93
245 56 1063
253 56 1149
258 56 392
259 56 206
264 56 2369
266 56 38
267 56 606
268 56 56
277 56 1411
281 56 106
284 56 691
286 56 37
290 56 8
296 56 313
310 56 122
313 56 234
315 56 1159
320 56 201
332 56 89
334 56 261
335 56 669
338 56 493
339 56 985
341 56 771
342 56 712
343 56 1217
344 56 5
346 56 879
347 56 1902
350 56 405
354 56 277
355 56 1406
356 56 656
358 56 591
363 56 295
364 56 150
365 56 19
370 56 38
371 56 303
373 56 879
379 56 1281
380 56 1590
381 56 2720
382 56 1243
385 56 258
386 56 219
389 56 661
391 56 1702
393 56 4
397 56 936
400 56 941
401 56 307
403 56 1135
404 56 172
411 56 100
412 56 1220
414 56 1693
416 56 1120
418 56 34
419 56 393
421 56 6
424 56 703
426 56 454
430 56 62
434 56 2405
435 56 980
444 56 814
457 56 340
458 56 814
465 56 1577
467 56 351
474 56 1253
475 56 390
478 56 665
484 56 273
493 56 128
2 57 2615
3 57 245
4 57 5
5 57 1033
15 57 607
16 57 2015
17 57 1246
19 57 2160
21 57 396
22 57 6
24 57 1392
25 57 1865
39 57 1652
41 57 2069
42 57 271
46 57 1852
47 57 1187
50 57 200
52 57 777
56 57 787
57 57 152
62 57 1626
68 57 675
69 57 7
70 57 593
73 57 2274
77 57 494
78 57 1303
79 57 6
84 57 2878
86 57 1525
87 57 2326
102 57 1779
104 57 1356
105 57 1109
106 57 237
108 57 2662
111 57 1432
114 57 1990
115 57 2192
125 57 252
126 57 2952
130 57 8
133 57 57
137 57 412
141 57 2018
143 57 2111
144 57 2081
149 57 3333
150 57 3173
153 57 2419
154 57 833
161 57 48
163 57 1235
164 57 248
165 57 782
166 57 26
170 57 1358
172 57 736
173 57 1098
174 57 2418
175 57 1386
178 57 1837
186 57 1286
191 57 1752
192 57 596
195 57 1578
199 57 2012
200 57 2801
204 57 21
207 57 2658
220 57 22
225 57 150
226 57 1173
229 57 2402
234 57 390
237 57 3137
244 57 11
245 57 1810
253 57 2243
258 57 1189
259 57 700
264 57 688
266 57 6
267 57 1205
268 57 60
277 57 1995
281 57 76
284 57 1617
286 57 7
296 57 2473
299 57 1
310 57 86
313 57 550
315 57 2513
320 57 1902
332 57 59
334 57 215
335 57 1070
338 57 1444
339 57 2249
341 57 2466
342 57 1864
343 57 1666
346 57 1672
347 57 1405
350 57 1219
354 57 77
355 57 986
356 57 1190
358 57 735
363 57 252
364 57 3
370 57 21
371 57 2049
373 57 466
379 57 803
380 57 1660
381 57 2133
382 57 840
385 57 148
386 57 2826
389 57 2509
391 57 2117
397 57 729
400 57 1271
401 57 1386
403 57 2801
404 57 1725
407 57 4
411 57 185
412 57 2688
414 57 1540
416 57 2273
419 57 671
424 57 2698
426 57 1284
430 57 6
434 57 959
435 57 1241
444 57 2765
457 57 2506
458 57 2442
465 57 985
467 57 151
474 57 1821
475 57 1208
478 57 1652
484 57 308
493 57 6
1 58 610
2 58 48
3 58 209
4 58 894
5 58 9
6 58 395
7 58 958
8 58 317
9 58 503
10 58 878
11 58 654
12 58 666
13 58 464
14 58 317
15 58 118
16 58 66
17 58 102
18 58 1101
19 58 54
20 58 1211
21 58 79
22 58 721
23 58 106
24 58 81
25 58 70
26 58 748
27 58 1246
28 58 707
29 58 983
30 58 392
31 58 746
32 58 182
33 58 561
34 58 543
35 58 457
36 58 925
37 58 210
38 58 852
39 58 94
40 58 195
41 58 42
42 58 118
43 58 684
44 58 444
45 58 98
46 58 55
47 58 55
48 58 1611
49 58 115
50 58 664
51 58 112
52 58 27
53 58 796
54 58 572
55 58 894
56 58 68
57 58 173
58 58 633
59 58 562
60 58 973
61 58 700
62 58 42
63 58 471
64 58 422
65 58 225
66 58 762
67 58 377
68 58 29
69 58 572
70 58 79
71 58 882
72 58 515
73 58 63
74 58 657
75 58 1356
76 58 644
77 58 85
78 58 163
79 58 661
80 58 733
81 58 507
82 58 619
83 58 696
84 58 28
85 58 371
86 58 73
87 58 108
88 58 249
89 58 489
90 58 534
91 58 364
92 58 212
93 58 966
94 58 223
95 58 523
96 58 218
97 58 482
98 58 345
99 58 343
100 58 326
101 58 514
102 58 23
103 58 708
104 58 107
105 58 72
106 58 59
107 58 550
108 58 26
109 58 327
110 58 547
111 58 42
112 58 716
113 58 96
114 58 3
115 58 68
116 58 1886
117 58 1190
118 58 589
119 58 841
120 58 1132
121 58 709
122 58 712
123 58 561
124 58 419
125 58 225
126 58 68
127 58 302
128 58 376
129 58 195
130 58 575
131 58 340
132 58 651
133 58 296
134 58 882
135 58 728
136 58 347
137 58 234
138 58 650
139 58 467
140 58 1217
141 58 48
142 58 322
143 58 23
144 58 177
145 58 634
146 58 579
147 58 544
148 58 403
149 58 3
150 58 7
151 58 1348
152 58 583
153 58 10
154 58 45
155 58 363
156 58 343
157 58 1139
158 58 1195
159 58 438
160 58 315
161 58 560
162 58 556
163 58 51
164 58 120
165 58 74
166 58 960
167 58 342
168 58 554
169 58 334
170 58 37
171 58 1160
172 58 22
173 58 22
174 58 105
175 58 43
176 58 287
177 58 441
178 58 45
179 58 1131
180 58 979
181 58 608
182 58 608
183 58 1127
184 58 359
185 58 776
186 58 38
187 58 1767
188 58 315
189 58 731
190 58 317
192 58 77
193 58 1220
194 58 732
195 58 51
196 58 967
197 58 433
198 58 889
199 58 47
200 58 84
201 58 451
202 58 780
203 58 399
204 58 961
205 58 557
206 58 1276
207 58 35
208 58 1125
209 58 809
210 58 879
211 58 348
212 58 487
213 58 842
214 58 169
215 58 377
216 58 546
217 58 409
218 58 387
219 58 802
220 58 255
221 58 395
222 58 494
223 58 1180
224 58 911
225 58 135
226 58 23
227 58 430
228 58 556
229 58 38
230 58 310
231 58 958
232 58 452
233 58 373
234 58 131
235 58 435
236 58 499
237 58 12
238 58 982
239 58 335
240 58 847
241 58 130
242 58 717
243 58 844
244 58 222
245 58 83
246 58 178
247 58 549
248 58 503
249 58 734
250 58 583
251 58 447
252 58 482
253 58 14
254 58 460
255 58 1062
256 58 532
257 58 329
258 58 22
259 58 97
260 58 532
261 58 1147
262 58 492
263 58 759
264 58 30
265 58 545
266 58 354
267 58 41
268 58 89
269 58 225
270 58 780
271 58 434
272 58 937
273 58 492
274 58 348
275 58 897
276 58 895
277 58 46
278 58 227
279 58 388
280 58 406
281 58 408
282 58 1034
283 58 479
284 58 53
285 58 731
286 58 390
287 58 985
288 58 410
289 58 862
290 58 1332
291 58 1155
292 58 602
293 58 740
294 58 738
295 58 509
296 58 86
297 58 823
298 58 656
299 58 574
300 58 697
301 58 695
302 58 860
303 58 542
304 58 907
305 58 488
306 58 1188
307 58 1918
308 58 1105
309 58 393
310 58 399
311 58 474
312 58 1259
313 58 66
314 58 381
315 58 61
316 58 155
317 58 1625
318 58 1609
319 58 614
320 58 66
321 58 760
322 58 991
323 58 593
324 58 158
325 58 1066
326 58 685
327 58 1054
328 58 1138
329 58 710
330 58 673
331 58 415
332 58 237
333 58 560
334 58 54
335 58 37
336 58 525
337 58 1094
338 58 21
339 58 5
340 58 749
341 58 40
342 58 52
343 58 36
344 58 703
345 58 507
346 58 125
347 58 40
348 58 938
349 58 495
350 58 67
351 58 1142
352 58 1128
353 58 711
354 58 268
355 58 55
356 58 15
357 58 691
358 58 38
359 58 1218
360 58 494
361 58 232
362 58 770
363 58 208
364 58 269
365 58 931
366 58 272
367 58 778
368 58 565
369 58 378
370 58 529
371 58 50
372 58 533
373 58 82
374 58 936
375 58 952
376 58 630
377 58 901
378 58 860
379 58 25
380 58 59
381 58 34
382 58 18
383 58 1567
384 58 86
385 58 299
386 58 70
387 58 538
388 58 1141
389 58 23
390 58 347
391 58 82
392 58 250
393 58 558
394 58 845
395 58 1224
396 58 182
397 58 28
398 58 439
399 58 818
400 58 130
401 58 138
402 58 418
403 58 58
404 58 18
405 58 58
406 58 662
407 58 351
408 58 157
409 58 864
410 58 971
411 58 181
412 58 62
413 58 991
414 58 44
415 58 335
416 58 12
417 58 1052
418 58 622
419 58 117
420 58 321
421 58 804
422 58 589
423 58 504
424 58 9
425 58 826
426 58 96
427 58 370
428 58 904
429 58 1192
430 58 757
431 58 375
432 58 163
433 58 990
434 58 53
435 58 61
436 58 516
437 58 421
438 58 771
439 58 282
440 58 397
441 58 361
442 58 579
443 58 467
444 58 16
445 58 571
446 58 722
447 58 163
448 58 951
449 58 681
450 58 1032
451 58 727
452 58 461
453 58 525
454 58 937
455 58 203
456 58 317
457 58 99
458 58 157
459 58 256
460 58 1180
461 58 1673
462 58 692
463 58 635
464 58 620
465 58 36
466 58 206
467 58 135
468 58 688
469 58 708
470 58 533
471 58 1528
472 58 691
473 58 1111
474 58 9
475 58 22
476 58 399
477 58 395
478 58 54
479 58 641
480 58 729
481 58 1274
482 58 109
483 58 322
484 58 73
485 58 846
486 58 376
487 58 474
488 58 850
489 58 465
490 58 596
491 58 914
492 58 335
493 58 256
494 58 540
495 58 372
496 58 940
497 58 339
498 58 633
499 58 176
500 58 1314
2 59 4251
3 59 2847
4 59 43
5 59 1149
15 59 2531
16 59 2211
17 59 3102
19 59 1441
21 59 2100
22 59 55
24 59 1885
25 59 1933
39 59 1953
41 59 1609
42 59 1920
46 59 2071
47 59 2017
50 59 918
52 59 1331
56 59 2911
57 59 926
62 59 2402
66 59 15
68 59 2570
70 59 2524
73 59 2320
75 59 2
77 59 2537
78 59 1437
79 59 24
80 59 6
84 59 3128
86 59 1595
87 59 3916
102 59 2556
104 59 1627
105 59 2252
106 59 1602
108 59 1923
110 59 5
111 59 2950
114 59 1614
115 59 2057
125 59 2786
126 59 639
133 59 835
137 59 2126
141 59 1744
143 59 2052
144 59 2556
149 59 1778
150 59 2574
153 59 2676
154 59 2485
161 59 388
163 59 2386
164 59 1936
165 59 3056
166 59 140
170 59 1303
172 59 3108
173 59 1089
174 59 3513
175 59 2848
178 59 4273
186 59 2860
187 59 4
191 59 754
192 59 2497
195 59 2070
199 59 1030
200 59 2675
204 59 156
207 59 2855
220 59 181
225 59 1677
226 59 1782
229 59 6223
234 59 3876
237 59 1567
244 59 141
245 59 2568
253 59 2578
258 59 1809
259 59 2076
264 59 1873
266 59 38
267 59 4365
268 59 901
277 59 1761
281 59 208
284 59 2293
286 59 45
290 59 4
296 59 4169
310 59 648
313 59 2935
315 59 5527
317 59 4
320 59 2376
332 59 317
334 59 1624
335 59 2279
338 59 3548
339 59 1732
341 59 2719
342 59 1864
343 59 2053
346 59 605
347 59 2626
350 59 2057
354 59 1256
355 59 3583
356 59 2578
358 59 3203
363 59 2841
364 59 37
365 59 5
370 59 24
371 59 4303
372 59 2
373 59 2791
379 59 1898
380 59 2570
381 59 3750
382 59 1904
385 59 1160
386 59 2687
389 59 3747
391 59 3522
393 59 4
397 59 1380
400 59 1651
401 59 2995
403 59 2393
404 59 2671
411 59 242
412 59 2318
414 59 858
415 59 4
416 59 2603
418 59 20
419 59 1312
421 59 20
424 59 2036
426 59 4297
430 59 58
434 59 2684
435 59 1920
444 59 2379
457 59 4072
458 59 4885
465 59 3091
467 59 1710
474 59 3016
475 59 1804
478 59 1768
484 59 2694
493 59 32
494 59 2
2 60 965
3 60 472
4 60 243
5 60 1579
15 60 460
16 60 1039
17 60 1979
19 60 1286
21 60 1244
22 60 355
24 60 1606
25 60 2116
39 60 925
41 60 1591
42 60 1303
46 60 1537
47 60 814
50 60 924
52 60 1472
56 60 1072
57 60 1272
58 60 17
62 60 3038
66 60 33
68 60 468
69 60 13
70 60 1944
73 60 761
75 60 29
77 60 382
78 60 1427
79 60 90
80 60 27
83 60 23
84 60 1653
86 60 1411
87 60 2155
102 60 619
104 60 1395
105 60 1207
106 60 541
108 60 1214
110 60 71
111 60 783
114 60 1655
115 60 1285
116 60 3
125 60 487
126 60 1145
130 60 5
133 60 1055
137 60 537
141 60 1244
143 60 834
144 60 619
149 60 2197
150 60 1085
153 60 547
154 60 1088
161 60 550
163 60 824
164 60 1306
165 60 1422
166 60 553
170 60 1073
172 60 231
173 60 905
174 60 436
175 60 693
178 60 2066
186 60 691
187 60 32
191 60 1795
192 60 1954
195 60 793
199 60 2069
200 60 1245
204 60 558
207 60 1374
220 60 730
225 60 754
226 60 686
229 60 1632
234 60 820
237 60 534
244 60 401
245 60 959
253 60 1521
258 60 748
259 60 1339
264 60 660
266 60 368
267 60 376
268 60 1004
277 60 1250
281 60 1155
284 60 3027
286 60 374
290 60 34
296 60 1782
299 60 11
307 60 11
310 60 483
313 60 1796
315 60 1750
317 60 22
320 60 1321
332 60 816
334 60 516
335 60 1222
338 60 885
339 60 794
341 60 1674
342 60 2112
343 60 779
344 60 20
346 60 1630
347 60 388
350 60 825
354 60 1443
355 60 1843
356 60 767
358 60 1250
363 60 449
364 60 838
365 60 3
370 60 280
371 60 722
373 60 1336
379 60 825
380 60 981
381 60 1524
382 60 820
385 60 1798
386 60 1250
389 60 623
391 60 546
393 60 61
397 60 1490
400 60 2120
401 60 1550
403 60 670
404 60 517
411 60 233
412 60 666
414 60 2018
416 60 1418
418 60 12
419 60 1453
421 60 22
424 60 2711
426 60 1230
430 60 342
434 60 876
435 60 1339
444 60 786
457 60 1726
458 60 2453
465 60 974
467 60 754
474 60 833
475 60 730
478 60 811
484 60 637
493 60 846
2 61 444
3 61 242
4 61 271
5 61 286
15 61 816
16 61 300
17 61 1310
19 61 143
21 61 1789
22 61 727
24 61 1078
25 61 542
39 61 516
41 61 128
42 61 1837
46 61 179
47 61 400
50 61 379
52 61 336
56 61 621
57 61 403
58 61 412
62 61 253
66 61 22
68 61 604
69 61 47
70 61 501
73 61 253
75 61 119
77 61 1043
78 61 284
79 61 78
80 61 15
83 61 61
84 61 339
86 61 688
87 61 1035
90 61 17
102 61 219
104 61 549
105 61 1134
106 61 444
108 61 1057
110 61 60
111 61 1507
114 61 975
115 61 548
125 61 285
126 61 448
130 61 46
133 61 218
137 61 792
141 61 1120
143 61 615
144 61 567
149 61 376
150 61 148
153 61 867
154 61 1118
161 61 282
163 61 591
164 61 1736
165 61 1454
166 61 352
170 61 284
172 61 988
173 61 861
174 61 971
175 61 1508
178 61 559
186 61 759
187 61 109
191 61 1117
192 61 462
195 61 628
199 61 885
200 61 256
204 61 320
206 61 39
207 61 1191
216 61 17
220 61 209
225 61 1212
226 61 820
229 61 245
230 61 3
234 61 1667
237 61 1327
244 61 144
245 61 716
253 61 592
258 61 846
259 61 567
264 61 662
266 61 231
267 61 815
268 61 269
277 61 1206
281 61 723
284 61 260
286 61 241
290 61 157
296 61 1429
299 61 36
307 61 4
310 61 383
313 61 1241
315 61 647
317 61 116
320 61 554
332 61 308
334 61 441
335 61 607
338 61 731
339 61 1193
341 61 1327
342 61 547
343 61 572
344 61 55
346 61 378
347 61 746
350 61 370
354 61 769
355 61 402
356 61 1077
358 61 489
363 61 267
364 61 846
365 61 54
370 61 413
371 61 347
373 61 775
379 61 877
380 61 288
381 61 268
382 61 928
385 61 620
386 61 242
389 61 2163
391 61 516
392 61 5
393 61 57
397 61 340
400 61 507
401 61 399
403 61 550
404 61 343
407 61 14
411 61 725
412 61 523
414 61 474
416 61 599
418 61 364
419 61 493
421 61 63
424 61 660
426 61 943
430 61 753
434 61 1073
435 61 1533
444 61 95
457 61 1497
458 61 868
463 61 22
465 61 453
467 61 1184
474 61 224
475 61 767
478 61 943
484 61 304
493 61 874
1 62 491
2 62 84
3 62 324
4 62 321
5 62 45
6 62 1353
7 62 1183
8 62 1365
9 62 1132
10 62 904
11 62 1290
12 62 704
13 62 1159
14 62 1360
15 62 87
16 62 4
17 62 22
18 62 724
19 62 30
20 62 1937
21 62 187
22 62 1155
23 62 430
24 62 8
25 62 18
26 62 1690
27 62 1978
28 62 506
29 62 1533
30 62 999
31 62 1082
32 62 279
33 62 544
34 62 1106
35 62 1174
36 62 2144
37 62 2181
38 62 958
39 62 30
40 62 1522
41 62 20
42 62 114
43 62 2138
44 62 1269
45 62 1119
46 62 7
47 62 52
48 62 1725
49 62 442
50 62 524
51 62 995
52 62 38
53 62 2492
54 62 1765
55 62 906
56 62 40
57 62 439
58 62 1658
59 62 470
60 62 1794
61 62 1487
62 62 12
63 62 795
64 62 554
65 62 866
66 62 1366
67 62 759
69 62 1866
70 62 47
71 62 462
72 62 1004
73 62 12
74 62 977
75 62 1141
76 62 1434
77 62 195
78 62 35
79 62 779
80 62 620
81 62 1248
82 62 1266
83 62 3028
84 62 7
85 62 1100
86 62 13
87 62 58
88 62 626
89 62 1520
90 62 773
91 62 604
92 62 294
93 62 1477
94 62 1184
95 62 1909
96 62 890
97 62 519
98 62 689
99 62 847
100 62 702
101 62 1258
102 62 45
103 62 532
104 62 115
105 62 11
106 62 218
107 62 681
108 62 1
109 62 1797
110 62 1247
111 62 25
112 62 1430
113 62 976
114 62 23
115 62 19
116 62 1247
117 62 1354
118 62 1280
119 62 650
120 62 958
121 62 1224
122 62 1057
123 62 693
124 62 1317
125 62 293
126 62 12
127 62 1289
128 62 650
129 62 1233
130 62 1927
131 62 1026
132 62 1688
133 62 188
134 62 1143
135 62 1224
136 62 1365
137 62 111
138 62 1142
139 62 1403
140 62 1405
141 62 59
142 62 756
143 62 62
144 62 9
145 62 922
146 62 1287
147 62 1200
148 62 1391
149 62 34
150 62 15
151 62 1125
152 62 952
153 62 14
154 62 117
155 62 557
156 62 594
157 62 1572
158 62 1646
159 62 568
160 62 1079
161 62 1085
162 62 1073
163 62 15
164 62 110
165 62 13
166 62 143
167 62 717
168 62 1321
169 62 1395
170 62 117
171 62 435
172 62 7
173 62 9
174 62 53
175 62 19
176 62 1307
177 62 1313
179 62 1188
180 62 1011
181 62 897
182 62 986
183 62 693
184 62 1278
185 62 571
186 62 14
187 62 2366
188 62 1368
189 62 2135
190 62 1178
192 62 54
193 62 1404
194 62 766
195 62 2
196 62 1467
197 62 1216
198 62 366
199 62 60
200 62 10
201 62 456
202 62 1597
203 62 925
204 62 125
205 62 1150
206 62 2835
207 62 11
208 62 1598
209 62 2031
210 62 1150
211 62 970
212 62 560
213 62 355
214 62 1001
215 62 819
216 62 770
217 62 551
218 62 1419
219 62 2114
220 62 1661
221 62 606
222 62 1231
223 62 1386
224 62 820
225 62 128
226 62 51
227 62 1356
228 62 626
229 62 14
230 62 1098
231 62 1164
232 62 1954
233 62 569
234 62 21
235 62 2069
236 62 966
237 62 34
238 62 1450
239 62 864
240 62 1211
241 62 1137
242 62 2438
243 62 1177
244 62 478
245 62 6
246 62 1228
247 62 1161
248 62 1898
249 62 1372
250 62 578
251 62 1293
252 62 456
253 62 24
254 62 1548
255 62 1181
256 62 702
257 62 1322
258 62 52
259 62 62
260 62 1557
261 62 945
262 62 1231
263 62 688
264 62 10
265 62 1464
266 62 3534
267 62 9
268 62 160
269 62 645
270 62 961
271 62 498
272 62 1062
273 62 841
274 62 693
275 62 1143
276 62 947
277 62 68
278 62 836
279 62 673
280 62 727
281 62 201
282 62 1304
283 62 1260
284 62 12
285 62 1271
286 62 3421
287 62 923
288 62 2036
289 62 625
290 62 1126
291 62 952
292 62 1699
293 62 722
294 62 1663
295 62 491
296 62 39
297 62 1151
298 62 1477
299 62 1895
300 62 448
301 62 1127
302 62 1261
303 62 1277
304 62 1941
305 62 1115
306 62 1269
307 62 1470
308 62 627
309 62 691
310 62 490
311 62 1778
312 62 1937
313 62 121
314 62 1870
315 62 5
316 62 1020
317 62 2416
318 62 492
319 62 1455
321 62 1049
322 62 2388
323 62 1353
324 62 1724
325 62 662
326 62 1447
327 62 970
328 62 1012
329 62 610
330 62 1188
331 62 444
332 62 187
333 62 822
334 62 277
335 62 21
336 62 1968
337 62 962
338 62 76
339 62 31
340 62 2014
341 62 21
342 62 21
343 62 7
344 62 2993
345 62 676
347 62 36
348 62 846
349 62 477
350 62 71
351 62 1045
352 62 1304
353 62 1057
354 62 183
355 62 69
356 62 13
357 62 300
358 62 12
359 62 1099
360 62 1237
361 62 1332
362 62 2125
363 62 325
364 62 210
365 62 890
366 62 1124
367 62 1194
368 62 1414
369 62 583
370 62 1060
371 62 6
372 62 1934
373 62 129
374 62 1138
375 62 734
376 62 2193
377 62 1024
378 62 864
379 62 24
380 62 21
382 62 25
383 62 1823
384 62 1118
385 62 241
386 62 11
387 62 1972
388 62 1587
389 62 30
390 62 965
391 62 7
392 62 850
393 62 1261
394 62 936
395 62 1273
396 62 1027
397 62 33
398 62 763
399 62 884
400 62 59
401 62 69
402 62 970
403 62 41
404 62 11
405 62 662
406 62 1106
407 62 1240
408 62 1707
409 62 1282
410 62 1064
411 62 236
412 62 45
413 62 1305
414 62 12
415 62 1107
416 62 25
417 62 1718
418 62 1644
419 62 86
420 62 1419
421 62 588
422 62 771
423 62 1981
424 62 5
425 62 944
426 62 12
427 62 1013
428 62 1122
429 62 1025
430 62 1199
431 62 1093
432 62 2481
433 62 1525
435 62 16
436 62 1280
437 62 1359
438 62 667
439 62 948
440 62 779
441 62 1573
442 62 1630
443 62 1146
445 62 965
446 62 1656
447 62 1673
448 62 1394
449 62 1784
450 62 976
451 62 1307
452 62 845
453 62 769
454 62 1390
455 62 1364
456 62 824
457 62 37
458 62 30
459 62 1125
460 62 1911
461 62 1321
462 62 749
463 62 1153
464 62 1550
466 62 1226
467 62 128
468 62 223
469 62 1470
470 62 1538
471 62 1316
472 62 1466
473 62 1769
475 62 63
476 62 935
477 62 954
478 62 69
479 62 1067
480 62 1294
481 62 1250
482 62 1144
483 62 525
484 62 14
485 62 1108
486 62 1792
487 62 660
488 62 909
489 62 548
490 62 1766
491 62 354
492 62 1332
493 62 209
494 62 2038
495 62 580
496 62 1048
497 62 794
498 62 555
499 62 550
500 62 2272
2 63 1778
3 63 464
4 63 1622
5 63 1198
6 63 1039
7 63 966
8 63 383
9 63 918
10 63 391
11 63 304
12 63 412
13 63 1393
14 63 371
15 63 1074
16 63 1478
17 63 100
18 63 1083
19 63 962
20 63 438
21 63 1112
22 63 732
23 63 897
24 63 555
25 63 651
26 63 884
27 63 139
29 63 641
31 63 697
32 63 834
33 63 747
34 63 893
36 63 1592
37 63 749
38 63 491
39 63 1407
40 63 751
41 63 640
42 63 944
43 63 1415
44 63 778
45 63 906
46 63 616
47 63 1025
48 63 674
49 63 883
50 63 795
51 63 960
52 63 1214
53 63 723
54 63 490
55 63 624
56 63 656
57 63 1881
58 63 439
60 63 567
61 63 394
62 63 1054
63 63 646
64 63 1002
65 63 647
66 63 657
68 63 788
69 63 404
70 63 1241
71 63 937
72 63 240
73 63 739
74 63 557
75 63 1120
76 63 1295
77 63 193
78 63 1097
79 63 1289
80 63 935
81 63 803
82 63 587
83 63 623
84 63 2030
85 63 802
86 63 383
87 63 536
89 63 976
90 63 870
92 63 740
93 63 836
94 63 502
95 63 648
96 63 610
97 63 981
98 63 508
99 63 968
101 63 783
102 63 250
103 63 1161
104 63 1662
105 63 337
106 63 560
107 63 1123
108 63 291
109 63 906
110 63 1255
111 63 261
112 63 416
113 63 482
114 63 698
115 63 202
116 63 1382
117 63 15
118 63 681
119 63 934
120 63 468
121 63 406
122 63 161
123 63 889
124 63 1032
125 63 421
126 63 1023
127 63 552
128 63 487
129 63 1027
130 63 420
131 63 775
132 63 666
133 63 243
134 63 833
135 63 750
136 63 444
137 63 1905
138 63 693
139 63 411
140 63 19
141 63 1559
143 63 1460
144 63 616
145 63 3
146 63 1352
147 63 713
148 63 566
149 63 1744
150 63 270
151 63 1036
152 63 443
153 63 807
154 63 220
155 63 710
156 63 2
157 63 739
158 63 672
159 63 1043
160 63 442
161 63 1088
162 63 725
163 63 1022
164 63 969
165 63 478
166 63 923
167 63 618
168 63 1418
169 63 395
170 63 1655
171 63 625
172 63 1322
173 63 485
174 63 848
175 63 215
176 63 489
177 63 1049
178 63 1845
179 63 1243
180 63 324
181 63 10
183 63 542
184 63 1226
185 63 525
186 63 981
187 63 1474
188 63 436
189 63 432
190 63 583
191 63 575
192 63 1253
193 63 18
194 63 394
195 63 373
196 63 1106
197 63 571
198 63 808
199 63 826
200 63 1439
201 63 845
202 63 1171
204 63 952
205 63 610
206 63 449
207 63 979
208 63 584
209 63 654
210 63 1265
211 63 850
212 63 493
214 63 615
215 63 352
216 63 846
218 63 1342
219 63 365
220 63 573
222 63 975
223 63 16
224 63 331
225 63 972
226 63 942
227 63 1086
228 63 697
229 63 1074
230 63 579
231 63 401
232 63 893
233 63 269
234 63 644
235 63 412
236 63 261
237 63 1258
238 63 1092
239 63 942
240 63 778
241 63 582
242 63 393
243 63 652
244 63 446
245 63 607
246 63 999
247 63 378
248 63 516
249 63 694
251 63 960
252 63 657
253 63 1452
254 63 834
255 63 457
256 63 922
257 63 541
258 63 904
259 63 546
260 63 837
261 63 1145
262 63 927
263 63 961
264 63 732
265 63 1466
266 63 1796
267 63 421
268 63 515
270 63 260
271 63 1017
272 63 639
273 63 367
274 63 520
275 63 927
276 63 380
277 63 1503
278 63 59
279 63 504
280 63 181
281 63 1260
282 63 893
283 63 1058
284 63 998
285 63 415
286 63 1847
287 63 582
288 63 413
289 63 69
290 63 1153
291 63 1179
292 63 527
293 63 351
294 63 625
295 63 1502
296 63 1145
297 63 695
298 63 1775
299 63 444
300 63 413
301 63 329
302 63 811
303 63 215
304 63 915
305 63 1414
306 63 1217
307 63 767
308 63 544
309 63 510
310 63 364
311 63 1062
312 63 159
313 63 870
314 63 977
315 63 3134
316 63 569
317 63 1447
318 63 716
319 63 440
320 63 279
321 63 738
322 63 647
323 63 1342
324 63 1130
325 63 587
326 63 757
327 63 197
328 63 596
329 63 1328
330 63 588
331 63 873
332 63 584
333 63 748
334 63 508
335 63 824
336 63 592
337 63 938
338 63 400
339 63 1071
340 63 688
341 63 394
342 63 613
343 63 355
344 63 632
345 63 1218
346 63 1326
347 63 1110
348 63 309
350 63 1112
351 63 547
352 63 1141
354 63 304
355 63 1388
356 63 747
357 63 287
358 63 1183
359 63 211
360 63 325
361 63 905
362 63 1446
363 63 455
364 63 1669
365 63 374
366 63 581
367 63 1091
368 63 1434
369 63 2
370 63 839
371 63 394
372 63 1545
373 63 1173
374 63 931
375 63 859
376 63 1854
377 63 366
378 63 638
379 63 710
380 63 246
381 63 843
382 63 734
383 63 701
384 63 877
385 63 682
386 63 1437
387 63 569
388 63 806
389 63 1124
390 63 615
391 63 1281
392 63 550
393 63 1281
394 63 391
395 63 1174
396 63 580
397 63 1322
398 63 585
399 63 1188
400 63 1069
401 63 1597
402 63 466
403 63 763
404 63 668
405 63 607
406 63 965
407 63 1024
408 63 1090
409 63 712
410 63 296
411 63 1578
412 63 703
413 63 982
414 63 1034
415 63 185
416 63 1517
417 63 949
418 63 1124
419 63 516
420 63 476
421 63 766
422 63 782
423 63 599
424 63 645
425 63 306
426 63 2215
427 63 520
428 63 874
429 63 169
430 63 704
431 63 713
432 63 728
433 63 545
434 63 1787
435 63 393
436 63 924
437 63 504
438 63 937
439 63 1217
440 63 9
441 63 678
442 63 276
443 63 2
444 63 474
445 63 6
446 63 903
447 63 1020
448 63 840
449 63 633
450 63 628
451 63 1712
452 63 717
453 63 885
454 63 59
455 63 270
456 63 865
457 63 1110
458 63 487
459 63 545
460 63 413
461 63 546
462 63 333
463 63 540
464 63 755
465 63 394
466 63 1017
467 63 1041
468 63 582
469 63 392
470 63 800
471 63 422
472 63 1925
473 63 376
474 63 1441
475 63 945
476 63 1126
478 63 1227
479 63 958
480 63 1777
481 63 440
482 63 886
484 63 1417
485 63 672
486 63 978
488 63 483
490 63 523
491 63 834
492 63 401
493 63 1678
494 63 1620
495 63 737
496 63 441
500 63 1704
2 64 396
3 64 1477
4 64 1143
5 64 995
6 64 1638
7 64 2624
8 64 800
9 64 1457
10 64 293
11 64 1460
12 64 1235
13 64 1028
14 64 815
15 64 1106
16 64 190
17 64 1234
18 64 465
19 64 1800
20 64 457
21 64 1483
22 64 799
23 64 833
24 64 1717
25 64 812
26 64 1160
27 64 1309
29 64 1559
31 64 329
32 64 1267
33 64 1329
34 64 1449
36 64 624
37 64 848
38 64 281
39 64 470
40 64 36
41 64 1418
42 64 1310
43 64 405
44 64 746
45 64 585
46 64 2663
47 64 446
48 64 1282
49 64 945
50 64 1385
51 64 604
52 64 1047
53 64 149
54 64 892
55 64 553
56 64 620
57 64 601
58 64 146
60 64 515
61 64 1589
62 64 1278
63 64 667
64 64 712
65 64 1272
66 64 867
68 64 844
69 64 607
70 64 602
71 64 111
72 64 813
73 64 1126
74 64 44
75 64 747
76 64 1148
77 64 411
78 64 1613
79 64 572
80 64 726
81 64 954
82 64 381
83 64 669
84 64 1554
85 64 626
86 64 1396
87 64 1464
89 64 662
90 64 940
92 64 1296
93 64 903
94 64 342
95 64 340
96 64 1367
97 64 1749
98 64 1
99 64 466
101 64 943
102 64 1923
103 64 562
104 64 1355
105 64 2203
106 64 1317
107 64 397
108 64 1448
109 64 882
110 64 1020
111 64 344
112 64 839
113 64 772
114 64 758
115 64 1275
116 64 887
118 64 44
119 64 1337
120 64 1048
121 64 390
122 64 298
123 64 476
124 64 1748
125 64 1548
126 64 1843
127 64 239
128 64 1
129 64 1082
130 64 593
131 64 846
132 64 943
133 64 958
134 64 1373
135 64 364
136 64 610
137 64 460
138 64 591
139 64 448
141 64 1112
143 64 945
144 64 600
146 64 1728
147 64 220
148 64 408
149 64 959
150 64 1185
151 64 635
152 64 406
153 64 921
154 64 1102
155 64 522
157 64 1781
158 64 536
159 64 1696
160 64 792
161 64 1571
162 64 21
163 64 985
164 64 1243
165 64 754
166 64 1077
167 64 130
168 64 1035
169 64 768
170 64 382
171 64 973
172 64 238
173 64 1227
174 64 1198
175 64 333
176 64 49
177 64 1702
178 64 460
179 64 1827
180 64 709
183 64 665
184 64 849
185 64 846
186 64 1668
187 64 1570
188 64 586
189 64 1320
190 64 22
191 64 3157
192 64 516
195 64 338
196 64 1569
197 64 126
198 64 960
199 64 1766
200 64 1266
201 64 17
202 64 2080
204 64 1049
205 64 1038
206 64 1067
207 64 1624
208 64 926
209 64 1055
210 64 903
211 64 815
212 64 981
214 64 398
215 64 37
216 64 997
218 64 505
219 64 1651
220 64 1430
222 64 254
224 64 1868
225 64 273
226 64 293
227 64 1756
228 64 1000
229 64 1470
230 64 597
231 64 404
232 64 3
233 64 1503
234 64 1174
235 64 1189
236 64 741
237 64 1695
238 64 1604
239 64 454
240 64 854
241 64 1073
242 64 475
243 64 943
244 64 509
245 64 479
246 64 8
247 64 687
248 64 854
249 64 589
251 64 240
252 64 164
253 64 2148
254 64 838
255 64 896
256 64 491
257 64 246
258 64 298
259 64 820
260 64 966
261 64 678
262 64 472
263 64 814
264 64 1978
265 64 827
266 64 1894
267 64 880
268 64 1324
270 64 939
271 64 736
272 64 760
273 64 2
274 64 2
275 64 1578
276 64 289
277 64 1094
278 64 1753
279 64 1230
280 64 472
281 64 2147
282 64 882
283 64 557
284 64 1357
285 64 419
286 64 1966
287 64 1043
288 64 1164
289 64 581
290 64 854
291 64 723
292 64 886
293 64 1282
294 64 925
295 64 657
296 64 1627
297 64 716
298 64 1345
299 64 596
300 64 1361
301 64 463
302 64 868
303 64 736
304 64 578
305 64 1071
306 64 1793
307 64 872
308 64 816
309 64 1165
310 64 816
311 64 441
312 64 1320
313 64 1017
314 64 117
315 64 906
316 64 375
317 64 1505
318 64 628
319 64 143
320 64 348
321 64 299
322 64 551
323 64 1672
324 64 346
325 64 831
326 64 532
327 64 472
328 64 1989
329 64 383
330 64 511
331 64 13
332 64 565
333 64 779
334 64 1271
335 64 1606
336 64 342
337 64 429
338 64 1900
339 64 1743
340 64 1044
341 64 2115
342 64 803
343 64 345
344 64 689
345 64 1490
346 64 1790
347 64 1093
348 64 1891
350 64 421
351 64 2077
352 64 645
354 64 394
355 64 1244
356 64 1689
357 64 30
358 64 1147
359 64 1070
360 64 77
361 64 648
362 64 414
363 64 1563
364 64 541
365 64 366
366 64 691
367 64 146
368 64 884
370 64 364
371 64 287
372 64 1201
373 64 2973
374 64 1649
375 64 1206
376 64 1598
377 64 680
378 64 654
379 64 434
380 64 544
381 64 452
382 64 470
383 64 1264
384 64 597
385 64 855
386 64 1242
387 64 912
388 64 1820
389 64 898
390 64 738
391 64 1301
392 64 695
393 64 1005
394 64 298
395 64 1763
396 64 383
397 64 1117
398 64 1423
399 64 773
400 64 554
401 64 703
402 64 461
403 64 709
404 64 1550
405 64 3
406 64 879
407 64 783
408 64 362
409 64 1863
410 64 471
411 64 640
412 64 663
413 64 878
414 64 775
415 64 781
416 64 2129
417 64 466
418 64 972
419 64 1232
420 64 654
421 64 813
422 64 124
423 64 365
424 64 220
425 64 986
426 64 1586
427 64 1414
428 64 1380
429 64 1961
430 64 864
431 64 628
432 64 1057
433 64 1025
434 64 375
435 64 1354
436 64 424
437 64 433
438 64 794
439 64 615
441 64 884
444 64 383
446 64 1161
447 64 354
448 64 959
449 64 972
450 64 1094
451 64 563
452 64 705
453 64 1132
454 64 793
455 64 230
456 64 760
457 64 1577
458 64 503
459 64 653
460 64 503
461 64 895
462 64 877
463 64 354
464 64 531
465 64 990
466 64 1133
467 64 271
468 64 190
469 64 1558
470 64 876
471 64 1214
472 64 1347
473 64 988
474 64 609
475 64 303
476 64 455
478 64 702
479 64 831
480 64 550
481 64 669
482 64 573
484 64 558
485 64 735
486 64 1490
488 64 105
490 64 917
491 64 989
492 64 781
493 64 564
494 64 1119
495 64 524
496 64 302
500 64 1052
2 65 646
3 65 838
4 65 308
5 65 243
6 65 319
7 65 934
8 65 196
9 65 691
11 65 331
12 65 558
13 65 78
14 65 156
15 65 180
16 65 360
17 65 408
19 65 1350
20 65 124
21 65 1120
22 65 231
23 65 254
24 65 1020
25 65 806
26 65 495
27 65 289
29 65 63
31 65 119
32 65 340
33 65 981
34 65 666
36 65 887
37 65 1129
39 65 120
41 65 546
42 65 592
43 65 88
45 65 101
46 65 78
47 65 963
48 65 165
49 65 237
50 65 364
52 65 240
53 65 1920
54 65 129
55 65 40
56 65 470
57 65 822
58 65 754
60 65 245
61 65 1080
62 65 376
64 65 6
65 65 464
66 65 1100
68 65 343
69 65 207
70 65 1470
72 65 114
73 65 289
75 65 798
76 65 198
77 65 480
78 65 303
79 65 233
80 65 697
81 65 404
83 65 665
84 65 923
85 65 33
86 65 64
87 65 293
90 65 424
92 65 362
93 65 582
94 65 775
95 65 320
96 65 472
97 65 1049
99 65 848
101 65 342
102 65 465
103 65 610
104 65 882
105 65 409
106 65 544
107 65 803
108 65 361
109 65 828
110 65 1578
111 65 529
113 65 35
114 65 226
115 65 497
116 65 696
119 65 341
120 65 505
121 65 736
122 65 677
123 65 516
124 65 314
125 65 829
126 65 225
127 65 348
129 65 234
130 65 201
131 65 68
133 65 777
137 65 630
139 65 119
141 65 196
143 65 277
144 65 378
146 65 858
149 65 2194
150 65 57
151 65 857
153 65 474
154 65 86
155 65 407
157 65 173
158 65 727
159 65 994
160 65 737
161 65 348
163 65 150
164 65 623
165 65 1303
166 65 614
167 65 375
168 65 1098
169 65 174
170 65 395
171 65 16
172 65 952
173 65 449
174 65 166
175 65 530
177 65 340
178 65 120
179 65 560
180 65 1375
183 65 727
185 65 140
186 65 280
187 65 675
191 65 1254
192 65 1461
195 65 2326
196 65 441
198 65 259
199 65 656
200 65 1414
202 65 422
204 65 631
205 65 56
206 65 751
207 65 523
208 65 182
209 65 689
210 65 1210
211 65 61
212 65 717
214 65 1311
216 65 438
218 65 1300
219 65 1340
220 65 746
224 65 814
225 65 405
226 65 161
227 65 368
228 65 216
229 65 1025
230 65 1082
231 65 120
234 65 1217
235 65 140
236 65 112
237 65 1097
238 65 404
239 65 875
240 65 459
241 65 909
242 65 667
243 65 4
244 65 563
245 65 1172
247 65 356
248 65 3
249 65 18
253 65 753
255 65 29
256 65 583
257 65 356
258 65 174
259 65 215
260 65 2025
261 65 67
262 65 32
264 65 685
265 65 23
266 65 387
267 65 969
268 65 1671
270 65 477
271 65 2
272 65 60
277 65 192
278 65 195
279 65 23
280 65 849
281 65 536
282 65 257
284 65 365
285 65 722
286 65 392
288 65 167
290 65 840
291 65 54
292 65 126
293 65 592
294 65 15
295 65 4
296 65 189
297 65 63
298 65 639
299 65 184
300 65 9
301 65 534
302 65 489
304 65 593
305 65 61
306 65 915
307 65 204
308 65 166
309 65 22
310 65 177
311 65 864
312 65 299
313 65 204
314 65 416
315 65 984
316 65 1295
317 65 610
319 65 754
320 65 463
321 65 118
322 65 1092
323 65 804
324 65 181
325 65 195
326 65 226
327 65 330
328 65 1542
329 65 618
332 65 834
333 65 7
334 65 546
335 65 199
336 65 280
337 65 663
338 65 554
339 65 695
340 65 670
341 65 169
342 65 821
343 65 2432
344 65 569
345 65 728
346 65 170
347 65 929
348 65 850
350 65 941
351 65 1524
352 65 1346
354 65 112
355 65 1903
356 65 280
358 65 2272
359 65 496
360 65 57
362 65 97
363 65 808
364 65 782
365 65 1156
366 65 34
368 65 17
370 65 671
371 65 323
372 65 254
373 65 271
376 65 445
377 65 1385
378 65 34
379 65 275
380 65 344
381 65 645
382 65 284
383 65 171
384 65 96
385 65 106
386 65 1454
387 65 5
388 65 207
389 65 1020
390 65 425
391 65 1094
392 65 555
393 65 1558
395 65 856
396 65 1321
397 65 265
398 65 242
399 65 821
400 65 670
401 65 325
403 65 1932
404 65 510
407 65 940
408 65 181
409 65 239
410 65 200
411 65 584
412 65 1951
413 65 282
414 65 877
416 65 774
418 65 178
419 65 153
421 65 521
423 65 289
424 65 344
425 65 453
426 65 287
429 65 574
430 65 208
431 65 35
432 65 554
433 65 171
434 65 837
435 65 1538
436 65 23
441 65 114
444 65 373
446 65 495
447 65 195
448 65 606
451 65 528
453 65 1236
454 65 14
455 65 589
457 65 212
458 65 481
459 65 20
460 65 129
461 65 101
462 65 49
463 65 125
464 65 215
465 65 679
466 65 250
467 65 401
469 65 1094
471 65 740
472 65 582
473 65 1357
474 65 865
475 65 199
476 65 163
478 65 1279
480 65 575
481 65 466
482 65 115
484 65 483
485 65 139
486 65 648
490 65 130
491 65 234
492 65 162
493 65 814
494 65 278
495 65 453
500 65 948
2 66 1710
3 66 830
4 66 1343
5 66 500
6 66 568
7 66 999
8 66 939
9 66 592
11 66 1700
12 66 777
13 66 286
14 66 956
15 66 1144
16 66 731
17 66 981
19 66 312
20 66 656
21 66 741
22 66 1334
23 66 1172
24 66 861
25 66 511
26 66 576
27 66 697
29 66 443
31 66 384
32 66 767
33 66 428
34 66 583
36 66 597
37 66 794
39 66 719
41 66 1005
42 66 819
43 66 70
45 66 206
46 66 643
47 66 1030
48 66 951
49 66 1205
50 66 1722
52 66 1231
53 66 596
54 66 188
55 66 57
56 66 976
57 66 583
58 66 658
60 66 1438
61 66 461
62 66 300
64 66 12
65 66 557
66 66 1517
68 66 217
69 66 859
70 66 1350
72 66 736
73 66 712
75 66 408
76 66 629
77 66 1406
78 66 324
79 66 290
80 66 984
81 66 580
83 66 1223
84 66 148
85 66 46
86 66 344
87 66 606
90 66 841
92 66 845
93 66 350
94 66 137
95 66 1788
96 66 533
97 66 1030
99 66 834
101 66 557
102 66 675
103 66 1322
104 66 1481
105 66 569
106 66 709
107 66 808
108 66 942
109 66 346
110 66 855
111 66 340
113 66 220
114 66 371
115 66 1937
116 66 1579
119 66 1071
120 66 1164
121 66 643
122 66 938
123 66 279
124 66 628
125 66 822
126 66 620
127 66 278
129 66 642
130 66 917
131 66 492
133 66 1978
137 66 470
139 66 969
141 66 169
143 66 1044
144 66 653
146 66 948
149 66 809
150 66 166
151 66 787
153 66 239
154 66 317
155 66 805
157 66 990
158 66 378
159 66 1042
160 66 303
161 66 1072
163 66 407
164 66 821
165 66 1042
166 66 1649
167 66 431
168 66 1976
169 66 954
170 66 1025
171 66 89
172 66 781
173 66 943
174 66 284
175 66 330
177 66 566
178 66 705
179 66 1015
180 66 579
183 66 259
185 66 264
186 66 1116
187 66 1236
189 66 34
191 66 1568
192 66 1357
195 66 438
196 66 2376
198 66 841
199 66 573
200 66 743
202 66 645
204 66 1596
205 66 277
206 66 593
207 66 127
208 66 568
209 66 557
210 66 1404
211 66 509
212 66 827
214 66 979
216 66 924
218 66 1108
219 66 754
220 66 1809
224 66 727
225 66 1787
226 66 382
227 66 578
228 66 397
229 66 1232
230 66 1149
231 66 306
234 66 1424
235 66 733
236 66 747
237 66 1514
238 66 2325
239 66 820
240 66 1341
241 66 711
242 66 735
243 66 32
244 66 1209
245 66 258
247 66 801
248 66 24
249 66 39
253 66 1451
255 66 116
256 66 288
257 66 301
258 66 367
259 66 384
260 66 1332
261 66 1172
262 66 72
263 66 8
264 66 2517
265 66 151
266 66 625
267 66 1734
268 66 988
270 66 141
271 66 5
272 66 320
277 66 154
278 66 530
279 66 44
280 66 1051
281 66 1503
282 66 933
284 66 303
285 66 685
286 66 644
288 66 741
290 66 342
291 66 1130
292 66 161
293 66 883
294 66 11
295 66 22
296 66 934
297 66 346
298 66 1122
299 66 799
300 66 72
301 66 780
302 66 1266
304 66 814
305 66 278
306 66 948
307 66 238
308 66 344
309 66 55
310 66 1498
311 66 633
312 66 668
313 66 489
314 66 359
315 66 668
316 66 971
317 66 1254
319 66 891
320 66 1174
321 66 385
322 66 725
323 66 935
324 66 1099
325 66 335
326 66 1144
327 66 851
328 66 1114
329 66 636
330 66 14
332 66 925
333 66 8
334 66 699
335 66 648
336 66 1794
337 66 2210
338 66 2366
339 66 2195
340 66 580
341 66 340
342 66 541
343 66 407
344 66 1202
345 66 873
346 66 1443
347 66 1662
348 66 720
350 66 1034
351 66 1112
352 66 687
354 66 954
355 66 162
356 66 496
358 66 446
359 66 486
360 66 129
362 66 66
363 66 836
364 66 382
365 66 296
366 66 17
368 66 165
370 66 598
371 66 1020
372 66 721
373 66 771
375 66 15
376 66 645
377 66 604
378 66 78
379 66 543
380 66 683
381 66 1925
382 66 537
383 66 986
384 66 229
385 66 811
386 66 768
387 66 24
388 66 998
389 66 1371
390 66 560
391 66 795
392 66 2139
393 66 823
395 66 815
396 66 1003
397 66 1262
398 66 379
399 66 1455
400 66 1152
401 66 1170
403 66 1700
404 66 308
406 66 3
407 66 1302
408 66 1068
409 66 113
410 66 436
411 66 797
412 66 1662
413 66 928
414 66 667
415 66 8
416 66 1492
418 66 446
419 66 541
421 66 111
423 66 1667
424 66 565
425 66 130
426 66 546
429 66 748
430 66 1266
431 66 35
432 66 861
433 66 267
434 66 1048
435 66 1618
436 66 84
438 66 10
439 66 12
441 66 985
444 66 1238
446 66 589
447 66 1091
448 66 337
451 66 256
453 66 579
454 66 37
455 66 1332
457 66 1031
458 66 922
459 66 17
460 66 700
461 66 1534
462 66 48
463 66 675
464 66 1217
465 66 256
466 66 663
467 66 1920
469 66 446
471 66 980
472 66 1101
473 66 2010
474 66 1475
475 66 367
476 66 316
478 66 740
479 66 2
480 66 275
481 66 1043
482 66 214
484 66 659
485 66 751
486 66 941
490 66 179
491 66 828
492 66 991
493 66 409
494 66 708
495 66 767
500 66 542
2 67 1753
3 67 1855
4 67 1871
5 67 662
6 67 537
7 67 1210
8 67 865
9 67 345
11 67 1969
12 67 1230
13 67 670
14 67 862
15 67 1195
16 67 1194
17 67 1372
19 67 1950
20 67 654
21 67 1775
22 67 838
23 67 523
24 67 857
25 67 520
26 67 520
27 67 596
29 67 547
31 67 513
32 67 1812
33 67 560
34 67 380
36 67 418
37 67 1573
39 67 1051
41 67 989
42 67 1512
43 67 1027
45 67 415
46 67 260
47 67 699
48 67 985
49 67 544
50 67 925
52 67 824
53 67 1647
54 67 265
55 67 387
56 67 1863
57 67 1611
58 67 1095
60 67 369
61 67 1771
62 67 1142
64 67 24
65 67 463
66 67 2135
68 67 902
69 67 1236
70 67 2350
72 67 930
73 67 619
75 67 511
76 67 571
77 67 554
78 67 453
79 67 1065
80 67 1442
81 67 572
83 67 2478
84 67 909
85 67 133
86 67 369
87 67 1106
90 67 441
92 67 1743
93 67 1077
94 67 1074
95 67 1455
96 67 454
97 67 1063
99 67 1104
101 67 567
102 67 1245
103 67 1906
104 67 624
105 67 604
106 67 1282
107 67 346
108 67 2255
109 67 312
110 67 475
111 67 1433
113 67 620
114 67 642
115 67 513
116 67 1105
119 67 577
120 67 592
121 67 1759
122 67 2171
123 67 261
124 67 539
125 67 1938
126 67 599
127 67 617
129 67 326
130 67 1221
131 67 693
132 67 1
133 67 1068
137 67 2432
139 67 957
141 67 1071
143 67 216
144 67 273
146 67 917
149 67 1779
150 67 1196
151 67 665
153 67 716
154 67 499
155 67 939
157 67 709
158 67 1245
159 67 1100
160 67 1402
161 67 2126
163 67 2208
164 67 1509
165 67 1689
166 67 824
167 67 688
168 67 1865
169 67 850
170 67 854
171 67 118
172 67 2405
173 67 1249
174 67 973
175 67 1446
177 67 553
178 67 1402
179 67 1545
180 67 392
183 67 1983
185 67 133
186 67 1737
187 67 2051
189 67 133
191 67 2759
192 67 2354
195 67 1297
196 67 980
198 67 267
199 67 560
200 67 1789
202 67 412
204 67 856
205 67 156
206 67 1241
207 67 1232
208 67 834
209 67 838
210 67 1106
211 67 671
212 67 814
214 67 1082
216 67 454
218 67 1376
219 67 1714
220 67 1263
224 67 1440
225 67 262
226 67 367
227 67 547
228 67 663
229 67 2218
230 67 1390
231 67 711
233 67 2
234 67 779
235 67 431
236 67 921
237 67 1085
238 67 1079
239 67 1104
240 67 1039
241 67 1410
242 67 1002
243 67 11
244 67 1387
245 67 1836
247 67 968
248 67 6
249 67 231
253 67 1656
255 67 95
256 67 285
257 67 628
258 67 365
259 67 647
260 67 705
261 67 955
262 67 36
263 67 4
264 67 2349
265 67 313
266 67 1214
267 67 1570
268 67 1207
270 67 325
271 67 25
272 67 197
277 67 1155
278 67 225
279 67 705
280 67 1180
281 67 1122
282 67 1041
284 67 1142
285 67 1801
286 67 1242
288 67 423
290 67 527
291 67 966
292 67 274
293 67 1174
294 67 13
295 67 29
296 67 796
297 67 220
298 67 900
299 67 1276
300 67 55
301 67 765
302 67 1046
304 67 482
305 67 620
306 67 3221
307 67 1159
308 67 1259
309 67 683
310 67 1588
311 67 800
312 67 621
313 67 1224
314 67 359
315 67 2925
316 67 1097
317 67 2012
319 67 533
320 67 2378
321 67 541
322 67 1535
323 67 926
324 67 1093
325 67 1285
326 67 1102
327 67 1368
328 67 1121
329 67 234
330 67 1
332 67 1716
333 67 13
334 67 1265
335 67 542
336 67 1406
337 67 1151
338 67 762
339 67 1361
340 67 887
341 67 1237
342 67 546
343 67 1273
344 67 2561
345 67 381
346 67 843
347 67 1126
348 67 1438
350 67 741
351 67 1070
352 67 1795
354 67 1208
355 67 1568
356 67 453
358 67 1391
359 67 1462
360 67 34
362 67 1066
363 67 1848
364 67 873
365 67 1392
366 67 51
368 67 361
370 67 1283
371 67 2146
372 67 926
373 67 2151
375 67 13
376 67 649
377 67 373
378 67 424
379 67 1135
380 67 1909
381 67 2241
382 67 1160
383 67 914
384 67 449
385 67 1760
386 67 1898
387 67 9
388 67 695
389 67 1425
390 67 1573
391 67 952
392 67 562
393 67 500
395 67 3234
396 67 1055
397 67 856
398 67 282
399 67 878
400 67 1060
401 67 520
403 67 1164
404 67 1301
407 67 1365
408 67 1076
409 67 1061
410 67 602
411 67 1897
412 67 1188
413 67 1041
414 67 1411
415 67 2
416 67 1589
417 67 3
418 67 1537
419 67 182
421 67 1032
423 67 1418
424 67 902
425 67 332
426 67 560
429 67 940
430 67 889
431 67 122
432 67 756
433 67 601
434 67 663
435 67 1202
436 67 35
438 67 6
439 67 8
441 67 606
444 67 2259
446 67 496
447 67 1047
448 67 1007
449 67 6
451 67 1911
453 67 796
454 67 48
455 67 2088
457 67 806
458 67 1835
459 67 39
460 67 678
461 67 917
462 67 15
463 67 1054
464 67 1087
465 67 1850
466 67 351
467 67 306
469 67 1836
471 67 1515
472 67 861
473 67 1898
474 67 2144
475 67 349
476 67 1020
478 67 1904
480 67 1859
481 67 691
482 67 458
484 67 1389
485 67 1027
486 67 2226
490 67 256
491 67 275
492 67 871
493 67 859
494 67 971
495 67 986
500 67 957
2 68 310
3 68 745
4 68 317
5 68 156
6 68 225
7 68 107
8 68 341
9 68 152
11 68 192
12 68 337
13 68 267
14 68 314
15 68 915
16 68 237
17 68 988
19 68 276
20 68 339
21 68 405
22 68 451
23 68 321
24 68 188
25 68 126
26 68 161
27 68 137
29 68 232
31 68 87
32 68 255
33 68 135
34 68 179
36 68 346
37 68 156
39 68 256
41 68 22
42 68 1258
43 68 498
45 68 79
46 68 296
47 68 583
48 68 79
49 68 276
50 68 243
52 68 321
53 68 79
54 68 204
55 68 83
56 68 151
57 68 126
58 68 122
60 68 226
61 68 122
62 68 58
64 68 13
65 68 522
66 68 209
68 68 488
69 68 199
70 68 150
72 68 97
73 68 345
75 68 248
76 68 42
77 68 265
78 68 158
79 68 109
80 68 132
81 68 83
83 68 543
84 68 262
85 68 54
86 68 263
87 68 117
90 68 149
92 68 226
93 68 98
94 68 383
95 68 307
96 68 544
97 68 250
99 68 101
101 68 75
102 68 603
103 68 679
104 68 971
105 68 188
106 68 429
107 68 94
108 68 183
109 68 108
110 68 247
111 68 142
113 68 72
114 68 259
115 68 442
116 68 298
119 68 35
120 68 91
121 68 124
122 68 119
123 68 70
124 68 238
125 68 697
126 68 108
127 68 96
129 68 104
130 68 210
131 68 108
133 68 329
137 68 685
139 68 122
141 68 92
143 68 157
144 68 181
146 68 178
149 68 281
150 68 295
151 68 177
153 68 298
154 68 100
155 68 226
157 68 165
158 68 643
159 68 270
160 68 321
161 68 105
163 68 146
164 68 1290
165 68 205
166 68 259
167 68 112
168 68 396
169 68 378
170 68 799
171 68 269
172 68 187
173 68 162
174 68 138
175 68 164
177 68 220
178 68 116
179 68 263
180 68 253
183 68 206
185 68 34
186 68 402
187 68 219
189 68 50
191 68 292
192 68 152
195 68 299
196 68 464
198 68 227
199 68 140
200 68 372
202 68 188
204 68 261
205 68 81
206 68 161
207 68 103
208 68 338
209 68 142
210 68 282
211 68 111
212 68 204
214 68 975
216 68 161
218 68 388
219 68 193
220 68 746
224 68 161
225 68 352
226 68 127
227 68 230
228 68 446
229 68 304
230 68 152
231 68 210
234 68 185
235 68 290
236 68 79
237 68 177
238 68 469
239 68 83
240 68 497
241 68 211
242 68 151
243 68 6
244 68 82
245 68 430
247 68 454
248 68 22
249 68 25
253 68 556
255 68 97
256 68 86
257 68 112
258 68 111
259 68 216
260 68 492
261 68 192
262 68 24
263 68 20
264 68 97
265 68 7
266 68 136
267 68 458
268 68 743
270 68 384
271 68 9
272 68 62
275 68 4
277 68 99
278 68 102
279 68 34
280 68 218
281 68 154
282 68 403
284 68 59
285 68 113
286 68 139
288 68 276
290 68 219
291 68 198
292 68 212
293 68 405
294 68 22
295 68 54
296 68 396
297 68 67
298 68 945
299 68 173
300 68 23
301 68 121
302 68 477
304 68 149
305 68 230
306 68 260
307 68 187
308 68 685
309 68 36
310 68 178
311 68 366
312 68 155
313 68 110
314 68 369
315 68 265
316 68 944
317 68 198
319 68 154
320 68 330
321 68 90
322 68 76
323 68 155
324 68 306
325 68 641
326 68 491
327 68 134
328 68 232
329 68 246
330 68 27
332 68 281
333 68 9
334 68 450
335 68 90
336 68 310
337 68 507
338 68 274
339 68 176
340 68 123
341 68 96
342 68 125
343 68 302
344 68 540
345 68 269
346 68 187
347 68 98
348 68 151
350 68 654
351 68 245
352 68 866
354 68 89
355 68 126
356 68 85
358 68 243
359 68 199
360 68 40
362 68 477
363 68 741
364 68 156
365 68 894
366 68 49
368 68 21
370 68 243
371 68 283
372 68 238
373 68 165
374 68 2
375 68 4
376 68 90
377 68 255
378 68 81
379 68 146
380 68 168
381 68 136
382 68 144
383 68 68
384 68 73
385 68 175
386 68 342
387 68 28
388 68 160
389 68 178
390 68 247
391 68 137
392 68 295
393 68 279
395 68 255
396 68 1010
397 68 318
398 68 377
399 68 565
400 68 645
401 68 101
403 68 539
404 68 161
406 68 6
407 68 460
408 68 323
409 68 177
410 68 80
411 68 99
412 68 574
413 68 420
414 68 253
415 68 22
416 68 617
417 68 4
418 68 553
419 68 842
421 68 194
423 68 284
424 68 140
425 68 453
426 68 173
429 68 192
430 68 370
431 68 58
432 68 214
433 68 79
434 68 145
435 68 1134
436 68 34
438 68 14
439 68 7
441 68 672
444 68 474
446 68 156
447 68 292
448 68 90
451 68 241
453 68 561
454 68 29
455 68 293
457 68 415
458 68 104
459 68 63
460 68 368
461 68 122
462 68 97
463 68 50
464 68 475
465 68 207
466 68 97
467 68 317
469 68 135
471 68 304
472 68 998
473 68 155
474 68 570
475 68 128
476 68 113
478 68 132
479 68 2
480 68 255
481 68 165
482 68 70
484 68 462
485 68 321
486 68 152
490 68 217
491 68 234
492 68 325
493 68 150
494 68 210
495 68 234
500 68 541
2 69 199
3 69 148
4 69 605
5 69 293
6 69 465
7 69 153
8 69 328
9 69 61
11 69 153
12 69 250
13 69 8
14 69 349
15 69 548
16 69 143
17 69 666
19 69 653
20 69 651
21 69 159
22 69 318
23 69 1501
24 69 849
25 69 215
26 69 104
27 69 129
29 69 106
31 69 8
32 69 119
33 69 390
34 69 52
36 69 325
37 69 205
39 69 522
41 69 211
42 69 302
43 69 914
45 69 7
46 69 227
47 69 176
48 69 51
49 69 1569
50 69 602
52 69 241
53 69 545
54 69 4
55 69 62
56 69 241
57 69 404
58 69 394
60 69 419
61 69 671
62 69 1779
65 69 29
66 69 509
68 69 486
69 69 68
70 69 268
72 69 72
73 69 460
75 69 410
76 69 523
77 69 911
78 69 1050
79 69 1562
80 69 19
81 69 596
83 69 450
84 69 2104
86 69 107
87 69 1066
90 69 983
92 69 122
93 69 33
94 69 209
95 69 205
96 69 33
97 69 188
99 69 529
101 69 562
102 69 296
103 69 64
104 69 307
105 69 161
106 69 358
107 69 2
108 69 361
109 69 451
110 69 709
111 69 686
113 69 2
114 69 336
115 69 389
116 69 370
119 69 324
120 69 388
121 69 368
122 69 485
123 69 36
124 69 495
125 69 151
126 69 458
127 69 41
129 69 241
130 69 96
131 69 63
133 69 1645
137 69 500
139 69 89
141 69 191
143 69 518
144 69 470
146 69 26
149 69 237
150 69 54
151 69 58
153 69 943
154 69 128
155 69 946
157 69 65
158 69 1020
159 69 191
160 69 618
161 69 514
163 69 1594
164 69 297
165 69 621
166 69 857
167 69 27
168 69 416
169 69 356
170 69 843
171 69 7
172 69 388
173 69 195
174 69 761
175 69 711
177 69 504
178 69 345
179 69 187
180 69 305
183 69 241
186 69 973
187 69 614
191 69 599
192 69 267
195 69 1144
196 69 242
198 69 39
199 69 83
200 69 140
202 69 192
204 69 855
205 69 1
206 69 1157
207 69 332
208 69 572
209 69 196
210 69 511
211 69 58
212 69 78
214 69 609
216 69 974
218 69 103
219 69 287
220 69 634
224 69 210
225 69 445
226 69 946
227 69 481
228 69 46
229 69 727
230 69 213
231 69 52
234 69 501
235 69 68
236 69 82
237 69 167
238 69 260
239 69 550
240 69 12
241 69 111
242 69 36
243 69 4
244 69 511
245 69 538
247 69 706
253 69 409
256 69 49
257 69 33
258 69 970
259 69 584
260 69 1447
261 69 55
264 69 472
266 69 567
267 69 248
268 69 99
272 69 4
277 69 171
278 69 204
279 69 11
280 69 235
281 69 435
282 69 854
284 69 1801
285 69 375
286 69 607
288 69 69
290 69 422
291 69 49
292 69 3
293 69 266
296 69 530
297 69 5
298 69 363
299 69 71
301 69 107
302 69 7
304 69 302
305 69 6
306 69 183
307 69 238
308 69 128
309 69 10
310 69 685
311 69 151
312 69 138
313 69 198
314 69 116
315 69 552
316 69 654
317 69 676
319 69 650
320 69 198
321 69 15
322 69 81
323 69 25
324 69 581
325 69 137
326 69 164
327 69 92
328 69 166
329 69 522
332 69 367
334 69 353
335 69 461
336 69 228
337 69 372
338 69 681
339 69 609
340 69 218
341 69 141
342 69 215
343 69 1130
344 69 472
345 69 401
346 69 373
347 69 580
348 69 195
350 69 153
351 69 160
352 69 173
354 69 770
355 69 1237
356 69 1099
358 69 752
359 69 328
362 69 871
363 69 154
364 69 229
365 69 486
370 69 1075
371 69 255
372 69 626
373 69 227
376 69 1027
377 69 345
378 69 52
379 69 151
380 69 463
381 69 1886
382 69 147
383 69 36
384 69 3
385 69 893
386 69 165
388 69 58
389 69 730
390 69 363
391 69 180
392 69 120
393 69 720
395 69 187
396 69 637
397 69 256
398 69 42
399 69 509
400 69 153
401 69 487
403 69 734
404 69 272
407 69 844
408 69 633
409 69 357
410 69 285
411 69 176
412 69 789
413 69 822
414 69 360
416 69 434
418 69 1633
419 69 989
421 69 243
423 69 177
424 69 482
426 69 277
429 69 199
430 69 330
432 69 486
433 69 425
434 69 178
435 69 211
444 69 506
446 69 93
447 69 556
448 69 47
451 69 720
453 69 318
455 69 429
457 69 526
458 69 307
460 69 692
461 69 9
463 69 148
464 69 204
465 69 477
466 69 206
467 69 466
469 69 717
471 69 453
472 69 354
473 69 1100
474 69 210
475 69 889
476 69 393
478 69 234
480 69 766
481 69 79
482 69 5
484 69 1202
485 69 343
486 69 130
490 69 2
491 69 39
492 69 329
493 69 242
494 69 593
495 69 1005
500 69 677
2 70 787
3 70 1514
4 70 3460
5 70 1936
6 70 2451
7 70 1554
8 70 1016
9 70 2282
11 70 1997
12 70 1738
13 70 1097
14 70 958
15 70 2067
16 70 2490
17 70 1576
19 70 2681
20 70 893
21 70 2903
22 70 2753
23 70 1397
24 70 2848
25 70 2405
26 70 1488
27 70 1266
29 70 1387
31 70 1375
32 70 1239
33 70 3077
34 70 2365
36 70 1047
37 70 1398
39 70 1226
41 70 3018
42 70 1883
43 70 869
45 70 186
46 70 1869
47 70 2199
48 70 2273
49 70 1417
50 70 920
52 70 2697
53 70 1275
54 70 207
55 70 1208
56 70 1280
57 70 3485
58 70 1752
60 70 1981
61 70 860
62 70 2878
65 70 1018
66 70 1095
68 70 2432
69 70 2666
70 70 2345
72 70 868
73 70 3178
75 70 2857
76 70 1089
77 70 2700
78 70 1994
79 70 1339
80 70 1190
81 70 2407
83 70 2939
84 70 1459
85 70 21
86 70 740
87 70 1682
90 70 618
92 70 1212
93 70 1427
94 70 1108
95 70 2855
96 70 1030
97 70 2442
99 70 1907
101 70 2355
102 70 2630
103 70 1859
104 70 3218
105 70 1145
106 70 2896
107 70 1497
108 70 1908
109 70 2212
110 70 3880
111 70 1647
113 70 232
114 70 2049
115 70 2583
116 70 1469
119 70 1949
120 70 1063
121 70 1651
122 70 1790
123 70 1253
124 70 2427
125 70 1548
126 70 711
127 70 827
129 70 1792
130 70 2731
131 70 1800
133 70 2262
137 70 1500
139 70 744
141 70 2400
143 70 1463
144 70 5192
146 70 1217
149 70 2213
150 70 2388
151 70 977
153 70 2880
154 70 1578
155 70 2642
157 70 1972
158 70 2692
159 70 2548
160 70 1666
161 70 1727
163 70 1104
164 70 2015
165 70 3124
166 70 2260
167 70 181
168 70 1949
169 70 936
170 70 2811
171 70 813
172 70 1164
173 70 873
174 70 1817
175 70 1618
177 70 2406
178 70 2771
179 70 1585
180 70 1006
183 70 1603
185 70 301
186 70 2300
187 70 3831
189 70 442
191 70 3953
192 70 2225
195 70 2884
196 70 1668
197 70 1
198 70 1053
199 70 1707
200 70 2881
202 70 3209
204 70 2215
205 70 831
206 70 2699
207 70 1685
208 70 1909
209 70 2252
210 70 1193
211 70 1748
212 70 1347
214 70 1511
216 70 573
218 70 1864
219 70 1408
220 70 1319
224 70 2656
225 70 1943
226 70 2498
227 70 2403
228 70 2188
229 70 2455
230 70 1552
231 70 1006
234 70 1214
235 70 859
236 70 805
237 70 2391
238 70 1654
239 70 1921
240 70 866
241 70 1997
242 70 1620
244 70 1060
245 70 2015
247 70 1415
249 70 10
253 70 2968
255 70 31
256 70 1372
257 70 881
258 70 2442
259 70 3590
260 70 2688
261 70 1640
262 70 193
264 70 2002
266 70 2486
267 70 2509
268 70 1866
270 70 428
272 70 45
277 70 2409
278 70 1198
279 70 1126
280 70 1806
281 70 3221
282 70 1754
284 70 2967
285 70 1672
286 70 2576
288 70 893
290 70 2711
291 70 1699
292 70 214
293 70 1657
296 70 2455
297 70 54
298 70 1657
299 70 2618
300 70 2
301 70 2314
302 70 815
304 70 1454
305 70 1018
306 70 2306
307 70 3180
308 70 2006
309 70 1120
310 70 2171
311 70 2703
312 70 1242
313 70 1758
314 70 3261
315 70 4175
316 70 1527
317 70 3767
319 70 964
320 70 2690
321 70 1376
322 70 1776
323 70 1292
324 70 1764
325 70 1981
326 70 1316
327 70 1085
328 70 1369
329 70 1996
332 70 3745
334 70 2904
335 70 1038
336 70 2817
337 70 927
338 70 2100
339 70 2369
340 70 2172
341 70 1659
342 70 2468
343 70 2734
344 70 2877
345 70 2948
346 70 4330
347 70 2294
348 70 2770
350 70 2131
351 70 1396
352 70 1610
354 70 2565
355 70 1812
356 70 819
358 70 1784
359 70 1350
360 70 1247
362 70 888
363 70 1499
364 70 2474
365 70 2140
370 70 1217
371 70 1203
372 70 2069
373 70 2012
376 70 2164
377 70 987
378 70 1211
379 70 1231
380 70 3697
381 70 3414
382 70 1202
383 70 2249
384 70 172
385 70 2528
386 70 2941
388 70 2015
389 70 4498
390 70 1571
391 70 2887
392 70 1208
393 70 3940
395 70 2319
396 70 1507
397 70 2674
398 70 904
399 70 2164
400 70 2484
401 70 3228
403 70 2216
404 70 1283
407 70 1283
408 70 1754
409 70 1759
410 70 1961
411 70 2683
412 70 2294
413 70 1647
414 70 3903
416 70 3014
418 70 2485
419 70 3396
421 70 1413
423 70 2764
424 70 2850
425 70 428
426 70 3788
429 70 1919
430 70 2687
431 70 20
432 70 1493
433 70 1159
434 70 1615
435 70 2655
436 70 192
441 70 63
444 70 3658
446 70 1482
447 70 1815
448 70 1366
451 70 3321
453 70 2324
454 70 4
455 70 2050
457 70 2369
458 70 2299
460 70 941
461 70 640
462 70 54
463 70 1283
464 70 1335
465 70 1372
466 70 1842
467 70 1873
469 70 868
471 70 1904
472 70 1671
473 70 2204
474 70 2311
475 70 2529
476 70 2465
478 70 3061
480 70 3336
481 70 1810
482 70 176
484 70 2143
485 70 641
486 70 1332
490 70 217
491 70 1005
492 70 1027
493 70 2365
494 70 2044
495 70 2708
500 70 3585
1 71 1138
3 71 2616
4 71 1836
6 71 2890
7 71 1843
8 71 2024
9 71 2998
10 71 1777
11 71 2029
12 71 2570
13 71 2644
14 71 1976
15 71 2327
17 71 7
18 71 1615
20 71 2932
21 71 1485
22 71 3531
23 71 2462
24 71 126
26 71 2028
27 71 3229
28 71 1067
29 71 2133
30 71 517
31 71 2023
32 71 1967
33 71 1752
34 71 2947
35 71 1540
36 71 3091
37 71 2674
38 71 879
39 71 17
40 71 1241
41 71 56
42 71 1426
43 71 2532
44 71 1606
45 71 2118
47 71 68
48 71 2846
49 71 2525
50 71 2734
51 71 1305
53 71 2594
54 71 2713
55 71 2209
57 71 3179
58 71 1476
59 71 1370
60 71 1805
61 71 2670
62 71 5
63 71 2421
64 71 1257
65 71 1115
66 71 2572
67 71 685
68 71 2
69 71 3329
70 71 192
71 71 1402
72 71 1857
74 71 2226
75 71 2333
76 71 1853
77 71 2437
78 71 1327
79 71 1761
80 71 1872
81 71 2211
82 71 1196
83 71 1539
84 71 56
85 71 2316
87 71 57
88 71 1744
89 71 2106
90 71 3867
91 71 1000
92 71 1926
93 71 3130
94 71 1521
95 71 3672
96 71 1120
97 71 2841
98 71 1497
99 71 2142
100 71 1231
101 71 2233
103 71 2141
104 71 59
106 71 1850
107 71 2396
109 71 1737
110 71 3042
111 71 3
112 71 1158
113 71 1313
114 71 9
116 71 2408
117 71 1702
118 71 1807
119 71 2918
120 71 2768
121 71 2214
122 71 3643
123 71 2644
124 71 2891
125 71 2543
127 71 1651
128 71 1549
129 71 1183
130 71 3298
131 71 2755
132 71 1519
133 71 3726
134 71 991
135 71 1263
136 71 1727
137 71 25
138 71 1155
139 71 1039
140 71 1688
141 71 143
142 71 675
143 71 14
144 71 254
145 71 607
146 71 2034
147 71 1633
148 71 758
151 71 3405
152 71 2464
153 71 3
154 71 5
155 71 1868
156 71 1174
157 71 2316
158 71 2956
159 71 2839
160 71 3311
161 71 2187
162 71 2499
164 71 1327
165 71 35
166 71 3597
167 71 2118
168 71 2732
169 71 2006
170 71 33
171 71 1515
174 71 35
175 71 5
176 71 1503
177 71 2900
178 71 32
179 71 4449
180 71 1423
181 71 630
182 71 1236
183 71 2459
184 71 2660
185 71 1854
186 71 9
187 71 3732
188 71 1784
189 71 2760
190 71 2829
192 71 188
193 71 1619
194 71 967
195 71 6
196 71 2726
197 71 1832
198 71 2601
201 71 1651
202 71 1808
203 71 936
204 71 3625
205 71 1863
206 71 1941
208 71 738
209 71 1599
210 71 1124
211 71 2618
212 71 2084
213 71 1177
214 71 2139
215 71 1902
216 71 3938
217 71 761
218 71 3465
219 71 2260
220 71 3593
221 71 1018
222 71 783
223 71 1732
224 71 2975
225 71 2121
226 71 104
227 71 2899
228 71 2055
230 71 1476
231 71 3229
232 71 916
233 71 1473
234 71 98
235 71 1636
236 71 1859
238 71 2681
239 71 2090
240 71 2294
241 71 2270
242 71 1995
243 71 1538
244 71 3115
246 71 481
247 71 3463
248 71 2660
249 71 2165
250 71 977
251 71 819
252 71 927
253 71 101
254 71 1275
255 71 2438
256 71 2593
257 71 1617
258 71 84
259 71 2504
260 71 3282
261 71 2052
262 71 1834
263 71 1463
264 71 2419
265 71 2241
266 71 2226
267 71 39
268 71 4440
269 71 1752
270 71 1907
271 71 1269
272 71 1144
273 71 1622
274 71 1548
275 71 1953
276 71 1799
277 71 122
278 71 2920
279 71 2926
280 71 1795
281 71 1915
282 71 2183
283 71 1717
284 71 6
285 71 2211
286 71 2218
287 71 1422
288 71 1620
289 71 641
290 71 2353
291 71 2084
292 71 2712
293 71 2707
294 71 699
295 71 2097
297 71 1089
298 71 3180
299 71 3267
300 71 1208
301 71 2105
302 71 2161
303 71 1962
304 71 3957
305 71 2611
306 71 1201
307 71 2614
308 71 1801
309 71 2904
310 71 3678
311 71 3272
312 71 3294
313 71 14
314 71 2508
316 71 2132
317 71 3769
318 71 2423
319 71 1782
321 71 1930
322 71 3250
323 71 1982
324 71 2594
325 71 1714
326 71 2004
327 71 2314
328 71 2043
329 71 2459
330 71 1892
331 71 1720
332 71 1683
333 71 2956
334 71 1705
336 71 3570
337 71 2338
340 71 1643
343 71 5
344 71 1481
345 71 2175
348 71 3085
349 71 1383
350 71 84
351 71 2049
352 71 2380
353 71 1253
354 71 1793
355 71 26
357 71 2615
359 71 2075
360 71 2781
361 71 1869
362 71 2538
363 71 2539
364 71 3266
365 71 1843
366 71 1670
367 71 1156
368 71 2206
369 71 1181
370 71 778
372 71 2335
373 71 746
374 71 1975
375 71 940
376 71 2617
377 71 1408
378 71 2234
380 71 14
381 71 10
383 71 2837
384 71 2021
385 71 1675
387 71 2654
388 71 2411
390 71 3032
392 71 1600
393 71 3047
394 71 1841
395 71 1121
396 71 2174
398 71 3518
399 71 3684
400 71 65
401 71 4784
402 71 3104
403 71 6
405 71 725
406 71 1629
407 71 2040
408 71 2652
409 71 2089
410 71 2185
411 71 2384
412 71 6
413 71 2117
415 71 1288
416 71 109
417 71 1825
418 71 2985
419 71 115
420 71 1685
421 71 2316
422 71 1500
423 71 3557
424 71 7
425 71 1878
427 71 2409
428 71 1015
429 71 2930
430 71 3600
431 71 2375
432 71 2060
433 71 2956
436 71 1839
437 71 1088
438 71 1571
439 71 2723
440 71 975
441 71 1300
442 71 3013
443 71 1635
445 71 652
446 71 2031
447 71 2663
448 71 3106
449 71 1523
450 71 1404
451 71 1641
452 71 1610
453 71 1866
454 71 1380
455 71 1668
456 71 1896
458 71 43
459 71 1625
460 71 2735
461 71 1627
462 71 1790
463 71 1369
464 71 2105
465 71 31
466 71 1214
467 71 2105
468 71 2882
469 71 2649
470 71 1371
471 71 2397
472 71 3299
473 71 1939
474 71 3
475 71 90
476 71 1881
477 71 980
478 71 15
479 71 1574
480 71 1600
481 71 1952
482 71 2150
483 71 1222
485 71 1968
486 71 2511
487 71 1252
488 71 2142
489 71 1130
490 71 2705
491 71 2655
492 71 2048
493 71 3291
494 71 2265
495 71 1837
496 71 1669
497 71 736
498 71 1056
499 71 1311
500 71 2041
2 72 1627
3 72 4
5 72 413
15 72 9
16 72 3002
17 72 2092
19 72 1602
21 72 63
24 72 442
25 72 1310
39 72 349
41 72 770
46 72 2805
47 72 385
50 72 3
52 72 853
56 72 2703
62 72 1275
68 72 2959
70 72 87
73 72 2316
77 72 6
78 72 80
84 72 1098
86 72 2856
87 72 483
102 72 2942
104 72 1311
105 72 2407
106 72 21
108 72 1911
111 72 2873
114 72 1946
115 72 939
125 72 8
126 72 1741
137 72 2389
141 72 769
143 72 839
144 72 645
149 72 1932
150 72 1892
153 72 2337
154 72 2028
163 72 1171
165 72 399
170 72 303
172 72 1751
173 72 3649
174 72 743
175 72 2867
178 72 1703
186 72 1704
191 72 3511
192 72 80
195 72 3613
199 72 1105
200 72 1355
207 72 2075
225 72 60
226 72 804
229 72 3673
234 72 169
237 72 1984
245 72 1641
253 72 532
258 72 782
259 72 2
264 72 25
267 72 999
277 72 778
284 72 1300
296 72 1663
313 72 3427
315 72 3452
320 72 1490
334 72 18
335 72 3288
338 72 2505
339 72 2062
341 72 2140
342 72 1258
343 72 3544
346 72 2793
347 72 2224
350 72 374
355 72 3180
356 72 1128
358 72 1571
363 72 1
364 72 8
371 72 1847
379 72 1272
380 72 1617
381 72 2271
382 72 1235
385 72 15
386 72 1321
389 72 1707
391 72 2762
397 72 832
400 72 1380
401 72 4
403 72 961
404 72 3279
412 72 935
414 72 2428
416 72 475
419 72 759
424 72 1963
426 72 3234
434 72 1493
435 72 3172
444 72 3004
457 72 1628
458 72 968
465 72 1174
467 72 62
474 72 2225
475 72 855
478 72 1596
484 72 2237
493 72 2
2 73 1322
3 73 75
5 73 1651
15 73 101
16 73 111
17 73 492
19 73 858
21 73 197
24 73 559
25 73 623
39 73 944
41 73 1068
42 73 36
46 73 998
47 73 513
50 73 103
52 73 1198
56 73 1695
57 73 67
62 73 176
68 73 836
70 73 1604
73 73 956
77 73 516
78 73 271
79 73 7
84 73 898
86 73 1009
87 73 1099
102 73 596
104 73 730
105 73 1308
106 73 319
108 73 392
111 73 884
114 73 361
115 73 1710
125 73 86
126 73 1764
133 73 35
137 73 1216
141 73 402
143 73 1919
144 73 742
149 73 734
150 73 868
153 73 1474
154 73 745
163 73 337
164 73 40
165 73 543
170 73 665
172 73 399
173 73 1725
174 73 817
175 73 883
178 73 1287
186 73 1277
191 73 1290
192 73 1638
195 73 1463
199 73 2136
200 73 483
207 73 1342
225 73 157
226 73 220
229 73 2714
234 73 259
237 73 1252
245 73 842
253 73 683
258 73 203
259 73 89
264 73 229
267 73 643
268 73 39
277 73 427
284 73 179
296 73 740
310 73 262
313 73 1569
315 73 2086
320 73 2196
332 73 12
334 73 341
335 73 749
338 73 254
339 73 2729
341 73 1197
342 73 649
343 73 1379
346 73 1469
347 73 325
350 73 532
354 73 119
355 73 675
356 73 675
358 73 1828
363 73 87
364 73 1
369 73 1
371 73 983
373 73 335
379 73 816
380 73 639
381 73 772
382 73 816
385 73 108
386 73 480
389 73 1570
391 73 2710
397 73 1233
400 73 619
401 73 52
403 73 1205
404 73 1832
411 73 46
412 73 1249
414 73 1641
416 73 683
419 73 723
424 73 1264
426 73 665
434 73 1309
435 73 1110
444 73 902
457 73 768
458 73 1100
465 73 1126
467 73 133
474 73 1665
475 73 234
478 73 1006
484 73 1208
493 73 3
496 73 1
1 74 879
3 74 1461
4 74 1133
5 74 3
6 74 1979
7 74 597
8 74 1039
9 74 1756
10 74 873
11 74 1445
12 74 1086
13 74 1426
14 74 1073
15 74 1800
16 74 9
17 74 42
18 74 675
19 74 53
20 74 676
21 74 1015
22 74 1528
23 74 613
24 74 2012
25 74 45
26 74 869
27 74 1711
28 74 799
29 74 1440
30 74 382
31 74 1096
32 74 633
33 74 2658
34 74 1761
35 74 305
36 74 528
37 74 1291
38 74 521
39 74 2567
40 74 800
41 74 531
42 74 796
43 74 2055
44 74 1520
45 74 851
46 74 43
47 74 226
48 74 1661
49 74 613
50 74 395
51 74 928
53 74 895
54 74 1490
55 74 1441
56 74 7
57 74 1848
58 74 1250
59 74 586
60 74 785
61 74 1260
62 74 423
63 74 1204
64 74 493
65 74 1811
66 74 1051
67 74 542
68 74 19
69 74 473
70 74 1129
71 74 615
72 74 583
74 74 483
75 74 1429
76 74 1189
77 74 1387
78 74 1328
79 74 2291
80 74 1310
81 74 2325
82 74 671
83 74 1192
84 74 297
85 74 753
87 74 553
88 74 576
89 74 1783
90 74 795
91 74 549
92 74 626
93 74 443
94 74 920
95 74 1466
96 74 1870
97 74 1031
98 74 913
99 74 1035
100 74 481
101 74 2257
102 74 4
103 74 2022
104 74 482
105 74 8
106 74 1039
107 74 740
108 74 7
109 74 705
110 74 1926
112 74 746
113 74 817
115 74 6
116 74 897
117 74 1164
118 74 1102
119 74 108
120 74 1307
121 74 2396
122 74 1924
123 74 2058
124 74 1978
125 74 1368
126 74 12
127 74 556
128 74 945
129 74 881
130 74 505
131 74 626
132 74 833
133 74 1036
134 74 1229
135 74 866
136 74 1216
137 74 42
138 74 1835
139 74 1770
140 74 1217
141 74 255
142 74 556
143 74 83
144 74 832
145 74 427
146 74 1275
147 74 761
148 74 923
150 74 8
151 74 871
152 74 764
153 74 10
154 74 128
155 74 1550
156 74 818
157 74 510
158 74 781
159 74 1058
160 74 2460
161 74 1186
162 74 810
164 74 796
165 74 856
166 74 1642
167 74 729
168 74 1132
169 74 1018
170 74 1172
171 74 375
172 74 27
173 74 11
176 74 650
177 74 2079
178 74 52
179 74 888
180 74 328
181 74 423
182 74 927
183 74 1140
184 74 676
185 74 218
186 74 39
187 74 2243
188 74 1209
189 74 1209
190 74 1030
191 74 19
192 74 1101
193 74 1206
194 74 1064
195 74 12
196 74 1013
197 74 631
198 74 1221
199 74 30
200 74 1005
201 74 769
202 74 858
203 74 661
204 74 1654
205 74 758
206 74 990
207 74 11
208 74 739
209 74 1672
210 74 1788
211 74 621
212 74 877
213 74 987
214 74 845
215 74 516
216 74 747
217 74 297
218 74 1306
219 74 1250
220 74 1565
221 74 563
222 74 849
223 74 1173
224 74 945
225 74 841
226 74 1095
227 74 2037
228 74 1657
230 74 1447
231 74 1885
232 74 1023
233 74 1233
234 74 949
235 74 605
236 74 603
237 74 7
238 74 1033
239 74 1013
240 74 1418
241 74 653
242 74 1576
243 74 1668
244 74 1382
245 74 20
246 74 1262
247 74 1263
248 74 667
249 74 172
250 74 652
251 74 879
252 74 2245
253 74 896
254 74 696
255 74 1395
256 74 2029
257 74 577
258 74 1034
259 74 1353
260 74 1614
261 74 1149
262 74 832
263 74 1490
264 74 840
265 74 472
266 74 1881
267 74 42
268 74 1753
269 74 534
270 74 1151
271 74 477
272 74 1192
273 74 1298
274 74 909
275 74 973
276 74 897
277 74 254
278 74 771
279 74 565
280 74 196
281 74 2856
282 74 1817
283 74 897
284 74 405
285 74 2367
286 74 1865
287 74 852
288 74 671
289 74 974
290 74 1467
291 74 1128
292 74 1505
293 74 1089
294 74 1462
295 74 1004
296 74 84
297 74 1156
298 74 1346
299 74 531
300 74 1344
301 74 726
302 74 1351
303 74 1558
304 74 1444
305 74 1377
306 74 1527
307 74 2260
308 74 637
309 74 591
310 74 1860
311 74 1364
312 74 1702
313 74 14
314 74 1377
316 74 780
317 74 2162
318 74 615
319 74 1287
320 74 16
321 74 1088
322 74 722
323 74 1274
324 74 1520
325 74 654
326 74 946
327 74 671
328 74 1235
329 74 622
330 74 849
331 74 828
332 74 2189
333 74 1479
334 74 1005
335 74 10
336 74 1421
337 74 495
338 74 17
339 74 8
340 74 1698
342 74 48
343 74 12
344 74 1243
345 74 1421
346 74 42
348 74 870
349 74 627
350 74 204
351 74 1177
352 74 1248
353 74 958
354 74 784
355 74 26
357 74 1047
358 74 44
359 74 1129
360 74 1111
361 74 669
362 74 2118
363 74 1387
364 74 1088
365 74 674
366 74 1583
367 74 628
368 74 527
369 74 891
370 74 1327
371 74 23
372 74 1442
373 74 2098
374 74 959
375 74 1151
376 74 1341
377 74 343
378 74 1500
379 74 9
381 74 156
382 74 12
383 74 1625
384 74 786
385 74 2148
386 74 992
387 74 683
388 74 500
390 74 1292
391 74 20
392 74 1152
393 74 1879
394 74 893
395 74 1476
396 74 805
398 74 1755
399 74 1245
400 74 646
401 74 1251
402 74 791
403 74 14
404 74 156
405 74 823
406 74 1061
407 74 1624
408 74 1442
409 74 1223
410 74 1549
411 74 1800
412 74 16
413 74 1888
414 74 8
415 74 1056
416 74 926
417 74 860
418 74 1316
419 74 2040
420 74 1193
421 74 1993
422 74 529
423 74 1400
424 74 5
425 74 1253
426 74 3
427 74 688
428 74 1305
429 74 1223
430 74 1475
431 74 726
432 74 1851
433 74 2131
434 74 22
435 74 28
436 74 841
437 74 1005
438 74 1455
439 74 1169
440 74 793
441 74 1771
442 74 1027
443 74 330
444 74 9
445 74 454
446 74 820
447 74 1439
448 74 440
449 74 802
450 74 830
451 74 1703
452 74 959
453 74 1454
454 74 671
455 74 1635
456 74 988
457 74 65
458 74 529
459 74 1628
460 74 683
461 74 1774
462 74 573
463 74 1084
464 74 1000
465 74 98
466 74 816
467 74 899
468 74 908
469 74 1300
470 74 704
471 74 1577
472 74 1312
473 74 1011
474 74 54
475 74 1063
476 74 1340
477 74 340
478 74 417
479 74 1043
480 74 1735
481 74 1040
482 74 862
483 74 296
484 74 5
485 74 770
486 74 1279
487 74 482
488 74 966
489 74 282
490 74 1552
491 74 1231
492 74 1107
493 74 1092
494 74 1333
495 74 1542
496 74 905
497 74 630
498 74 875
499 74 860
500 74 1363
2 75 3411
5 75 3142
15 75 39
16 75 2474
17 75 2071
19 75 941
24 75 217
25 75 1723
39 75 1050
41 75 847
46 75 1925
47 75 281
50 75 7
52 75 3011
56 75 3852
62 75 2005
68 75 1850
70 75 137
73 75 2364
84 75 2425
86 75 2211
87 75 1988
102 75 1812
104 75 2532
105 75 2588
108 75 2126
111 75 2156
114 75 2887
115 75 2555
126 75 2783
137 75 4085
141 75 1858
143 75 1994
144 75 836
149 75 4698
150 75 1262
153 75 2888
154 75 2420
163 75 2028
165 75 269
170 75 664
172 75 1768
173 75 2582
174 75 3029
175 75 2229
178 75 3498
186 75 3163
191 75 5292
192 75 148
195 75 2796
199 75 2720
200 75 2397
207 75 3227
225 75 6
226 75 1226
229 75 2229
234 75 1390
237 75 1755
245 75 5103
253 75 1161
258 75 1273
267 75 3040
277 75 1802
284 75 2055
296 75 4680
313 75 770
315 75 3980
320 75 3404
335 75 3165
338 75 2849
339 75 4722
341 75 2005
342 75 1749
343 75 2862
346 75 4798
347 75 2674
350 75 272
355 75 2800
356 75 1882
358 75 5013
371 75 1920
373 75 8
379 75 1656
380 75 2184
381 75 875
382 75 1644
386 75 2342
389 75 2925
391 75 3120
397 75 2987
400 75 27
403 75 5108
404 75 3501
412 75 5268
414 75 3556
416 75 1076
424 75 4060
426 75 3676
434 75 1873
435 75 1591
444 75 2619
457 75 4691
458 75 1746
465 75 2480
467 75 8
474 75 2180
475 75 1235
478 75 2413
484 75 2321
2 76 3227
5 76 3591
16 76 2639
17 76 3369
19 76 3424
24 76 124
25 76 1670
39 76 156
41 76 956
46 76 1937
47 76 178
52 76 3351
56 76 2275
62 76 998
68 76 2371
70 76 12
73 76 5135
84 76 2389
86 76 2776
87 76 2900
102 76 3235
104 76 219
105 76 3961
108 76 1699
111 76 2185
114 76 3237
115 76 3128
126 76 3022
137 76 2587
141 76 2370
143 76 3391
144 76 142
149 76 2977
150 76 2664
153 76 2284
154 76 3384
163 76 3621
165 76 336
170 76 984
172 76 1746
173 76 2050
174 76 2353
175 76 2174
178 76 2911
186 76 3550
191 76 1278
192 76 10
195 76 1764
199 76 2638
200 76 2543
207 76 3225
226 76 516
229 76 4357
234 76 177
237 76 2202
245 76 3253
253 76 320
258 76 550
267 76 4021
277 76 2359
284 76 994
296 76 2385
313 76 3457
315 76 2965
320 76 2697
335 76 3208
338 76 1643
339 76 2795
341 76 3198
342 76 1675
343 76 1808
346 76 3790
347 76 3567
350 76 218
355 76 4522
356 76 2884
358 76 2845
371 76 2825
373 76 18
379 76 1653
380 76 1203
381 76 1515
382 76 1672
386 76 2477
389 76 2277
391 76 1835
397 76 3334
400 76 14
403 76 2961
404 76 1613
412 76 2974
414 76 4385
416 76 325
424 76 1323
426 76 1826
434 76 4494
435 76 3271
444 76 2818
457 76 2376
458 76 1797
465 76 2282
474 76 2590
475 76 480
478 76 2553
484 76 528
2 77 696
5 77 334
15 77 3
16 77 735
17 77 269
19 77 228
21 77 3
24 77 48
25 77 214
39 77 124
41 77 178
46 77 573
47 77 39
50 77 24
52 77 416
56 77 395
62 77 76
68 77 364
70 77 29
73 77 628
78 77 15
84 77 288
86 77 561
87 77 95
102 77 512
104 77 56
105 77 789
108 77 205
111 77 1478
114 77 430
115 77 451
126 77 605
137 77 551
141 77 238
143 77 180
144 77 35
149 77 631
150 77 1387
153 77 298
154 77 528
163 77 968
165 77 45
170 77 85
172 77 668
173 77 1044
174 77 932
175 77 1508
178 77 277
186 77 461
191 77 668
192 77 19
195 77 304
199 77 1233
200 77 191
207 77 608
225 77 15
226 77 101
229 77 464
234 77 66
237 77 893
245 77 978
253 77 48
258 77 88
264 77 25
267 77 521
277 77 243
284 77 103
296 77 498
313 77 653
315 77 281
320 77 355
335 77 615
338 77 343
339 77 218
341 77 551
342 77 189
343 77 310
346 77 133
347 77 486
350 77 40
355 77 338
356 77 455
358 77 451
371 77 836
373 77 24
379 77 921
380 77 356
381 77 285
382 77 945
386 77 167
389 77 751
391 77 453
397 77 379
400 77 28
403 77 405
404 77 1130
412 77 369
414 77 1313
416 77 69
419 77 10
424 77 1207
426 77 361
434 77 256
435 77 221
444 77 419
457 77 517
458 77 141
462 77 2
465 77 89
467 77 13
474 77 595
475 77 114
478 77 165
484 77 405
2 78 1795
5 78 460
16 78 493
17 78 68
19 78 155
25 78 116
46 78 422
52 78 738
56 78 1123
62 78 2
68 78 226
73 78 481
84 78 11
86 78 366
87 78 10
102 78 670
105 78 145
107 78 3
108 78 420
111 78 1048
114 78 623
115 78 93
126 78 399
137 78 1340
141 78 12
143 78 54
149 78 119
150 78 418
153 78 360
154 78 47
163 78 998
165 78 4
172 78 107
173 78 197
174 78 49
175 78 1039
178 78 143
186 78 297
191 78 333
195 78 304
199 78 343
200 78 5
207 78 173
229 78 443
237 78 87
245 78 286
267 78 217
277 78 12
284 78 7
296 78 126
313 78 262
315 78 266
320 78 72
335 78 634
338 78 924
339 78 482
341 78 851
342 78 122
343 78 273
346 78 218
347 78 414
355 78 32
356 78 95
358 78 164
371 78 619
379 78 379
380 78 401
381 78 75
382 78 374
386 78 5
389 78 990
391 78 769
397 78 746
403 78 203
404 78 125
412 78 210
414 78 476
424 78 641
426 78 462
434 78 572
435 78 185
444 78 231
457 78 129
465 78 13
474 78 21
478 78 10
484 78 247
2 79 2016
5 79 769
16 79 424
17 79 770
19 79 627
24 79 2
25 79 1327
39 79 40
41 79 570
46 79 2050
47 79 13
52 79 1627
56 79 413
62 79 515
68 79 506
73 79 1769
84 79 1646
86 79 744
87 79 238
102 79 2437
104 79 24
105 79 1032
108 79 682
109 79 2
111 79 2091
114 79 866
115 79 1257
126 79 1224
137 79 1761
141 79 400
143 79 1201
144 79 24
149 79 1797
150 79 354
153 79 1452
154 79 2170
163 79 1145
165 79 90
170 79 74
172 79 1202
173 79 970
174 79 1373
175 79 2114
178 79 552
186 79 816
191 79 1005
195 79 758
199 79 567
200 79 733
207 79 900
214 79 5
226 79 140
229 79 731
234 79 90
237 79 817
245 79 4012
253 79 4
258 79 136
267 79 947
277 79 381
284 79 486
296 79 1626
313 79 249
315 79 943
316 79 6
320 79 425
335 79 1312
338 79 751
339 79 896
341 79 1079
342 79 1408
343 79 751
346 79 1494
347 79 3070
350 79 13
355 79 2234
356 79 1677
358 79 1972
371 79 2149
379 79 1480
380 79 1508
381 79 1089
382 79 1551
386 79 743
389 79 454
391 79 2335
396 79 10
397 79 1598
400 79 7
403 79 1220
404 79 1070
412 79 1217
414 79 1842
416 79 8
424 79 1263
426 79 1407
434 79 1629
435 79 709
444 79 1994
457 79 1625
458 79 141
465 79 1218
474 79 2020
475 79 151
478 79 250
484 79 1446
2 80 1498
5 80 1033
15 80 57
16 80 1352
17 80 2416
19 80 1826
21 80 7
24 80 268
25 80 1023
39 80 424
41 80 1688
46 80 1940
47 80 357
50 80 12
52 80 2075
56 80 2078
62 80 2210
68 80 2708
70 80 409
73 80 2305
77 80 10
78 80 26
84 80 2309
86 80 2498
87 80 2145
102 80 1006
104 80 1830
105 80 1140
108 80 1768
111 80 731
114 80 1547
115 80 1998
126 80 1512
137 80 2653
138 80 4
141 80 1339
143 80 1992
144 80 357
149 80 1014
150 80 1501
153 80 2438
154 80 1467
163 80 1966
165 80 338
170 80 466
172 80 2155
173 80 2002
174 80 1215
175 80 679
178 80 1623
179 80 6
186 80 2870
191 80 1089
192 80 385
195 80 1761
199 80 1323
200 80 298
207 80 1690
215 80 7
225 80 83
226 80 345
229 80 4487
234 80 410
237 80 1197
245 80 2770
248 80 6
253 80 588
258 80 366
259 80 18
264 80 73
267 80 2726
277 80 1344
284 80 2188
296 80 1736
313 80 2293
315 80 1542
320 80 1460
335 80 3618
338 80 1666
339 80 1636
341 80 1948
342 80 1065
343 80 1754
346 80 1038
347 80 2167
350 80 387
355 80 2195
356 80 1514
358 80 1833
371 80 1891
373 80 109
379 80 1999
380 80 2101
381 80 778
382 80 2059
386 80 272
387 80 5
389 80 1114
391 80 2248
397 80 2013
400 80 95
403 80 2304
404 80 2331
412 80 2409
414 80 1463
416 80 599
419 80 7
424 80 1801
426 80 763
434 80 1384
435 80 2240
444 80 2894
457 80 1772
458 80 513
463 80 6
465 80 1270
467 80 98
474 80 2040
475 80 360
478 80 1145
484 80 2147
1 81 548
2 81 1270
3 81 1945
4 81 1735
5 81 1333
6 81 1167
7 81 1372
8 81 2786
9 81 1495
10 81 1035
11 81 1668
12 81 2180
13 81 930
14 81 2764
15 81 2041
16 81 1306
17 81 1481
18 81 654
19 81 2453
20 81 2331
21 81 1139
22 81 718
23 81 1822
24 81 1415
25 81 745
26 81 1359
27 81 2084
28 81 633
29 81 1245
30 81 579
31 81 1756
32 81 2280
33 81 1134
34 81 1502
35 81 808
36 81 976
37 81 1121
38 81 244
39 81 2013
40 81 1792
41 81 878
42 81 1765
43 81 1738
44 81 504
45 81 1522
46 81 1090
47 81 1417
48 81 1680
49 81 1781
50 81 2090
51 81 1464
52 81 989
53 81 1600
54 81 1999
55 81 991
56 81 2112
57 81 1397
58 81 2327
59 81 1087
60 81 933
61 81 1311
62 81 2691
63 81 1294
64 81 1203
65 81 1599
66 81 915
67 81 886
68 81 1323
69 81 2627
70 81 1113
71 81 827
72 81 1305
73 81 2305
74 81 742
75 81 1203
76 81 1393
77 81 1162
78 81 996
79 81 1186
80 81 1288
81 81 1718
82 81 1515
83 81 1262
84 81 652
85 81 1614
86 81 782
87 81 1433
88 81 600
89 81 1256
90 81 1785
91 81 1076
92 81 2400
93 81 1730
94 81 660
95 81 2076
96 81 1592
97 81 1191
98 81 1043
99 81 945
100 81 962
101 81 1774
102 81 2365
103 81 2988
104 81 2069
105 81 1597
106 81 2204
107 81 2320
108 81 2381
109 81 1314
110 81 1335
111 81 1300
112 81 568
113 81 1731
114 81 2187
115 81 1571
116 81 2198
117 81 619
118 81 1040
119 81 2737
120 81 1791
121 81 1689
122 81 1789
123 81 862
124 81 1156
125 81 2045
126 81 1358
127 81 2949
128 81 1014
129 81 1405
130 81 2540
131 81 1728
132 81 1515
133 81 1604
134 81 1062
135 81 1131
136 81 951
137 81 1103
138 81 961
139 81 1158
140 81 613
141 81 1145
142 81 879
143 81 1434
144 81 2897
145 81 756
146 81 2074
147 81 1129
148 81 706
149 81 2331
150 81 2102
151 81 1706
152 81 1048
153 81 1202
154 81 2748
155 81 1224
156 81 910
157 81 2275
158 81 1256
159 81 1192
160 81 886
161 81 2030
162 81 1113
163 81 2679
164 81 1724
165 81 2305
166 81 1750
167 81 1263
168 81 934
169 81 2794
170 81 636
171 81 1741
172 81 2573
173 81 3827
174 81 1827
175 81 1334
176 81 485
177 81 1172
178 81 295
179 81 1468
180 81 1757
181 81 808
182 81 478
183 81 1734
184 81 1533
185 81 797
186 81 1765
187 81 1339
188 81 913
189 81 1286
190 81 1841
191 81 1539
192 81 1069
193 81 641
194 81 1184
195 81 1219
196 81 1392
197 81 869
198 81 852
199 81 1813
200 81 1588
201 81 795
202 81 1780
203 81 850
204 81 1784
205 81 1242
206 81 1482
207 81 957
208 81 1560
209 81 1840
210 81 1664
211 81 1780
212 81 1362
213 81 442
214 81 1879
215 81 1251
216 81 1763
217 81 1016
218 81 1446
219 81 1406
220 81 2524
221 81 1067
222 81 1239
223 81 619
224 81 2200
225 81 1098
226 81 2471
227 81 1136
228 81 597
229 81 777
230 81 1428
231 81 941
232 81 1216
233 81 773
234 81 2730
235 81 885
236 81 1370
237 81 1112
238 81 1424
239 81 894
240 81 586
241 81 1461
242 81 2463
243 81 1007
244 81 802
245 81 1589
246 81 780
247 81 1005
248 81 2120
249 81 765
250 81 635
251 81 1274
252 81 625
253 81 2322
254 81 957
255 81 1010
256 81 843
257 81 2920
258 81 2450
259 81 1178
260 81 1458
261 81 1723
262 81 1299
263 81 1064
264 81 2765
265 81 654
266 81 2348
267 81 1950
268 81 1374
269 81 584
270 81 1752
271 81 1200
272 81 399
273 81 435
274 81 1083
275 81 941
276 81 1017
277 81 1143
278 81 2232
279 81 1591
280 81 328
281 81 2403
282 81 1515
283 81 1777
284 81 2745
285 81 1749
286 81 2268
287 81 821
288 81 866
289 81 1240
290 81 1155
291 81 1720
292 81 2032
293 81 2144
294 81 755
295 81 1122
296 81 2009
297 81 433
298 81 1315
299 81 2565
300 81 1488
301 81 1770
302 81 576
303 81 1312
304 81 1255
305 81 1025
306 81 1727
307 81 1896
308 81 1214
309 81 1666
310 81 3976
311 81 2227
312 81 2056
313 81 2035
314 81 1442
315 81 995
316 81 1872
317 81 1362
318 81 1025
319 81 808
320 81 1337
321 81 1765
322 81 1410
323 81 2056
324 81 1085
325 81 1164
326 81 1401
327 81 1397
328 81 2068
329 81 3145
330 81 2314
331 81 809
332 81 1849
333 81 678
334 81 2243
335 81 2252
336 81 2084
337 81 1547
338 81 1018
339 81 892
340 81 1783
341 81 2363
342 81 700
343 81 1203
344 81 1187
345 81 2548
346 81 1968
347 81 868
348 81 2175
349 81 1099
350 81 1341
351 81 1995
352 81 2220
353 81 467
354 81 1400
355 81 2289
356 81 2358
357 81 1030
358 81 2850
359 81 707
360 81 410
361 81 1020
362 81 1707
363 81 2048
364 81 1573
365 81 1472
366 81 2107
367 81 716
368 81 640
369 81 897
370 81 2513
371 81 1771
372 81 1787
373 81 3098
374 81 992
375 81 1306
376 81 1913
377 81 1654
378 81 967
379 81 1415
380 81 638
381 81 2349
382 81 1410
383 81 1684
384 81 1560
385 81 286
386 81 1536
387 81 2089
388 81 2199
389 81 3002
390 81 1411
391 81 1737
392 81 1386
393 81 1345
394 81 1053
395 81 1717
396 81 1838
397 81 978
398 81 1448
399 81 1612
400 81 2141
401 81 2587
402 81 1069
403 81 1482
404 81 585
405 81 1405
406 81 857
407 81 1165
408 81 1089
409 81 897
410 81 1198
411 81 567
412 81 1457
413 81 1561
414 81 1123
415 81 1375
416 81 2275
417 81 1026
418 81 1298
419 81 1562
420 81 926
421 81 1966
422 81 665
423 81 2081
424 81 810
425 81 1676
426 81 344
427 81 930
428 81 1092
429 81 1876
430 81 687
431 81 1579
432 81 743
433 81 699
434 81 1691
435 81 1676
436 81 1265
437 81 554
438 81 1122
439 81 1552
440 81 435
441 81 1404
442 81 1544
443 81 833
444 81 1245
445 81 824
446 81 1264
447 81 1050
448 81 1744
449 81 1485
450 81 721
451 81 1447
452 81 1162
453 81 1706
454 81 672
455 81 1515
456 81 569
457 81 2048
458 81 2372
459 81 2195
460 81 2308
461 81 1234
462 81 1860
463 81 1040
464 81 1510
465 81 1802
466 81 1448
467 81 1085
468 81 952
469 81 1305
470 81 993
471 81 1008
472 81 1251
473 81 2336
474 81 4473
475 81 2471
476 81 2568
477 81 861
478 81 1376
479 81 813
480 81 1460
481 81 924
482 81 1573
483 81 625
484 81 2289
485 81 1360
486 81 1670
487 81 871
488 81 1201
489 81 709
490 81 2069
491 81 873
492 81 2745
493 81 1581
494 81 1750
495 81 1215
496 81 1232
497 81 952
498 81 619
499 81 824
500 81 767
1 82 436
2 82 222
3 82 1336
4 82 920
5 82 486
6 82 1038
7 82 848
8 82 399
9 82 379
10 82 296
11 82 478
12 82 246
13 82 268
14 82 409
15 82 193
16 82 244
17 82 733
18 82 1027
19 82 552
20 82 55
21 82 1067
22 82 1224
23 82 109
24 82 1006
25 82 463
26 82 933
27 82 277
28 82 430
29 82 300
30 82 548
31 82 225
32 82 801
33 82 459
34 82 378
35 82 450
36 82 82
37 82 104
38 82 246
39 82 369
40 82 542
41 82 1355
42 82 191
43 82 1001
44 82 293
45 82 83
46 82 288
47 82 313
48 82 598
49 82 126
50 82 257
51 82 781
52 82 773
53 82 608
54 82 197
55 82 382
56 82 1263
57 82 673
58 82 1067
59 82 286
60 82 635
61 82 279
62 82 615
63 82 561
64 82 217
65 82 220
66 82 639
67 82 262
68 82 1079
69 82 1005
70 82 858
71 82 241
72 82 133
73 82 278
74 82 471
75 82 93
76 82 703
77 82 209
78 82 584
79 82 402
80 82 231
81 82 663
82 82 171
83 82 560
84 82 415
85 82 347
86 82 1153
87 82 309
88 82 491
89 82 96
90 82 688
91 82 181
92 82 799
93 82 743
94 82 657
95 82 792
96 82 216
97 82 213
98 82 236
99 82 171
100 82 183
101 82 697
102 82 684
103 82 265
104 82 210
105 82 893
106 82 383
107 82 181
108 82 263
109 82 189
110 82 195
111 82 1018
112 82 123
113 82 303
114 82 169
115 82 195
116 82 280
117 82 140
118 82 421
119 82 434
120 82 445
121 82 382
122 82 781
123 82 533
124 82 1040
125 82 1299
126 82 713
127 82 699
128 82 270
129 82 505
130 82 948
131 82 1272
132 82 249
133 82 1208
134 82 431
135 82 315
136 82 877
137 82 332
138 82 448
139 82 148
140 82 130
141 82 1109
142 82 269
143 82 1182
144 82 615
145 82 353
146 82 235
147 82 104
148 82 383
149 82 417
150 82 230
151 82 594
152 82 319
153 82 705
154 82 366
155 82 856
156 82 563
157 82 150
158 82 307
159 82 202
160 82 549
161 82 267
162 82 424
163 82 1303
164 82 234
165 82 931
166 82 940
167 82 849
168 82 418
169 82 383
170 82 1252
171 82 177
172 82 201
173 82 821
174 82 134
175 82 1035
176 82 662
177 82 1089
178 82 779
179 82 133
180 82 403
181 82 320
182 82 309
183 82 442
184 82 633
185 82 844
186 82 223
187 82 120
188 82 943
189 82 562
190 82 340
191 82 653
192 82 891
193 82 135
194 82 347
195 82 374
196 82 867
197 82 900
198 82 419
199 82 1035
200 82 825
201 82 776
202 82 903
203 82 529
204 82 931
205 82 172
206 82 393
207 82 183
208 82 424
209 82 468
210 82 541
211 82 1281
212 82 619
213 82 159
214 82 632
215 82 619
216 82 730
217 82 236
218 82 266
219 82 393
220 82 347
221 82 148
222 82 144
223 82 131
224 82 380
225 82 1117
226 82 298
227 82 1029
228 82 317
229 82 687
230 82 531
231 82 392
232 82 544
233 82 286
234 82 1005
235 82 524
236 82 127
237 82 329
238 82 900
239 82 185
240 82 581
241 82 963
242 82 855
243 82 186
244 82 752
245 82 459
246 82 655
247 82 184
248 82 230
249 82 392
250 82 248
251 82 142
252 82 776
253 82 751
254 82 524
255 82 323
256 82 532
257 82 699
258 82 325
259 82 1201
260 82 1106
261 82 384
262 82 183
263 82 338
264 82 810
265 82 66
266 82 769
267 82 97
268 82 390
269 82 501
270 82 626
271 82 214
272 82 118
273 82 391
274 82 251
275 82 516
276 82 272
277 82 1090
278 82 621
279 82 889
280 82 551
281 82 292
282 82 110
283 82 482
284 82 636
285 82 442
286 82 761
287 82 588
288 82 537
289 82 149
290 82 98
291 82 387
292 82 180
293 82 242
294 82 283
295 82 389
296 82 274
297 82 84
298 82 517
299 82 918
300 82 1026
301 82 316
302 82 563
303 82 601
304 82 621
305 82 253
306 82 282
307 82 690
308 82 900
309 82 878
310 82 586
311 82 465
312 82 310
313 82 400
314 82 498
315 82 1024
316 82 666
317 82 106
318 82 354
319 82 359
320 82 638
321 82 213
322 82 640
323 82 249
324 82 310
325 82 928
326 82 338
327 82 523
328 82 297
329 82 728
330 82 167
331 82 800
332 82 233
333 82 408
334 82 352
335 82 350
336 82 842
337 82 780
338 82 210
339 82 514
340 82 425
341 82 515
342 82 480
343 82 374
344 82 494
345 82 165
346 82 1670
347 82 340
348 82 364
349 82 263
350 82 308
351 82 267
352 82 589
353 82 233
354 82 1169
355 82 297
356 82 466
357 82 1193
358 82 432
359 82 551
360 82 1142
361 82 628
362 82 982
363 82 1297
364 82 392
365 82 245
366 82 794
367 82 691
368 82 58
369 82 554
370 82 502
371 82 387
372 82 470
373 82 975
374 82 544
375 82 596
376 82 502
377 82 383
378 82 365
379 82 478
380 82 948
381 82 292
382 82 475
383 82 551
384 82 86
385 82 299
386 82 873
387 82 229
388 82 146
389 82 1007
390 82 231
391 82 218
392 82 1177
393 82 216
394 82 279
395 82 294
396 82 634
397 82 756
398 82 396
399 82 305
400 82 153
401 82 950
402 82 387
403 82 381
404 82 603
405 82 393
406 82 311
407 82 500
408 82 361
409 82 102
410 82 471
411 82 335
412 82 429
413 82 119
414 82 397
415 82 1097
416 82 839
417 82 585
418 82 1148
419 82 810
420 82 876
421 82 503
422 82 373
423 82 795
424 82 332
425 82 685
426 82 485
427 82 139
428 82 415
429 82 244
430 82 1204
431 82 341
432 82 570
433 82 604
434 82 1203
435 82 2168
436 82 202
437 82 793
438 82 316
439 82 831
440 82 207
441 82 439
442 82 162
443 82 440
444 82 127
445 82 352
446 82 989
447 82 358
448 82 730
449 82 241
450 82 625
451 82 214
452 82 687
453 82 254
454 82 358
455 82 132
456 82 500
457 82 302
458 82 585
459 82 857
460 82 65
461 82 148
462 82 471
463 82 288
464 82 336
465 82 511
466 82 505
467 82 1060
468 82 423
469 82 303
470 82 543
471 82 703
472 82 475
473 82 995
474 82 1233
475 82 305
476 82 613
477 82 338
478 82 811
479 82 262
480 82 225
481 82 245
482 82 82
483 82 246
484 82 352
485 82 407
486 82 366
487 82 127
488 82 841
489 82 166
490 82 218
491 82 442
492 82 390
493 82 382
494 82 485
495 82 899
496 82 443
497 82 282
498 82 447
499 82 213
500 82 441
1 83 622
2 83 2644
3 83 3786
4 83 1823
5 83 3086
6 83 2008
7 83 1688
8 83 1280
9 83 2408
10 83 1608
11 83 2405
12 83 2200
13 83 1988
14 83 1331
15 83 2329
16 83 2253
17 83 2227
18 83 1233
19 83 873
20 83 1548
21 83 3403
22 83 2152
23 83 2584
24 83 3320
25 83 2070
26 83 2411
27 83 2132
28 83 627
29 83 2546
30 83 1561
31 83 1372
32 83 1759
33 83 1346
34 83 2428
35 83 628
36 83 1769
37 83 2862
38 83 1460
39 83 2065
40 83 517
41 83 3482
42 83 1631
43 83 1702
44 83 1272
45 83 1842
46 83 2210
47 83 1412
48 83 1489
49 83 2571
50 83 2372
51 83 1352
52 83 2594
53 83 1257
54 83 2469
55 83 1138
56 83 2040
57 83 1167
58 83 1992
59 83 815
60 83 1917
61 83 2276
62 83 1057
63 83 1149
64 83 1862
65 83 1017
66 83 2249
67 83 958
68 83 1303
69 83 1910
70 83 2036
71 83 1156
72 83 2288
73 83 612
74 83 856
75 83 1556
76 83 1295
77 83 2365
78 83 2700
79 83 2609
80 83 1289
81 83 1633
82 83 1581
83 83 1982
84 83 2818
85 83 1658
86 83 2059
87 83 3260
88 83 614
89 83 1581
90 83 2527
91 83 1093
92 83 1727
93 83 2294
94 83 1845
95 83 1323
96 83 1059
97 83 2216
98 83 1389
99 83 1582
100 83 545
101 83 1686
102 83 2292
103 83 1333
104 83 3558
105 83 2322
106 83 2393
107 83 2500
108 83 3256
109 83 2106
110 83 3202
111 83 1291
112 83 1134
113 83 504
114 83 1884
115 83 3540
116 83 2731
117 83 1545
118 83 1521
119 83 1542
120 83 3205
121 83 1718
122 83 2182
123 83 1609
124 83 2054
125 83 3621
126 83 1664
127 83 1544
128 83 1400
129 83 2013
130 83 1900
131 83 1607
132 83 1428
133 83 1998
134 83 1632
135 83 1173
136 83 841
137 83 3488
138 83 2159
139 83 1228
140 83 1579
141 83 2273
142 83 979
143 83 2228
144 83 3511
145 83 1214
146 83 1840
147 83 1725
148 83 1581
149 83 1525
150 83 1958
151 83 2370
152 83 1579
153 83 2280
154 83 2228
155 83 2106
156 83 629
157 83 1841
158 83 2691
159 83 2200
160 83 1488
161 83 2082
162 83 1408
163 83 3466
164 83 1653
165 83 3437
166 83 2309
167 83 805
168 83 1879
169 83 1363
170 83 951
171 83 2006
172 83 2073
173 83 4955
174 83 1446
175 83 1242
176 83 1082
177 83 2071
178 83 3137
179 83 2118
180 83 1099
181 83 1274
182 83 1508
183 83 1596
184 83 2027
185 83 2135
186 83 3243
187 83 2710
188 83 845
189 83 2118
190 83 1404
191 83 5648
192 83 2114
193 83 1507
194 83 1319
195 83 2433
196 83 2156
197 83 1835
198 83 1531
199 83 2027
200 83 2577
201 83 803
202 83 2989
203 83 1112
204 83 2280
205 83 2127
206 83 1332
207 83 3924
208 83 1559
209 83 1605
210 83 1713
211 83 1504
212 83 1890
213 83 1326
214 83 2311
215 83 1218
216 83 2572
217 83 1689
218 83 2355
219 83 1363
220 83 3468
221 83 1029
222 83 1423
223 83 1557
224 83 1773
225 83 3618
226 83 3163
227 83 1994
228 83 1632
229 83 3764
230 83 2284
231 83 1637
232 83 1521
233 83 1313
234 83 2975
235 83 1457
236 83 2252
237 83 3592
238 83 2174
239 83 1599
240 83 1819
241 83 2265
242 83 2100
243 83 1961
244 83 1211
245 83 2180
246 83 1142
247 83 1667
248 83 1341
249 83 1488
250 83 602
251 83 1495
252 83 1695
253 83 1522
254 83 1573
255 83 1256
256 83 1572
257 83 1543
258 83 3070
259 83 2428
260 83 2139
261 83 1058
262 83 1889
263 83 1074
264 83 3257
265 83 2152
266 83 2910
267 83 2521
268 83 1858
269 83 621
270 83 1632
271 83 1822
272 83 1099
273 83 1244
274 83 1424
275 83 700
276 83 1492
277 83 2182
278 83 566
279 83 1230
280 83 1132
281 83 1797
282 83 1333
283 83 833
284 83 1030
285 83 1789
286 83 2950
287 83 1971
288 83 1523
289 83 1945
290 83 1556
291 83 1026
292 83 2269
293 83 2122
294 83 1996
295 83 1403
296 83 2898
297 83 1094
298 83 2825
299 83 1969
300 83 2556
301 83 1717
302 83 1841
303 83 1630
304 83 1522
305 83 1930
306 83 2083
307 83 1193
308 83 1590
309 83 1232
310 83 2587
311 83 3430
312 83 2168
313 83 1708
314 83 1928
315 83 3903
316 83 2287
317 83 2851
318 83 1530
319 83 2620
320 83 2705
321 83 1426
322 83 2244
323 83 1801
324 83 2175
325 83 1631
326 83 1863
327 83 2226
328 83 2334
329 83 2750
330 83 2189
331 83 892
332 83 2239
333 83 1477
334 83 2406
335 83 1081
336 83 1289
337 83 2247
338 83 3286
339 83 2243
340 83 1570
341 83 1355
342 83 2096
343 83 2446
344 83 1981
345 83 2562
346 83 1750
347 83 2555
348 83 1788
349 83 785
350 83 1486
351 83 2434
352 83 2843
353 83 1638
354 83 1908
355 83 5013
356 83 3077
357 83 1225
358 83 2246
359 83 1609
360 83 1354
361 83 2037
362 83 1700
363 83 3682
364 83 4208
365 83 2063
366 83 2134
367 83 1260
368 83 2140
369 83 623
370 83 1815
371 83 3860
372 83 1446
373 83 2813
374 83 745
375 83 1203
376 83 980
377 83 1168
378 83 1221
379 83 1925
380 83 3676
381 83 962
382 83 1953
383 83 1491
384 83 1766
385 83 2759
386 83 2502
387 83 1256
388 83 1766
389 83 3504
390 83 1676
391 83 1692
392 83 1986
393 83 3235
394 83 1568
395 83 2010
396 83 2259
397 83 2563
398 83 1798
399 83 2725
400 83 2457
401 83 3238
402 83 1296
403 83 3164
404 83 2104
405 83 852
406 83 829
407 83 1710
408 83 2133
409 83 2297
410 83 1987
411 83 2860
412 83 3108
413 83 1347
414 83 2700
415 83 959
416 83 1472
417 83 1523
418 83 3209
419 83 1829
420 83 837
421 83 1319
422 83 829
423 83 1225
424 83 2462
425 83 1614
426 83 2302
427 83 1799
428 83 1621
429 83 2795
430 83 2263
431 83 1677
432 83 2059
433 83 1166
434 83 754
435 83 2915
436 83 1922
437 83 1293
438 83 996
439 83 1753
440 83 1185
441 83 1673
442 83 1690
443 83 563
444 83 2274
445 83 1254
446 83 2376
447 83 2141
448 83 2315
449 83 1449
450 83 2070
451 83 3701
452 83 1408
453 83 1853
454 83 1082
455 83 1471
456 83 2074
457 83 2867
458 83 2410
459 83 2178
460 83 1475
461 83 1423
462 83 1133
463 83 1880
464 83 1846
465 83 2227
466 83 1937
467 83 3656
468 83 1798
469 83 2232
470 83 1518
471 83 1203
472 83 2714
473 83 2717
474 83 2606
475 83 3138
476 83 1547
477 83 720
478 83 1468
479 83 797
480 83 3652
481 83 2245
482 83 1825
483 83 593
484 83 1607
485 83 2579
486 83 1269
487 83 320
488 83 1896
489 83 1063
490 83 2498
491 83 1512
492 83 1364
493 83 4280
494 83 1518
495 83 2043
496 83 1352
497 83 971
498 83 619
499 83 1217
500 83 2439
2 84 840
3 84 3507
4 84 1042
5 84 1087
6 84 1729
7 84 1426
8 84 1064
9 84 1781
10 84 974
11 84 714
12 84 1678
13 84 2022
14 84 1020
15 84 4315
16 84 1319
17 84 2312
18 84 1756
19 84 758
20 84 1714
21 84 1889
22 84 1503
23 84 2077
24 84 2343
25 84 1018
26 84 697
27 84 2518
29 84 2009
31 84 824
32 84 1591
33 84 2111
34 84 1731
35 84 21
36 84 1340
37 84 1503
38 84 493
39 84 2846
40 84 834
41 84 1086
42 84 1313
43 84 1377
44 84 901
45 84 719
46 84 1721
47 84 324
48 84 2696
49 84 2055
50 84 2834
51 84 561
52 84 942
53 84 1143
54 84 378
55 84 1616
56 84 2018
57 84 1500
58 84 3248
60 84 1982
61 84 1771
62 84 2285
63 84 801
64 84 897
65 84 1675
66 84 1586
68 84 1516
69 84 666
70 84 615
71 84 1440
72 84 811
73 84 2076
74 84 478
75 84 2802
76 84 1307
77 84 1307
78 84 2531
79 84 2024
80 84 1016
81 84 1381
82 84 1319
83 84 1390
84 84 1265
85 84 2156
86 84 374
87 84 885
88 84 11
89 84 938
90 84 2090
92 84 1474
93 84 1091
94 84 1344
95 84 1217
96 84 1708
97 84 2178
98 84 709
99 84 516
101 84 1368
102 84 2422
103 84 2706
104 84 1302
105 84 1318
106 84 908
107 84 2379
108 84 730
109 84 1528
110 84 3201
111 84 895
112 84 1402
113 84 1922
114 84 1529
115 84 1776
116 84 1633
117 84 34
118 84 1100
119 84 1549
120 84 1573
121 84 1046
122 84 2310
123 84 1459
124 84 1691
125 84 3523
126 84 952
127 84 1300
128 84 693
129 84 1057
130 84 678
131 84 1325
132 84 1362
133 84 2168
134 84 759
135 84 1855
136 84 1571
137 84 1757
138 84 997
139 84 640
140 84 35
141 84 1896
143 84 2553
144 84 2339
145 84 11
146 84 1405
147 84 1282
148 84 1357
149 84 2975
150 84 2118
151 84 3420
152 84 595
153 84 2477
154 84 1474
155 84 2240
156 84 2
157 84 2374
158 84 2689
159 84 2207
160 84 1827
161 84 2193
162 84 1166
163 84 899
164 84 1345
165 84 1486
166 84 2100
167 84 1753
168 84 1432
169 84 1021
170 84 1632
171 84 1985
172 84 2486
173 84 749
174 84 3289
175 84 940
176 84 693
177 84 1581
178 84 2651
179 84 3182
180 84 516
181 84 14
183 84 1398
184 84 762
185 84 2384
186 84 1222
187 84 2669
188 84 1512
189 84 1151
190 84 1397
191 84 488
192 84 691
193 84 37
194 84 453
195 84 982
196 84 1940
197 84 1240
198 84 1067
199 84 1380
200 84 1791
201 84 432
202 84 1914
204 84 2148
205 84 459
206 84 2517
207 84 1831
208 84 1859
209 84 1148
210 84 3005
211 84 1345
212 84 895
214 84 1138
215 84 1289
216 84 2096
218 84 1792
219 84 2358
220 84 2857
222 84 1316
223 84 41
224 84 1129
225 84 2302
226 84 2191
227 84 1629
228 84 562
229 84 3842
230 84 1721
231 84 660
232 84 650
233 84 2243
234 84 1206
235 84 1381
236 84 774
237 84 2444
238 84 1907
239 84 572
240 84 1853
241 84 1737
242 84 1862
243 84 1918
244 84 1935
245 84 1836
246 84 661
247 84 1124
248 84 268
249 84 847
251 84 1403
252 84 935
253 84 1191
254 84 1223
255 84 1279
256 84 1544
257 84 1310
258 84 2239
259 84 957
260 84 926
261 84 1625
262 84 1933
263 84 1215
264 84 767
265 84 1783
266 84 2435
267 84 2176
268 84 1855
269 84 8
270 84 527
271 84 939
272 84 904
273 84 783
274 84 698
275 84 549
276 84 976
277 84 1806
278 84 2016
279 84 1159
280 84 1221
281 84 1387
282 84 976
283 84 1006
284 84 2327
285 84 1098
286 84 2527
287 84 1512
288 84 1375
289 84 648
290 84 2845
291 84 1704
292 84 370
293 84 1662
294 84 1636
295 84 900
296 84 618
297 84 911
298 84 2206
299 84 681
300 84 1181
301 84 960
302 84 1805
303 84 754
304 84 1076
305 84 2048
306 84 2046
307 84 2233
308 84 1748
309 84 1226
310 84 1976
311 84 2472
312 84 2395
313 84 2720
314 84 2059
315 84 3463
316 84 1209
317 84 2762
318 84 1460
319 84 1099
320 84 2608
321 84 855
322 84 548
323 84 1387
324 84 669
325 84 1810
326 84 1301
327 84 1684
328 84 1423
329 84 623
330 84 1485
331 84 476
332 84 1204
333 84 1299
334 84 947
335 84 1353
336 84 1188
337 84 1006
338 84 1337
339 84 920
340 84 1177
341 84 1669
342 84 1007
343 84 1008
344 84 1464
345 84 1096
346 84 2475
347 84 1046
348 84 1102
350 84 350
351 84 1427
352 84 1644
354 84 199
355 84 1565
356 84 2036
357 84 666
358 84 2233
359 84 2370
360 84 564
361 84 1200
362 84 1415
363 84 3498
364 84 1595
365 84 2630
366 84 1692
367 84 1023
368 84 1860
369 84 3
370 84 1597
371 84 1576
372 84 1587
373 84 1720
374 84 593
375 84 1258
376 84 719
377 84 470
378 84 1627
379 84 2484
380 84 1892
381 84 2572
382 84 2472
383 84 2668
384 84 741
385 84 1667
386 84 1740
387 84 279
388 84 2303
389 84 1063
390 84 1892
391 84 1971
392 84 2009
393 84 3239
394 84 1027
395 84 2008
396 84 1179
397 84 1000
398 84 1391
399 84 923
400 84 441
401 84 3467
402 84 1168
403 84 1696
404 84 1397
405 84 1153
406 84 1796
407 84 1778
408 84 676
409 84 1008
410 84 2020
411 84 1314
412 84 1708
413 84 1057
414 84 2412
415 84 1523
416 84 1148
417 84 358
418 84 1064
419 84 3187
420 84 1536
421 84 1781
422 84 741
423 84 1156
424 84 3017
425 84 578
426 84 2938
427 84 1146
428 84 757
429 84 1428
430 84 1502
431 84 2098
432 84 1622
433 84 1155
434 84 2629
435 84 858
436 84 2121
437 84 1170
438 84 1203
439 84 2009
440 84 5
441 84 1227
442 84 949
443 84 14
444 84 1761
445 84 15
446 84 676
447 84 668
448 84 1082
449 84 1407
450 84 1587
451 84 754
452 84 1062
453 84 1374
454 84 1345
455 84 1525
456 84 1412
457 84 563
458 84 1726
459 84 1674
460 84 1704
461 84 2204
462 84 381
463 84 1094
464 84 1314
465 84 1636
466 84 1069
467 84 2313
468 84 1322
469 84 1748
470 84 1275
471 84 2442
472 84 2153
473 84 1005
474 84 1760
475 84 2289
476 84 1845
478 84 1438
479 84 1762
480 84 769
481 84 1088
482 84 713
484 84 2328
485 84 780
486 84 2465
488 84 1772
490 84 352
491 84 1048
492 84 1068
493 84 1604
494 84 1473
495 84 2254
496 84 207
500 84 1448
2 85 1084
3 85 1497
4 85 1074
5 85 1283
6 85 989
7 85 1734
8 85 563
9 85 1087
10 85 694
11 85 891
12 85 1662
13 85 1651
14 85 493
15 85 1271
16 85 1529
17 85 750
18 85 1419
19 85 1458
20 85 1095
21 85 1632
22 85 1869
23 85 762
24 85 1241
25 85 1714
26 85 1744
27 85 1410
29 85 1207
31 85 1749
32 85 1151
33 85 1203
34 85 1105
35 85 244
36 85 1530
37 85 1138
38 85 737
39 85 3208
40 85 1160
41 85 1674
42 85 699
43 85 1623
44 85 1133
45 85 1171
46 85 1974
47 85 1788
48 85 1796
49 85 769
50 85 849
51 85 2439
52 85 1143
53 85 1348
54 85 1312
55 85 1456
56 85 420
57 85 2666
58 85 1919
60 85 1244
61 85 1900
62 85 1463
63 85 1117
64 85 2061
65 85 1233
66 85 2354
68 85 1185
69 85 1308
70 85 2217
71 85 809
72 85 1449
73 85 1049
74 85 1209
75 85 1083
76 85 1423
77 85 1988
78 85 788
79 85 996
80 85 942
81 85 1692
82 85 1412
83 85 1594
84 85 463
85 85 982
86 85 792
87 85 1678
88 85 273
89 85 886
90 85 950
92 85 1131
93 85 3419
94 85 611
95 85 1017
96 85 1237
97 85 2158
98 85 1472
99 85 581
101 85 1738
102 85 3449
103 85 1761
104 85 3133
105 85 874
106 85 1852
107 85 1427
108 85 1080
109 85 889
110 85 889
111 85 1617
112 85 936
113 85 255
114 85 2316
115 85 1715
116 85 1001
117 85 822
118 85 1095
119 85 1052
120 85 1768
121 85 1614
122 85 1698
123 85 390
124 85 1012
125 85 1550
126 85 1497
127 85 840
128 85 1390
129 85 1764
130 85 1387
131 85 1297
132 85 592
133 85 1250
134 85 1128
135 85 1227
136 85 563
137 85 1105
138 85 1005
139 85 1058
140 85 876
141 85 1617
143 85 2292
144 85 1534
145 85 197
146 85 1184
147 85 984
148 85 1812
149 85 1608
150 85 1326
151 85 1666
152 85 679
153 85 1681
154 85 1868
155 85 867
156 85 264
157 85 2505
158 85 1606
159 85 2004
160 85 1619
161 85 2959
162 85 1124
163 85 1631
164 85 732
165 85 2367
166 85 1497
167 85 1168
168 85 1082
169 85 525
170 85 1066
171 85 1846
172 85 907
173 85 1436
174 85 608
175 85 1625
176 85 1063
177 85 1029
178 85 3066
179 85 1260
180 85 1256
181 85 193
183 85 938
184 85 1737
185 85 1313
186 85 1517
187 85 1012
188 85 552
189 85 1784
190 85 1073
191 85 2169
192 85 2127
193 85 827
194 85 1395
195 85 1801
196 85 2370
197 85 700
198 85 974
199 85 1686
200 85 2488
201 85 1219
202 85 1445
204 85 1521
205 85 626
206 85 2589
207 85 2265
208 85 1614
209 85 873
210 85 1272
211 85 1401
212 85 1592
214 85 686
215 85 755
216 85 952
218 85 1032
219 85 1134
220 85 1892
222 85 1786
223 85 834
224 85 676
225 85 2017
226 85 2871
227 85 1003
228 85 1277
229 85 2399
230 85 974
231 85 1656
232 85 1257
233 85 842
234 85 1358
235 85 1486
236 85 1400
237 85 1466
238 85 2341
239 85 579
240 85 968
241 85 1379
242 85 664
243 85 946
244 85 1429
245 85 2760
246 85 464
247 85 1655
248 85 1065
249 85 1015
251 85 1650
252 85 451
253 85 1532
254 85 308
255 85 1417
256 85 388
257 85 865
258 85 2891
259 85 1680
260 85 896
261 85 1152
262 85 1248
263 85 543
264 85 2574
265 85 1756
266 85 2425
267 85 1561
268 85 2051
269 85 269
270 85 1392
271 85 2126
272 85 1465
273 85 953
274 85 1498
275 85 907
276 85 738
277 85 1609
278 85 1165
279 85 837
280 85 1164
281 85 414
282 85 942
283 85 853
284 85 1492
285 85 1674
286 85 2316
287 85 954
288 85 1493
289 85 807
290 85 1059
291 85 1121
292 85 1316
293 85 1688
294 85 1007
295 85 919
296 85 1298
297 85 1470
298 85 1808
299 85 1378
300 85 1093
301 85 858
302 85 977
303 85 1313
304 85 1686
305 85 1664
306 85 1747
307 85 1649
308 85 2475
309 85 793
310 85 1501
311 85 1731
312 85 1284
313 85 2342
314 85 747
315 85 2123
316 85 735
317 85 1011
318 85 1347
319 85 1790
320 85 974
321 85 1809
322 85 1070
323 85 1126
324 85 910
325 85 2462
326 85 695
327 85 1694
328 85 2193
329 85 1421
330 85 1291
331 85 1229
332 85 1350
333 85 1101
334 85 1855
335 85 1682
336 85 991
337 85 2369
338 85 2710
339 85 1987
340 85 903
341 85 1983
342 85 1805
343 85 1776
344 85 1632
345 85 2118
346 85 1125
347 85 1159
348 85 688
350 85 1779
351 85 2210
352 85 2257
354 85 2121
355 85 1386
356 85 550
357 85 1152
358 85 1175
359 85 858
360 85 856
361 85 998
362 85 1612
363 85 1463
364 85 676
365 85 1350
366 85 1318
367 85 717
368 85 1711
369 85 303
370 85 1282
371 85 1585
372 85 1245
373 85 544
374 85 937
375 85 646
376 85 1131
377 85 1270
378 85 1408
379 85 1061
380 85 2718
381 85 2125
382 85 1035
383 85 1728
384 85 1225
385 85 799
386 85 2508
387 85 1073
388 85 2508
389 85 4235
390 85 871
391 85 1815
392 85 1336
393 85 904
394 85 783
395 85 1739
396 85 729
397 85 1123
398 85 1443
399 85 2411
400 85 1226
401 85 823
402 85 1259
403 85 1309
404 85 1553
405 85 672
406 85 1841
407 85 635
408 85 896
409 85 1022
410 85 1846
411 85 761
412 85 1308
413 85 914
414 85 2302
415 85 771
416 85 1500
417 85 1245
418 85 2857
419 85 1711
420 85 557
421 85 1207
422 85 757
423 85 1018
424 85 1358
425 85 1444
426 85 1222
427 85 1336
428 85 1085
429 85 1316
430 85 1797
431 85 938
432 85 1685
433 85 1463
434 85 2254
435 85 1481
436 85 1234
437 85 1405
438 85 527
439 85 1341
440 85 66
441 85 1636
442 85 693
443 85 215
444 85 2003
445 85 187
446 85 1802
447 85 875
448 85 3579
449 85 554
450 85 943
451 85 1079
452 85 661
453 85 1157
454 85 857
455 85 2655
456 85 900
457 85 1195
458 85 640
459 85 1366
460 85 1155
461 85 414
462 85 1179
463 85 1380
464 85 673
465 85 1022
466 85 1770
467 85 2075
468 85 1174
469 85 1821
470 85 314
471 85 1389
472 85 1807
473 85 1617
474 85 957
475 85 2958
476 85 1797
478 85 2092
479 85 1798
480 85 1064
481 85 3090
482 85 1234
484 85 2290
485 85 305
486 85 1561
488 85 723
489 85 1
490 85 1400
491 85 1018
492 85 549
493 85 665
494 85 1317
495 85 864
496 85 1076
500 85 1936
1 86 385
4 86 12
15 86 4
16 86 9
17 86 4
19 86 8
20 86 1
21 86 7
28 86 391
30 86 481
31 86 4
36 86 3
37 86 6
40 86 3
43 86 2
44 86 5
52 86 14
59 86 124
63 86 6
65 86 6
67 86 497
77 86 3
85 86 7
88 86 23
91 86 461
96 86 4
98 86 2
100 86 663
107 86 3
116 86 7
121 86 4
128 86 1
129 86 2
137 86 6
141 86 4
142 86 550
145 86 5
150 86 4
156 86 3
172 86 12
173 86 3
180 86 2
181 86 7
182 86 443
194 86 3
195 86 8
196 86 4
197 86 3
200 86 6
202 86 4
203 86 382
213 86 686
214 86 7
217 86 349
220 86 5
221 86 452
232 86 6
233 86 2
237 86 6
238 86 4
242 86 6
246 86 2
247 86 6
249 86 3
250 86 541
269 86 20
272 86 3
274 86 2
277 86 2
282 86 6
285 86 4
289 86 8
297 86 2
300 86 4
307 86 1
310 86 6
316 86 5
321 86 5
324 86 3
343 86 8
349 86 128
353 86 417
362 86 3
365 86 6
369 86 3
373 86 6
377 86 5
380 86 8
386 86 7
396 86 2
397 86 10
404 86 7
406 86 3
408 86 7
413 86 4
417 86 4
418 86 5
421 86 12
431 86 10
432 86 8
433 86 21
434 86 7
437 86 4
440 86 2
441 86 3
443 86 3
444 86 9
445 86 4
447 86 5
456 86 3
460 86 3
461 86 3
463 86 3
466 86 3
477 86 315
478 86 4
479 86 2
481 86 4
483 86 190
487 86 416
489 86 5
497 86 559
498 86 385
499 86 616
2 87 711
3 87 2245
4 87 1231
5 87 751
6 87 663
7 87 953
8 87 1749
9 87 560
10 87 961
11 87 1343
12 87 471
13 87 412
14 87 1674
15 87 1258
16 87 230
17 87 1185
18 87 594
19 87 757
20 87 936
21 87 387
22 87 1087
23 87 586
24 87 1717
25 87 802
26 87 597
27 87 993
29 87 1259
31 87 478
32 87 2113
33 87 932
34 87 520
35 87 50
36 87 1068
37 87 1242
38 87 826
39 87 852
40 87 874
41 87 955
42 87 642
43 87 410
44 87 220
45 87 768
46 87 2669
47 87 153
48 87 500
49 87 626
50 87 990
51 87 797
52 87 661
53 87 719
54 87 1375
55 87 580
56 87 1111
57 87 788
58 87 662
60 87 1692
61 87 1128
62 87 283
63 87 871
64 87 771
65 87 937
66 87 1902
68 87 1679
69 87 941
70 87 656
71 87 945
72 87 1815
73 87 1170
74 87 600
75 87 963
76 87 1320
77 87 1168
78 87 1679
79 87 289
80 87 1211
81 87 1467
82 87 1061
83 87 916
84 87 1026
85 87 501
86 87 1159
87 87 568
88 87 30
89 87 948
90 87 718
92 87 2227
93 87 1260
94 87 1171
95 87 994
96 87 967
97 87 1527
98 87 750
99 87 420
101 87 1459
102 87 1129
103 87 1548
104 87 710
105 87 655
106 87 1011
107 87 1378
108 87 649
109 87 1221
110 87 1359
111 87 1179
112 87 718
113 87 547
114 87 479
115 87 1918
116 87 1160
117 87 47
118 87 615
119 87 686
120 87 1191
121 87 1338
122 87 1939
123 87 963
124 87 626
125 87 2225
126 87 1309
127 87 730
128 87 699
129 87 1052
130 87 965
131 87 289
132 87 783
133 87 1264
134 87 445
135 87 843
136 87 570
137 87 1074
138 87 882
139 87 535
140 87 48
141 87 1038
143 87 1056
144 87 311
145 87 82
146 87 1959
147 87 640
148 87 959
149 87 935
150 87 1898
151 87 718
152 87 880
153 87 501
154 87 1724
155 87 934
156 87 109
157 87 1844
158 87 968
159 87 1545
160 87 1398
161 87 1277
162 87 568
163 87 416
164 87 626
165 87 1288
166 87 1100
167 87 900
168 87 463
169 87 1590
170 87 2119
171 87 2251
172 87 1612
173 87 743
174 87 1237
175 87 1279
176 87 668
177 87 635
178 87 255
179 87 211
180 87 1765
181 87 64
183 87 2045
184 87 531
185 87 1152
186 87 1162
187 87 1499
188 87 564
189 87 251
190 87 595
191 87 3304
192 87 695
193 87 47
194 87 503
195 87 595
196 87 652
197 87 637
198 87 328
199 87 832
200 87 1372
201 87 616
202 87 1001
204 87 1046
205 87 560
206 87 656
207 87 537
208 87 1411
209 87 1775
210 87 2001
211 87 285
212 87 389
214 87 918
215 87 408
216 87 669
218 87 1267
219 87 553
220 87 2113
222 87 694
223 87 58
224 87 1263
225 87 310
226 87 627
227 87 674
228 87 2672
229 87 2006
230 87 1011
231 87 961
232 87 550
233 87 717
234 87 531
235 87 898
236 87 1772
237 87 1367
238 87 660
239 87 379
240 87 439
241 87 1037
242 87 1360
243 87 1264
244 87 883
245 87 1046
246 87 620
247 87 1398
248 87 545
249 87 885
251 87 694
252 87 730
253 87 1353
254 87 887
255 87 1055
256 87 989
257 87 704
258 87 580
259 87 811
260 87 1946
261 87 950
262 87 240
263 87 928
264 87 799
265 87 1378
266 87 773
267 87 748
268 87 2261
269 87 27
270 87 962
271 87 796
272 87 666
273 87 604
274 87 712
275 87 590
276 87 935
277 87 1109
278 87 716
279 87 143
280 87 1159
281 87 2224
282 87 944
283 87 659
284 87 315
285 87 1223
286 87 771
287 87 534
288 87 892
289 87 297
290 87 807
291 87 1007
292 87 1398
293 87 437
294 87 1291
295 87 1082
296 87 2554
297 87 621
298 87 748
299 87 922
300 87 1094
301 87 1016
302 87 416
303 87 387
304 87 1128
305 87 378
306 87 935
307 87 1184
308 87 1349
309 87 183
310 87 1546
311 87 406
312 87 944
313 87 521
314 87 1090
315 87 3262
316 87 926
317 87 1417
318 87 709
319 87 687
320 87 1519
321 87 475
322 87 703
323 87 1915
324 87 250
325 87 1439
326 87 631
327 87 383
328 87 1818
329 87 1890
330 87 684
331 87 684
332 87 401
333 87 814
334 87 1035
335 87 1769
336 87 994
337 87 881
338 87 1095
339 87 784
340 87 1704
341 87 880
342 87 805
343 87 605
344 87 889
345 87 886
346 87 1123
347 87 1502
348 87 1292
350 87 139
351 87 1642
352 87 1053
354 87 1467
355 87 1393
356 87 348
357 87 374
358 87 1395
359 87 935
360 87 1278
361 87 476
362 87 507
363 87 2276
364 87 1057
365 87 1030
366 87 1106
367 87 460
368 87 1442
369 87 84
370 87 1498
371 87 1458
372 87 1282
373 87 438
374 87 585
375 87 528
376 87 946
377 87 1761
378 87 639
379 87 1429
380 87 2327
381 87 637
382 87 1362
383 87 525
384 87 762
385 87 1884
386 87 1341
387 87 519
388 87 1897
389 87 1388
390 87 1780
391 87 1576
392 87 552
393 87 1383
394 87 962
395 87 868
396 87 862
397 87 625
398 87 805
399 87 1312
400 87 418
401 87 1384
402 87 1079
403 87 720
404 87 1507
405 87 527
406 87 904
407 87 866
408 87 280
409 87 648
410 87 1410
411 87 1227
412 87 743
413 87 913
414 87 768
415 87 344
416 87 1372
417 87 1146
418 87 881
419 87 1534
420 87 571
421 87 1697
422 87 1144
423 87 908
424 87 1600
425 87 990
426 87 847
427 87 1467
428 87 458
429 87 784
430 87 1060
431 87 429
432 87 1671
433 87 802
434 87 1219
435 87 623
436 87 251
437 87 813
438 87 942
439 87 1354
440 87 47
441 87 1106
442 87 692
443 87 70
444 87 1970
445 87 70
446 87 566
447 87 252
448 87 1278
449 87 732
450 87 523
451 87 1848
452 87 746
453 87 1293
454 87 535
455 87 2286
456 87 630
457 87 2535
458 87 222
459 87 994
460 87 933
461 87 420
462 87 694
463 87 957
464 87 693
465 87 401
466 87 1025
467 87 386
468 87 730
469 87 1108
470 87 859
471 87 618
472 87 789
473 87 1359
474 87 634
475 87 610
476 87 1604
478 87 1763
479 87 868
480 87 1931
481 87 1223
482 87 727
484 87 1869
485 87 1448
486 87 717
488 87 564
489 87 24
490 87 1418
491 87 303
492 87 1719
493 87 1069
494 87 1265
495 87 961
496 87 1159
500 87 1085
2 88 348
3 88 1207
4 88 782
5 88 822
6 88 1457
7 88 250
8 88 1192
9 88 84
10 88 77
11 88 308
12 88 1209
13 88 576
14 88 1215
15 88 526
16 88 1290
17 88 736
18 88 289
19 88 461
20 88 335
21 88 519
22 88 977
23 88 1518
24 88 2130
25 88 400
26 88 941
27 88 1165
29 88 631
31 88 983
32 88 458
33 88 765
34 88 100
36 88 677
37 88 636
38 88 56
39 88 1021
40 88 13
41 88 1788
42 88 1154
43 88 485
44 88 216
45 88 1039
46 88 1099
47 88 2114
48 88 715
49 88 1468
50 88 1512
51 88 228
52 88 1391
53 88 216
54 88 92
55 88 873
56 88 1203
57 88 1273
58 88 807
60 88 430
61 88 375
62 88 1063
63 88 508
64 88 410
65 88 206
66 88 609
68 88 754
69 88 1590
70 88 654
71 88 68
72 88 376
73 88 354
74 88 41
75 88 475
76 88 575
77 88 1522
78 88 1232
79 88 261
80 88 745
81 88 1123
82 88 26
83 88 317
84 88 798
85 88 338
86 88 199
87 88 549
89 88 566
90 88 729
92 88 473
93 88 833
94 88 769
95 88 258
96 88 230
97 88 456
99 88 1274
101 88 1046
102 88 728
103 88 543
104 88 447
105 88 337
106 88 768
107 88 637
108 88 349
109 88 526
110 88 1047
111 88 681
112 88 1200
113 88 573
114 88 394
115 88 213
116 88 1153
118 88 36
119 88 521
120 88 630
121 88 851
122 88 401
123 88 633
124 88 1591
125 88 1097
126 88 1696
127 88 675
129 88 217
130 88 1606
131 88 191
132 88 425
133 88 1419
134 88 1435
135 88 39
136 88 404
137 88 484
138 88 170
139 88 170
141 88 1613
143 88 414
144 88 270
146 88 518
147 88 223
148 88 143
149 88 849
150 88 227
151 88 684
152 88 483
153 88 919
154 88 124
155 88 354
157 88 1148
158 88 721
159 88 501
160 88 1249
161 88 294
162 88 1
163 88 1022
164 88 1161
165 88 881
166 88 1343
167 88 195
168 88 767
169 88 1259
170 88 1038
171 88 1006
172 88 719
173 88 116
174 88 393
175 88 674
176 88 10
177 88 1556
178 88 430
179 88 494
180 88 147
183 88 583
184 88 363
185 88 645
186 88 297
187 88 2275
188 88 464
189 88 1530
190 88 9
191 88 1001
192 88 688
195 88 220
196 88 533
197 88 24
198 88 436
199 88 1379
200 88 510
202 88 754
204 88 1316
205 88 312
206 88 391
207 88 1963
208 88 354
209 88 323
210 88 1432
211 88 180
212 88 1361
214 88 1695
215 88 41
216 88 644
218 88 676
219 88 1333
220 88 77
222 88 568
224 88 507
225 88 1458
226 88 592
227 88 1520
228 88 731
229 88 213
230 88 408
231 88 946
233 88 880
234 88 418
235 88 237
236 88 363
237 88 718
238 88 515
239 88 1274
240 88 650
241 88 771
242 88 485
243 88 915
244 88 368
245 88 933
247 88 298
248 88 287
249 88 592
251 88 592
252 88 53
253 88 1258
254 88 371
255 88 421
256 88 606
257 88 781
258 88 633
259 88 203
260 88 231
261 88 732
262 88 357
263 88 490
264 88 471
265 88 504
266 88 1108
267 88 1950
268 88 1372
270 88 563
271 88 393
272 88 596
275 88 387
276 88 67
277 88 1630
278 88 536
279 88 490
280 88 436
281 88 237
282 88 1070
283 88 268
284 88 1019
285 88 837
286 88 1121
287 88 593
288 88 258
289 88 423
290 88 512
291 88 661
292 88 64
293 88 1195
294 88 498
295 88 789
296 88 366
297 88 631
298 88 505
299 88 1598
300 88 726
301 88 1286
302 88 659
303 88 353
304 88 151
305 88 592
306 88 1044
307 88 1048
308 88 462
309 88 503
310 88 1404
311 88 677
312 88 1153
313 88 830
314 88 734
315 88 1026
316 88 1708
317 88 2234
318 88 129
319 88 932
320 88 549
321 88 972
322 88 1778
323 88 502
324 88 433
325 88 491
326 88 306
327 88 157
328 88 706
329 88 621
330 88 1089
332 88 744
333 88 453
334 88 807
335 88 479
336 88 236
337 88 993
338 88 1026
339 88 252
340 88 298
341 88 218
342 88 346
343 88 213
344 88 280
345 88 711
346 88 2747
347 88 753
348 88 560
350 88 2130
351 88 710
352 88 249
354 88 301
355 88 1382
356 88 897
357 88 1
358 88 1680
359 88 1192
360 88 294
361 88 539
362 88 488
363 88 1194
364 88 1010
365 88 637
366 88 644
367 88 25
368 88 493
370 88 1116
371 88 652
372 88 775
373 88 875
374 88 326
375 88 343
376 88 711
377 88 142
378 88 884
379 88 1515
380 88 1058
381 88 884
382 88 1516
383 88 666
384 88 1065
385 88 122
386 88 536
387 88 289
388 88 1120
389 88 792
390 88 995
391 88 739
392 88 813
393 88 1024
394 88 77
395 88 1142
396 88 1636
397 88 1351
398 88 708
399 88 1875
400 88 747
401 88 676
402 88 786
403 88 201
404 88 1143
406 88 721
407 88 1364
408 88 392
409 88 148
410 88 1051
411 88 1375
412 88 212
413 88 959
414 88 793
415 88 74
416 88 1247
417 88 183
418 88 996
419 88 656
420 88 481
421 88 693
422 88 16
423 88 251
424 88 985
425 88 590
426 88 1401
427 88 753
428 88 1532
429 88 380
430 88 955
431 88 340
432 88 872
433 88 575
434 88 164
435 88 496
436 88 336
437 88 337
438 88 511
439 88 651
441 88 585
444 88 2599
446 88 937
447 88 408
448 88 792
449 88 462
450 88 562
451 88 1253
452 88 81
453 88 138
454 88 603
455 88 242
456 88 193
457 88 363
458 88 181
459 88 707
460 88 330
461 88 374
462 88 925
463 88 985
464 88 283
465 88 597
466 88 275
467 88 1448
468 88 532
469 88 397
470 88 334
471 88 355
472 88 452
473 88 226
474 88 630
475 88 597
476 88 644
478 88 250
479 88 743
480 88 1261
481 88 1145
482 88 1106
484 88 1407
485 88 415
486 88 1101
488 88 242
490 88 67
491 88 396
492 88 1296
493 88 1019
494 88 757
495 88 397
496 88 609
500 88 685
2 89 257
3 89 199
4 89 76
5 89 241
6 89 1043
7 89 135
8 89 181
9 89 200
10 89 4
11 89 85
12 89 154
13 89 398
14 89 177
15 89 267
16 89 246
17 89 389
18 89 121
19 89 98
20 89 497
21 89 116
22 89 471
23 89 360
24 89 254
25 89 144
26 89 476
27 89 128
29 89 108
31 89 390
32 89 978
33 89 362
34 89 220
36 89 976
37 89 149
39 89 534
41 89 296
42 89 321
43 89 306
44 89 17
45 89 111
46 89 152
47 89 190
48 89 590
49 89 325
50 89 490
51 89 4
52 89 92
53 89 139
54 89 613
55 89 72
56 89 519
57 89 272
58 89 359
60 89 448
61 89 81
62 89 360
63 89 44
64 89 45
65 89 556
66 89 549
68 89 334
69 89 193
70 89 263
72 89 682
73 89 479
75 89 303
76 89 183
77 89 157
78 89 527
79 89 239
80 89 115
81 89 507
83 89 180
84 89 604
85 89 99
86 89 107
87 89 158
89 89 506
90 89 401
92 89 946
93 89 97
94 89 89
95 89 143
96 89 586
97 89 142
99 89 136
101 89 535
102 89 184
103 89 297
104 89 296
105 89 653
106 89 542
107 89 133
108 89 162
109 89 83
110 89 380
111 89 232
112 89 309
113 89 52
114 89 319
115 89 776
116 89 245
119 89 642
120 89 75
121 89 408
122 89 185
123 89 32
124 89 1084
125 89 226
126 89 233
127 89 85
129 89 667
130 89 206
131 89 193
132 89 51
133 89 136
134 89 490
135 89 6
136 89 20
137 89 205
138 89 19
139 89 277
141 89 342
143 89 180
144 89 275
146 89 255
147 89 47
148 89 81
149 89 209
150 89 690
151 89 202
152 89 294
153 89 246
154 89 1257
155 89 317
157 89 312
158 89 459
159 89 154
160 89 342
161 89 239
163 89 261
164 89 311
165 89 355
166 89 229
167 89 343
168 89 144
169 89 197
170 89 284
171 89 342
172 89 525
173 89 525
174 89 482
175 89 254
176 89 7
177 89 1036
178 89 67
179 89 763
180 89 159
183 89 474
184 89 25
185 89 39
186 89 732
187 89 305
188 89 21
189 89 609
191 89 564
192 89 276
195 89 207
196 89 221
198 89 583
199 89 274
200 89 157
202 89 862
204 89 274
205 89 407
206 89 88
207 89 171
208 89 191
209 89 160
210 89 474
211 89 183
212 89 484
214 89 120
216 89 437
218 89 643
219 89 121
220 89 163
222 89 101
224 89 436
225 89 67
226 89 582
227 89 1075
228 89 460
229 89 156
230 89 787
231 89 730
233 89 358
234 89 136
235 89 185
236 89 630
237 89 414
238 89 178
239 89 138
240 89 608
241 89 202
242 89 707
243 89 134
244 89 502
245 89 368
247 89 460
248 89 469
249 89 129
251 89 108
252 89 1
253 89 434
254 89 105
255 89 341
256 89 41
257 89 89
258 89 610
259 89 80
260 89 261
261 89 191
262 89 434
263 89 87
264 89 569
265 89 389
266 89 220
267 89 741
268 89 731
270 89 571
271 89 40
272 89 175
275 89 279
276 89 2
277 89 353
278 89 721
279 89 358
280 89 549
281 89 202
282 89 103
284 89 353
285 89 411
286 89 216
287 89 114
288 89 198
289 89 23
290 89 297
291 89 180
292 89 565
293 89 172
294 89 258
295 89 206
296 89 201
297 89 155
298 89 492
299 89 186
300 89 162
301 89 289
302 89 592
303 89 95
304 89 98
305 89 409
306 89 68
307 89 279
308 89 312
309 89 279
310 89 806
311 89 758
312 89 131
313 89 164
314 89 553
315 89 204
316 89 134
317 89 290
318 89 8
319 89 86
320 89 139
321 89 364
322 89 251
323 89 222
324 89 335
325 89 345
326 89 163
327 89 644
328 89 159
329 89 838
330 89 363
332 89 340
333 89 305
334 89 527
335 89 210
336 89 160
337 89 360
338 89 569
339 89 583
340 89 144
341 89 400
342 89 150
343 89 225
344 89 182
345 89 193
346 89 433
347 89 663
348 89 467
350 89 169
351 89 176
352 89 383
354 89 155
355 89 292
356 89 139
358 89 313
359 89 243
360 89 462
361 89 595
362 89 287
363 89 214
364 89 385
365 89 717
366 89 357
368 89 351
370 89 301
371 89 151
372 89 235
373 89 215
374 89 238
375 89 79
376 89 100
377 89 141
378 89 88
379 89 219
380 89 86
381 89 294
382 89 241
383 89 630
384 89 144
385 89 50
386 89 112
387 89 510
388 89 302
389 89 1462
390 89 465
391 89 178
392 89 265
393 89 385
394 89 2
395 89 59
396 89 129
397 89 98
398 89 64
399 89 476
400 89 175
401 89 344
402 89 80
403 89 156
404 89 1223
406 89 617
407 89 591
408 89 358
409 89 116
410 89 132
411 89 155
412 89 142
413 89 135
414 89 389
415 89 161
416 89 403
417 89 63
418 89 861
419 89 77
420 89 31
421 89 174
423 89 122
424 89 207
425 89 589
426 89 498
427 89 201
428 89 497
429 89 311
430 89 447
431 89 120
432 89 144
433 89 615
434 89 170
435 89 178
436 89 467
437 89 27
438 89 91
439 89 282
441 89 221
444 89 377
446 89 427
447 89 339
448 89 91
449 89 48
450 89 109
451 89 923
452 89 12
453 89 303
454 89 51
455 89 60
456 89 33
457 89 219
458 89 116
459 89 414
460 89 492
461 89 124
462 89 269
463 89 428
464 89 156
465 89 584
466 89 634
467 89 61
468 89 35
469 89 90
470 89 127
471 89 350
472 89 515
473 89 256
474 89 192
475 89 615
476 89 237
478 89 92
479 89 589
480 89 921
481 89 83
482 89 153
484 89 432
485 89 322
486 89 343
490 89 533
491 89 555
492 89 171
493 89 411
494 89 249
495 89 304
496 89 104
499 89 3
500 89 69
2 90 4119
3 90 3211
4 90 2667
5 90 1977
6 90 1813
7 90 1779
8 90 3034
9 90 1296
10 90 434
11 90 2942
12 90 1412
13 90 2656
14 90 3146
15 90 3084
16 90 2320
17 90 2756
18 90 1254
19 90 3748
20 90 2629
21 90 4603
22 90 2195
23 90 2371
24 90 2131
25 90 3713
26 90 1725
27 90 774
29 90 1592
31 90 2679
32 90 1585
33 90 1991
34 90 1238
36 90 2617
37 90 2370
38 90 69
39 90 2218
41 90 3027
42 90 2502
43 90 2485
44 90 1580
45 90 1840
46 90 2657
47 90 3378
48 90 2109
49 90 2375
50 90 2501
51 90 289
52 90 2816
53 90 2118
54 90 1368
55 90 2919
56 90 2856
57 90 2534
58 90 2909
60 90 2379
61 90 2658
62 90 2394
63 90 1594
64 90 1620
65 90 1512
66 90 2423
68 90 1680
69 90 2144
70 90 3283
71 90 1110
72 90 3072
73 90 2471
74 90 3
75 90 2356
76 90 1455
77 90 3500
78 90 3341
79 90 2787
80 90 2495
81 90 2326
82 90 39
83 90 1121
84 90 2519
85 90 1214
86 90 2115
87 90 1158
89 90 1238
90 90 1538
92 90 1598
93 90 2009
94 90 1248
95 90 3656
96 90 1659
97 90 1597
99 90 1413
101 90 2335
102 90 1899
103 90 2373
104 90 2514
105 90 2982
106 90 2908
107 90 2043
108 90 2521
109 90 3044
110 90 1765
111 90 3241
112 90 1815
113 90 1654
114 90 2031
115 90 1679
116 90 2599
119 90 2098
120 90 2272
121 90 2213
122 90 3075
123 90 1421
124 90 1796
125 90 3306
126 90 1921
127 90 1525
129 90 2405
130 90 2158
131 90 1861
132 90 751
133 90 1760
134 90 1634
135 90 741
136 90 1233
137 90 3127
138 90 1791
139 90 1845
141 90 2755
143 90 759
144 90 2292
146 90 2793
147 90 1013
148 90 1103
149 90 2616
150 90 2788
151 90 2366
152 90 2477
153 90 1635
154 90 3798
155 90 1646
157 90 1756
158 90 2951
159 90 1594
160 90 2555
161 90 4431
163 90 3186
164 90 2586
165 90 1688
166 90 2347
167 90 2022
168 90 1893
169 90 3095
170 90 2884
171 90 2151
172 90 2988
173 90 1317
174 90 4203
175 90 3373
176 90 26
177 90 1797
178 90 3411
179 90 2826
180 90 1438
183 90 3306
184 90 1555
185 90 2402
186 90 1647
187 90 3611
188 90 1215
189 90 2372
191 90 2856
192 90 3262
195 90 3016
196 90 1288
197 90 2
198 90 1940
199 90 1884
200 90 3651
202 90 2255
204 90 2349
205 90 2178
206 90 1565
207 90 2487
208 90 1256
209 90 1827
210 90 1953
211 90 1996
212 90 2205
214 90 1749
215 90 412
216 90 1510
218 90 3602
219 90 2076
220 90 1040
222 90 978
224 90 1392
225 90 2302
226 90 2520
227 90 1817
228 90 2235
229 90 3673
230 90 1377
231 90 3139
233 90 2230
234 90 3725
235 90 2560
236 90 3032
237 90 2919
238 90 1279
239 90 1460
240 90 1726
241 90 2993
242 90 1575
243 90 1764
244 90 2553
245 90 1895
247 90 1756
248 90 2315
249 90 1849
251 90 1089
252 90 57
253 90 1919
254 90 740
255 90 2377
256 90 1402
257 90 1488
258 90 2530
259 90 2961
260 90 3531
261 90 1666
262 90 2258
263 90 1605
264 90 1655
265 90 2214
266 90 3383
267 90 2031
268 90 2306
270 90 3290
271 90 1750
272 90 1677
275 90 1524
276 90 469
277 90 2766
278 90 3519
279 90 1672
280 90 2092
281 90 3338
282 90 1518
283 90 280
284 90 2271
285 90 2153
286 90 3436
287 90 1273
288 90 2503
289 90 1350
290 90 2260
291 90 1706
292 90 1349
293 90 1344
294 90 1422
295 90 1821
296 90 2640
297 90 1882
298 90 3442
299 90 2154
300 90 2252
301 90 3780
302 90 1724
303 90 1677
304 90 2022
305 90 2697
306 90 1709
307 90 2715
308 90 2528
309 90 1618
310 90 1858
311 90 2235
312 90 738
313 90 1995
314 90 1237
315 90 2261
316 90 1734
317 90 3696
318 90 1068
319 90 2262
320 90 3361
321 90 2681
322 90 1485
323 90 2785
324 90 2287
325 90 2549
326 90 1482
327 90 2284
328 90 2067
329 90 2883
330 90 1896
332 90 3358
333 90 2831
334 90 2949
335 90 3717
336 90 3599
337 90 2721
338 90 1929
339 90 2835
340 90 1769
341 90 2353
342 90 3667
343 90 3073
344 90 1160
345 90 3093
346 90 3095
347 90 2361
348 90 1386
350 90 3361
351 90 2070
352 90 1780
354 90 3071
355 90 4542
356 90 2251
358 90 1405
359 90 2497
360 90 1338
361 90 923
362 90 2449
363 90 3220
364 90 1386
365 90 1085
366 90 2039
367 90 3
368 90 2218
370 90 1960
371 90 2447
372 90 2214
373 90 2302
374 90 1513
375 90 1124
376 90 2005
377 90 1472
378 90 2961
379 90 3023
380 90 2746
381 90 2290
382 90 2968
383 90 2151
384 90 1854
385 90 3946
386 90 3734
387 90 2256
388 90 1711
389 90 2722
390 90 2167
391 90 3357
392 90 1876
393 90 1778
394 90 457
395 90 1591
396 90 1689
397 90 2810
398 90 2964
399 90 2340
400 90 1144
401 90 2373
402 90 1415
403 90 1527
404 90 4620
406 90 2001
407 90 1668
408 90 2361
409 90 2059
410 90 2277
411 90 1941
412 90 1573
413 90 1533
414 90 1001
415 90 1779
416 90 1914
417 90 1218
418 90 3010
419 90 2200
420 90 1271
421 90 2048
422 90 8
423 90 3595
424 90 1553
425 90 3311
426 90 4808
427 90 1555
428 90 1598
429 90 2495
430 90 2184
431 90 1249
432 90 2774
433 90 2433
434 90 2899
435 90 3591
436 90 2366
437 90 1810
438 90 1581
439 90 1661
441 90 1574
444 90 3075
446 90 1823
447 90 2404
448 90 2017
449 90 757
450 90 1380
451 90 2437
452 90 1022
453 90 2946
454 90 2348
455 90 1992
456 90 1159
457 90 2722
458 90 2505
459 90 2063
460 90 2667
461 90 2551
462 90 1754
463 90 2135
464 90 1466
465 90 2421
466 90 2339
467 90 2369
468 90 836
469 90 2651
470 90 757
471 90 1465
472 90 3333
473 90 1284
474 90 2404
475 90 2452
476 90 2097
478 90 1820
479 90 2038
480 90 2399
481 90 1597
482 90 1743
484 90 4756
485 90 1514
486 90 2141
488 90 562
490 90 1386
491 90 1872
492 90 3094
493 90 1434
494 90 2181
495 90 1597
496 90 1079
500 90 2515
1 91 975
2 91 3137
3 91 1171
4 91 2066
5 91 657
6 91 931
7 91 680
8 91 223
9 91 1375
10 91 1287
11 91 2001
12 91 1211
13 91 1313
14 91 220
15 91 1692
16 91 1252
17 91 2234
18 91 1546
19 91 2046
20 91 1965
21 91 2961
22 91 1591
23 91 806
24 91 654
25 91 1172
26 91 1823
27 91 1549
28 91 918
29 91 1145
30 91 758
31 91 1720
32 91 1204
33 91 1024
34 91 1312
35 91 430
36 91 1796
37 91 1903
38 91 1334
39 91 2213
40 91 1054
41 91 1730
42 91 1872
43 91 1538
44 91 1158
45 91 1090
46 91 737
47 91 1132
48 91 1304
49 91 832
50 91 2022
51 91 799
52 91 1594
53 91 1337
54 91 1007
55 91 1499
56 91 1086
57 91 1469
58 91 1068
59 91 711
60 91 1262
61 91 985
62 91 823
63 91 948
64 91 734
65 91 1293
66 91 1562
67 91 611
68 91 1250
69 91 2179
70 91 1037
71 91 718
72 91 261
73 91 804
74 91 429
75 91 1317
76 91 1210
77 91 291
78 91 548
79 91 1210
80 91 1571
81 91 1156
82 91 705
83 91 1688
84 91 1287
85 91 1593
86 91 1462
87 91 1470
88 91 514
89 91 1105
90 91 775
91 91 498
92 91 1165
93 91 428
94 91 1406
95 91 1864
96 91 1278
97 91 1690
98 91 1205
99 91 1560
100 91 749
101 91 1137
102 91 1206
103 91 1030
104 91 1020
105 91 1272
106 91 1054
107 91 1722
108 91 1138
109 91 1815
110 91 1587
111 91 1427
112 91 567
113 91 1337
114 91 1154
115 91 1797
116 91 1143
117 91 1167
118 91 1098
119 91 1891
120 91 1814
121 91 2057
122 91 1139
123 91 1163
124 91 948
125 91 1143
126 91 1129
127 91 1104
128 91 1200
129 91 1248
130 91 2120
131 91 1681
132 91 1007
133 91 1424
134 91 1581
135 91 1379
136 91 1133
137 91 2029
138 91 1711
139 91 1271
140 91 1107
141 91 1446
142 91 565
143 91 1251
144 91 2678
145 91 934
146 91 647
147 91 983
148 91 1180
149 91 2556
150 91 3028
151 91 1331
152 91 477
153 91 1312
154 91 1010
155 91 1097
156 91 1182
157 91 1233
158 91 1536
159 91 1775
160 91 1842
161 91 1253
162 91 1601
163 91 2602
164 91 1815
165 91 1179
166 91 642
167 91 876
168 91 2019
169 91 240
170 91 1098
171 91 1527
172 91 1467
173 91 2022
174 91 1108
175 91 1400
176 91 528
177 91 1065
178 91 2096
179 91 1178
180 91 463
181 91 897
182 91 606
183 91 1757
184 91 873
185 91 1004
186 91 1612
187 91 1503
188 91 1034
189 91 1172
190 91 1344
191 91 2096
192 91 978
193 91 1141
194 91 751
195 91 1266
196 91 1253
197 91 833
198 91 1325
199 91 1410
200 91 2106
201 91 1113
202 91 1137
203 91 1008
204 91 673
205 91 633
206 91 530
207 91 3819
208 91 731
209 91 1412
210 91 524
211 91 1621
212 91 933
213 91 978
214 91 2371
215 91 191
216 91 767
217 91 561
218 91 2389
219 91 925
220 91 1297
221 91 506
222 91 1240
223 91 1070
224 91 1501
225 91 1450
226 91 1644
227 91 956
228 91 1096
229 91 1326
230 91 1376
231 91 494
232 91 946
233 91 2305
234 91 1077
235 91 2391
236 91 264
237 91 1258
238 91 1248
239 91 1534
240 91 1418
241 91 1450
242 91 2101
243 91 1384
244 91 1926
245 91 932
246 91 692
247 91 1265
248 91 1039
249 91 858
250 91 941
251 91 1216
252 91 1075
253 91 1773
254 91 466
255 91 769
256 91 1171
257 91 1051
258 91 1609
259 91 2494
260 91 1661
261 91 1653
262 91 339
263 91 760
264 91 1602
265 91 613
266 91 1195
267 91 568
268 91 2322
269 91 531
270 91 1445
271 91 686
272 91 822
273 91 710
274 91 1220
275 91 897
276 91 1267
277 91 1444
278 91 768
279 91 1704
280 91 1142
281 91 558
282 91 1849
283 91 901
284 91 818
285 91 2045
286 91 1266
287 91 948
288 91 2500
289 91 696
290 91 1292
291 91 1704
292 91 968
293 91 1197
294 91 912
295 91 1052
296 91 2007
297 91 835
298 91 1891
299 91 2164
300 91 2079
301 91 1764
302 91 1410
303 91 595
304 91 466
305 91 1422
306 91 1047
307 91 1288
308 91 1778
309 91 1712
310 91 1068
311 91 1000
312 91 1598
313 91 1087
314 91 1342
315 91 2959
316 91 2430
317 91 1508
318 91 1403
319 91 1301
320 91 328
321 91 1803
322 91 1497
323 91 696
324 91 1704
325 91 1772
326 91 1700
327 91 1294
328 91 907
329 91 973
330 91 1121
331 91 1060
332 91 1685
333 91 1186
334 91 1032
335 91 1034
336 91 1839
337 91 1204
338 91 1109
339 91 2579
340 91 1344
341 91 789
342 91 1151
343 91 1297
344 91 1758
345 91 2299
346 91 1190
347 91 674
348 91 1593
349 91 671
350 91 1221
351 91 940
352 91 2232
353 91 618
354 91 1914
355 91 1072
356 91 1508
357 91 497
358 91 2215
359 91 1865
360 91 1142
361 91 979
362 91 1584
363 91 1180
364 91 1038
365 91 1574
366 91 784
367 91 642
368 91 639
369 91 1213
370 91 1811
371 91 1226
372 91 1707
373 91 954
374 91 944
375 91 1345
376 91 1547
377 91 423
378 91 1503
379 91 1160
380 91 944
381 91 3805
382 91 1141
383 91 1311
384 91 1121
385 91 1767
386 91 2045
387 91 1045
388 91 1249
389 91 2348
390 91 1202
391 91 1157
392 91 609
393 91 1608
394 91 1298
395 91 1087
396 91 2351
397 91 1600
398 91 1507
399 91 785
400 91 1491
401 91 1563
402 91 1390
403 91 1198
404 91 1842
405 91 729
406 91 955
407 91 1951
408 91 1782
409 91 1029
410 91 2552
411 91 2497
412 91 1189
413 91 1865
414 91 1941
415 91 1756
416 91 1759
417 91 1805
418 91 1111
419 91 1885
420 91 1093
421 91 1298
422 91 961
423 91 1774
424 91 2091
425 91 1495
426 91 2348
427 91 844
428 91 1529
429 91 1220
430 91 1635
431 91 1557
432 91 1227
433 91 1594
434 91 723
435 91 2025
436 91 304
437 91 1181
438 91 819
439 91 1213
440 91 335
441 91 768
442 91 598
443 91 473
444 91 1810
445 91 902
446 91 1784
447 91 1727
448 91 430
449 91 939
450 91 899
451 91 2243
452 91 1025
453 91 1674
454 91 1065
455 91 2211
456 91 474
457 91 2040
458 91 1564
459 91 863
460 91 1891
461 91 1641
462 91 871
463 91 1347
464 91 1716
465 91 1457
466 91 1192
467 91 1485
468 91 1255
469 91 1008
470 91 495
471 91 1936
472 91 1931
473 91 1028
474 91 909
475 91 1672
476 91 1472
477 91 626
478 91 1019
479 91 1023
480 91 2278
481 91 1777
482 91 1100
483 91 865
484 91 1769
485 91 1766
486 91 489
487 91 722
488 91 704
489 91 660
490 91 994
491 91 1288
492 91 212
493 91 1103
494 91 1631
495 91 1015
496 91 906
497 91 585
498 91 932
499 91 1130
500 91 1439
1 92 691
2 92 1768
3 92 294
4 92 837
5 92 843
6 92 511
7 92 582
8 92 1318
9 92 227
10 92 745
11 92 977
12 92 802
13 92 1180
14 92 1293
15 92 1242
16 92 1103
17 92 1250
18 92 1034
19 92 1596
20 92 1643
21 92 993
22 92 1662
23 92 1829
24 92 1110
25 92 585
26 92 239
27 92 535
28 92 684
29 92 716
30 92 591
31 92 2140
32 92 1312
33 92 1738
34 92 205
35 92 471
36 92 1112
37 92 1365
38 92 1269
39 92 1053
40 92 1039
41 92 562
42 92 746
43 92 488
44 92 549
45 92 562
46 92 1633
47 92 982
48 92 1284
49 92 1881
50 92 1029
51 92 1144
52 92 475
53 92 1062
54 92 956
55 92 524
56 92 723
57 92 1193
58 92 776
59 92 869
60 92 1933
61 92 973
62 92 2179
63 92 664
64 92 1362
65 92 323
66 92 1691
67 92 678
68 92 978
69 92 2177
70 92 1871
71 92 174
72 92 1094
73 92 534
74 92 663
75 92 726
76 92 1390
77 92 1375
78 92 1083
79 92 1091
80 92 531
81 92 1260
82 92 876
83 92 681
84 92 1692
85 92 1228
86 92 1135
87 92 591
88 92 493
89 92 753
90 92 1974
91 92 470
92 92 1218
93 92 1206
94 92 869
95 92 1402
96 92 298
97 92 947
98 92 1106
99 92 462
100 92 857
101 92 1237
102 92 594
103 92 724
104 92 1516
105 92 1534
106 92 1462
107 92 787
108 92 1633
109 92 378
110 92 1012
111 92 904
112 92 623
113 92 162
114 92 2385
115 92 1196
116 92 1599
117 92 1089
118 92 658
119 92 834
120 92 1263
121 92 653
122 92 1471
123 92 2187
124 92 545
125 92 311
126 92 1662
127 92 1430
128 92 1167
129 92 1657
130 92 2130
131 92 1234
132 92 363
133 92 834
134 92 706
135 92 386
136 92 582
137 92 1230
138 92 796
139 92 709
140 92 1089
141 92 280
142 92 657
143 92 1008
144 92 1081
145 92 609
146 92 564
147 92 1233
148 92 1163
149 92 1532
150 92 1247
151 92 1287
152 92 981
153 92 1341
154 92 1187
155 92 902
156 92 959
157 92 876
158 92 1536
159 92 1054
160 92 838
161 92 731
162 92 1302
163 92 1029
164 92 716
165 92 1081
166 92 3101
167 92 1333
168 92 775
169 92 1347
170 92 1105
171 92 876
172 92 445
173 92 1095
174 92 401
175 92 987
176 92 526
177 92 580
178 92 882
179 92 1658
180 92 1348
181 92 583
182 92 561
183 92 879
184 92 1716
185 92 238
186 92 572
187 92 1264
188 92 554
189 92 708
190 92 936
191 92 1238
192 92 1919
193 92 1095
194 92 588
195 92 1387
196 92 795
197 92 1369
198 92 1554
199 92 1308
200 92 2488
201 92 583
202 92 1696
203 92 505
204 92 3195
205 92 1790
206 92 816
207 92 1110
208 92 844
209 92 746
210 92 1537
211 92 1249
212 92 1171
213 92 870
214 92 1089
215 92 738
216 92 2004
217 92 603
218 92 1649
219 92 1105
220 92 1100
221 92 458
222 92 1151
223 92 1077
224 92 794
225 92 630
226 92 2054
227 92 570
228 92 1208
229 92 453
230 92 276
231 92 844
232 92 1034
233 92 800
234 92 1055
235 92 812
236 92 1109
237 92 1597
238 92 815
239 92 478
240 92 1491
241 92 584
242 92 1376
243 92 634
244 92 1700
245 92 811
246 92 567
247 92 722
248 92 1001
249 92 1317
250 92 942
251 92 1176
252 92 1403
253 92 1467
254 92 373
255 92 1294
256 92 2051
257 92 1466
258 92 2053
259 92 1274
260 92 897
261 92 614
262 92 415
263 92 760
264 92 1212
265 92 348
266 92 384
267 92 1724
268 92 541
269 92 466
270 92 1084
271 92 1326
272 92 589
273 92 611
274 92 1204
275 92 1111
276 92 800
277 92 310
278 92 1034
279 92 772
280 92 1096
281 92 1274
282 92 469
283 92 382
284 92 2056
285 92 658
286 92 364
287 92 719
288 92 824
289 92 1280
290 92 698
291 92 633
292 92 898
293 92 826
294 92 1783
295 92 720
296 92 990
297 92 557
298 92 1444
299 92 2150
300 92 1954
301 92 545
302 92 1417
303 92 948
304 92 1129
305 92 1204
306 92 769
307 92 1371
308 92 1278
309 92 789
310 92 1174
311 92 1200
312 92 491
313 92 355
314 92 1206
315 92 2271
316 92 1014
317 92 1255
318 92 338
319 92 1876
320 92 620
321 92 2259
322 92 1681
323 92 557
324 92 785
325 92 1323
326 92 1194
327 92 684
328 92 407
329 92 1091
330 92 1457
331 92 649
332 92 928
333 92 516
334 92 1602
335 92 1317
336 92 1425
337 92 1072
338 92 675
339 92 1000
340 92 763
341 92 1069
342 92 562
343 92 1380
344 92 672
345 92 1286
346 92 1936
347 92 375
348 92 805
349 92 874
350 92 1030
351 92 439
352 92 1268
353 92 524
354 92 1182
355 92 1652
356 92 1121
357 92 439
358 92 1693
359 92 551
360 92 1006
361 92 909
362 92 417
363 92 304
364 92 991
365 92 209
366 92 1439
367 92 855
368 92 329
369 92 969
370 92 1293
371 92 1610
372 92 702
373 92 2731
374 92 1171
375 92 1088
376 92 1165
377 92 1280
378 92 507
379 92 234
380 92 696
381 92 573
382 92 229
383 92 1255
384 92 589
385 92 1894
386 92 2457
387 92 1077
388 92 871
389 92 1160
390 92 728
391 92 1416
392 92 987
393 92 1013
394 92 731
395 92 757
396 92 1083
397 92 435
398 92 392
399 92 937
400 92 1315
401 92 676
402 92 422
403 92 1047
404 92 2085
405 92 925
406 92 497
407 92 826
408 92 792
409 92 376
410 92 1318
411 92 1493
412 92 1121
413 92 490
414 92 761
415 92 1217
416 92 1542
417 92 371
418 92 1357
419 92 2325
420 92 581
421 92 1618
422 92 680
423 92 1421
424 92 2958
425 92 1215
426 92 2009
427 92 888
428 92 734
429 92 620
430 92 1751
431 92 1172
432 92 1031
433 92 867
434 92 2018
435 92 1384
436 92 471
437 92 286
438 92 776
439 92 1042
440 92 521
441 92 1381
442 92 259
443 92 472
444 92 1061
445 92 561
446 92 238
447 92 769
448 92 1242
449 92 367
450 92 763
451 92 1048
452 92 708
453 92 1593
454 92 631
455 92 644
456 92 1142
457 92 1010
458 92 943
459 92 1462
460 92 1625
461 92 970
462 92 528
463 92 1042
464 92 1206
465 92 317
466 92 1632
467 92 637
468 92 545
469 92 953
470 92 371
471 92 1002
472 92 1439
473 92 863
474 92 2210
475 92 2086
476 92 1622
477 92 545
478 92 1903
479 92 520
480 92 1060
481 92 930
482 92 568
483 92 224
484 92 1197
485 92 1499
486 92 916
487 92 639
488 92 359
489 92 613
490 92 853
491 92 1495
492 92 1335
493 92 942
494 92 748
495 92 872
496 92 1111
497 92 673
498 92 669
499 92 336
500 92 626
1 93 580
2 93 2328
3 93 2102
4 93 2043
5 93 1465
6 93 1264
7 93 504
8 93 1861
9 93 1582
10 93 1127
11 93 721
12 93 2371
13 93 2364
14 93 1852
15 93 2767
16 93 2956
17 93 2358
18 93 1155
19 93 1437
20 93 1781
21 93 1109
22 93 961
23 93 1633
24 93 2477
25 93 1910
26 93 1219
27 93 1100
28 93 610
29 93 1801
30 93 973
31 93 1975
32 93 1320
33 93 2711
34 93 1577
35 93 829
36 93 941
37 93 1331
38 93 721
39 93 3211
40 93 1103
41 93 1327
42 93 1720
43 93 1010
44 93 1687
45 93 1215
46 93 1599
47 93 989
48 93 2659
49 93 1601
50 93 1506
51 93 1330
52 93 2312
53 93 1335
54 93 2067
55 93 1435
56 93 1419
57 93 2517
58 93 2230
59 93 513
60 93 2290
61 93 1829
62 93 795
63 93 1684
64 93 804
65 93 715
66 93 1360
67 93 459
68 93 980
69 93 1971
70 93 2078
71 93 1518
72 93 2498
73 93 1162
74 93 836
75 93 1576
76 93 1866
77 93 1025
78 93 2105
79 93 1720
80 93 1574
81 93 2453
82 93 597
83 93 992
84 93 2538
85 93 1859
86 93 1630
87 93 2100
88 93 994
89 93 1204
90 93 1937
91 93 1177
92 93 1368
93 93 1731
94 93 1175
95 93 1541
96 93 713
97 93 1514
98 93 1061
99 93 812
100 93 998
101 93 2461
102 93 2711
103 93 1683
104 93 1543
105 93 2709
106 93 822
107 93 1034
108 93 2777
109 93 997
110 93 736
111 93 1393
112 93 1199
113 93 1205
114 93 1638
115 93 2363
116 93 796
117 93 891
118 93 1669
119 93 852
120 93 1433
121 93 1058
122 93 1818
123 93 1233
124 93 1233
125 93 2024
126 93 1989
127 93 1535
128 93 1016
129 93 1376
130 93 1941
131 93 1024
132 93 1139
133 93 2471
134 93 734
135 93 858
136 93 1459
137 93 2205
138 93 1627
139 93 764
140 93 872
141 93 2339
142 93 457
143 93 1827
144 93 2044
145 93 1388
146 93 1496
147 93 1567
148 93 1439
149 93 1932
150 93 1806
151 93 1684
152 93 397
153 93 1847
154 93 2969
155 93 776
156 93 814
157 93 2556
158 93 1942
159 93 1500
160 93 912
161 93 1426
162 93 1449
163 93 1855
164 93 1821
165 93 3204
166 93 2569
167 93 969
168 93 1438
169 93 1869
170 93 1628
171 93 2326
172 93 1345
173 93 637
174 93 1846
175 93 1363
176 93 1262
177 93 1210
178 93 1047
179 93 1711
180 93 979
181 93 1460
182 93 668
183 93 1064
184 93 1951
185 93 1266
186 93 1131
187 93 813
188 93 1420
189 93 1503
190 93 705
191 93 2277
192 93 1917
193 93 976
194 93 853
195 93 1359
196 93 2680
197 93 1957
198 93 1454
199 93 1969
200 93 2020
201 93 931
202 93 1667
203 93 795
204 93 2509
205 93 1162
206 93 960
207 93 2815
208 93 1410
209 93 1982
210 93 2698
211 93 971
212 93 1293
213 93 466
214 93 1669
215 93 982
216 93 1856
217 93 511
218 93 2119
219 93 778
220 93 1219
221 93 1159
222 93 731
223 93 989
224 93 1077
225 93 2061
226 93 3521
227 93 1272
228 93 1090
229 93 1768
230 93 1361
231 93 597
232 93 1000
233 93 1704
234 93 1238
235 93 1230
236 93 2484
237 93 2526
238 93 2795
239 93 846
240 93 559
241 93 1424
242 93 1801
243 93 2318
244 93 1267
245 93 1631
246 93 1053
247 93 1673
248 93 1016
249 93 1299
250 93 935
251 93 674
252 93 1110
253 93 2109
254 93 1002
255 93 655
256 93 1293
257 93 1528
258 93 3431
259 93 1547
260 93 1577
261 93 1129
262 93 690
263 93 864
264 93 635
265 93 1479
266 93 1826
267 93 1287
268 93 2551
269 93 951
270 93 1317
271 93 851
272 93 1019
273 93 885
274 93 1008
275 93 1680
276 93 1084
277 93 2271
278 93 1469
279 93 1559
280 93 1428
281 93 954
282 93 1178
283 93 541
284 93 884
285 93 1070
286 93 1888
287 93 1722
288 93 1286
289 93 1089
290 93 1549
291 93 1127
292 93 2114
293 93 2467
294 93 1352
295 93 717
296 93 1906
297 93 1062
298 93 2810
299 93 1962
300 93 1632
301 93 1037
302 93 588
303 93 1543
304 93 982
305 93 2375
306 93 1546
307 93 1355
308 93 1639
309 93 1446
310 93 1154
311 93 1624
312 93 1105
313 93 1231
314 93 1547
315 93 2076
316 93 1658
317 93 794
318 93 983
319 93 315
320 93 1355
321 93 1931
322 93 2168
323 93 1512
324 93 1486
325 93 1661
326 93 1389
327 93 1512
328 93 1897
329 93 2791
330 93 912
331 93 905
332 93 1250
333 93 1431
334 93 772
335 93 2126
336 93 1544
337 93 1353
338 93 1119
339 93 1637
340 93 1963
341 93 2114
342 93 1870
343 93 1381
344 93 982
345 93 1578
346 93 2673
347 93 1433
348 93 1079
349 93 616
350 93 1060
351 93 1901
352 93 1783
353 93 739
354 93 2338
355 93 1798
356 93 1486
357 93 1031
358 93 3283
359 93 1075
360 93 1362
361 93 393
362 93 1015
363 93 1996
364 93 1314
365 93 2420
366 93 1060
367 93 691
368 93 1479
369 93 746
370 93 2084
371 93 1821
372 93 1382
373 93 1372
374 93 1606
375 93 807
376 93 1989
377 93 1026
378 93 1451
379 93 1837
380 93 2762
381 93 1990
382 93 1738
383 93 2751
384 93 1094
385 93 1940
386 93 2202
387 93 1000
388 93 2687
389 93 1134
390 93 1883
391 93 839
392 93 600
393 93 666
394 93 1148
395 93 1508
396 93 1627
397 93 2292
398 93 1037
399 93 2832
400 93 929
401 93 1502
402 93 2263
403 93 1697
404 93 1843
405 93 849
406 93 2729
407 93 1564
408 93 1383
409 93 1176
410 93 1171
411 93 2179
412 93 1693
413 93 1115
414 93 2363
415 93 1223
416 93 2122
417 93 1240
418 93 2491
419 93 338
420 93 1376
421 93 1091
422 93 1016
423 93 1566
424 93 1303
425 93 1387
426 93 2796
427 93 1181
428 93 740
429 93 1884
430 93 947
431 93 1773
432 93 1469
433 93 2080
434 93 2988
435 93 1633
436 93 668
437 93 1170
438 93 905
439 93 1089
440 93 933
441 93 889
442 93 1372
443 93 875
444 93 1724
445 93 1401
446 93 1288
447 93 1419
448 93 1724
449 93 1107
450 93 1743
451 93 1267
452 93 1054
453 93 533
454 93 1177
455 93 1769
456 93 1006
457 93 2039
458 93 1458
459 93 1023
460 93 1760
461 93 1924
462 93 1105
463 93 1531
464 93 1303
465 93 1449
466 93 1304
467 93 2057
468 93 750
469 93 1771
470 93 1042
471 93 1302
472 93 2827
473 93 1258
474 93 1627
475 93 3574
476 93 1858
477 93 939
478 93 2164
479 93 2800
480 93 1307
481 93 1312
482 93 1131
483 93 345
484 93 1023
485 93 1379
486 93 1919
487 93 724
488 93 1324
489 93 793
490 93 2070
491 93 1469
492 93 1838
493 93 1321
494 93 1406
495 93 752
496 93 1380
497 93 468
498 93 610
499 93 967
500 93 1540
1 94 646
2 94 1262
3 94 1921
4 94 1898
5 94 2647
6 94 1317
7 94 2032
8 94 1971
9 94 1075
10 94 779
11 94 1257
12 94 891
13 94 1050
14 94 1980
15 94 1806
16 94 1121
17 94 2178
18 94 1640
19 94 1087
20 94 1383
21 94 1299
22 94 2324
23 94 2332
24 94 2948
25 94 1764
26 94 1718
27 94 1371
28 94 643
29 94 1759
30 94 303
31 94 1474
32 94 2142
33 94 1360
34 94 1037
35 94 793
36 94 2094
37 94 1760
38 94 1250
39 94 2570
40 94 1107
41 94 1574
42 94 2378
43 94 1592
44 94 1038
45 94 1722
46 94 1985
47 94 1600
48 94 1484
49 94 2439
50 94 1963
51 94 1285
52 94 1572
53 94 1065
54 94 1589
55 94 925
56 94 799
57 94 1655
58 94 1681
59 94 270
60 94 2367
61 94 1787
62 94 1325
63 94 679
64 94 866
65 94 1455
66 94 2054
67 94 610
68 94 2273
69 94 1888
70 94 2193
71 94 1778
72 94 1846
73 94 2596
74 94 1555
75 94 790
76 94 1512
77 94 1762
78 94 1803
79 94 1126
80 94 1440
81 94 1462
82 94 1692
83 94 1590
84 94 2329
85 94 1036
86 94 2237
87 94 2249
88 94 531
89 94 655
90 94 1694
91 94 1088
92 94 2300
93 94 1678
94 94 1190
95 94 409
96 94 1421
97 94 2133
98 94 1091
99 94 838
100 94 958
101 94 1396
102 94 4140
103 94 2411
104 94 1072
105 94 3685
106 94 2924
107 94 1388
108 94 2756
109 94 1567
110 94 2044
111 94 1360
112 94 1537
113 94 1429
114 94 1408
115 94 1604
116 94 1914
117 94 896
118 94 888
119 94 1281
120 94 2206
121 94 1969
122 94 1147
123 94 1642
124 94 1352
125 94 1873
126 94 1530
127 94 545
128 94 1094
129 94 1356
130 94 1837
131 94 1776
132 94 1940
133 94 1731
134 94 1165
135 94 1237
136 94 1217
137 94 402
138 94 668
139 94 1417
140 94 922
141 94 1832
142 94 621
143 94 2884
144 94 2366
145 94 971
146 94 2711
147 94 1221
148 94 1994
149 94 2889
150 94 622
151 94 2141
152 94 1325
153 94 956
154 94 2554
155 94 1579
156 94 1611
157 94 2868
158 94 1251
159 94 2043
160 94 2276
161 94 2454
162 94 673
163 94 2585
164 94 2326
165 94 605
166 94 1500
167 94 803
168 94 2448
169 94 2086
170 94 2579
171 94 1820
172 94 719
173 94 1260
174 94 824
175 94 1385
176 94 2105
177 94 1394
178 94 2307
179 94 1620
180 94 1188
181 94 1027
182 94 604
183 94 2026
184 94 1598
185 94 1911
186 94 2414
187 94 1888
188 94 1219
189 94 601
190 94 814
191 94 1274
192 94 2173
193 94 867
194 94 1505
195 94 1675
196 94 1371
197 94 1094
198 94 925
199 94 2227
200 94 1306
201 94 1535
202 94 2359
203 94 888
204 94 1617
205 94 1205
206 94 943
207 94 2208
208 94 1221
209 94 2117
210 94 2010
211 94 1770
212 94 1622
213 94 831
214 94 1936
215 94 1530
216 94 1638
217 94 585
218 94 1385
219 94 1378
220 94 2196
221 94 1076
222 94 1363
223 94 846
224 94 1631
225 94 558
226 94 1779
227 94 1375
228 94 2034
229 94 3016
230 94 1440
231 94 1482
232 94 1025
233 94 960
234 94 1782
235 94 1474
236 94 1865
237 94 4608
238 94 1326
239 94 847
240 94 2192
241 94 1852
242 94 2026
243 94 1668
244 94 814
245 94 2184
246 94 678
247 94 787
248 94 1684
249 94 1350
250 94 454
251 94 1363
252 94 2236
253 94 876
254 94 1483
255 94 1516
256 94 1705
257 94 581
258 94 1790
259 94 1356
260 94 2760
261 94 2080
262 94 1077
263 94 1244
264 94 2067
265 94 2074
266 94 1222
267 94 2254
268 94 2042
269 94 512
270 94 1603
271 94 885
272 94 1555
273 94 788
274 94 1127
275 94 1756
276 94 773
277 94 1768
278 94 1347
279 94 967
280 94 1300
281 94 2095
282 94 482
283 94 1826
284 94 1310
285 94 1974
286 94 1243
287 94 1753
288 94 1465
289 94 1737
290 94 838
291 94 2064
292 94 1569
293 94 868
294 94 1074
295 94 2146
296 94 1504
297 94 1608
298 94 1032
299 94 1944
300 94 1359
301 94 2142
302 94 2235
303 94 2500
304 94 1121
305 94 1034
306 94 738
307 94 1229
308 94 2164
309 94 1053
310 94 1305
311 94 2190
312 94 1277
313 94 2423
314 94 1338
315 94 4202
316 94 1939
317 94 1959
318 94 596
319 94 1891
320 94 2437
321 94 1407
322 94 950
323 94 2650
324 94 1480
325 94 2200
326 94 1959
327 94 898
328 94 1347
329 94 2167
330 94 1553
331 94 1495
332 94 2056
333 94 2008
334 94 2843
335 94 1236
336 94 480
337 94 1143
338 94 3144
339 94 2895
340 94 2171
341 94 1789
342 94 1766
343 94 1596
344 94 1652
345 94 1775
346 94 1976
347 94 3154
348 94 1680
349 94 240
350 94 1676
351 94 1355
352 94 1505
353 94 624
354 94 2132
355 94 1536
356 94 1947
357 94 1301
358 94 1855
359 94 1788
360 94 1175
361 94 1769
362 94 1676
363 94 1870
364 94 2257
365 94 813
366 94 1986
367 94 620
368 94 2012
369 94 1635
370 94 2089
371 94 2142
372 94 1029
373 94 1690
374 94 1842
375 94 1529
376 94 2315
377 94 1266
378 94 878
379 94 1790
380 94 1938
381 94 1438
382 94 1729
383 94 1480
384 94 1735
385 94 915
386 94 1348
387 94 1629
388 94 2768
389 94 1399
390 94 1318
391 94 2978
392 94 1345
393 94 2109
394 94 720
395 94 722
396 94 2002
397 94 1617
398 94 1463
399 94 2092
400 94 1264
401 94 995
402 94 672
403 94 2704
404 94 2008
405 94 961
406 94 1029
407 94 1819
408 94 1517
409 94 1802
410 94 3060
411 94 2075
412 94 2558
413 94 458
414 94 2613
415 94 2023
416 94 881
417 94 1870
418 94 1249
419 94 2859
420 94 1184
421 94 3175
422 94 1431
423 94 390
424 94 1929
425 94 1565
426 94 1483
427 94 873
428 94 1072
429 94 1757
430 94 2230
431 94 1089
432 94 1784
433 94 1124
434 94 2122
435 94 1625
436 94 1051
437 94 930
438 94 1322
439 94 954
440 94 678
441 94 2249
442 94 1065
443 94 822
444 94 1375
445 94 1029
446 94 1687
447 94 1445
448 94 1645
449 94 1987
450 94 1736
451 94 2242
452 94 1159
453 94 1272
454 94 725
455 94 1881
456 94 1016
457 94 1520
458 94 2322
459 94 2045
460 94 1463
461 94 1202
462 94 1890
463 94 2221
464 94 1931
465 94 1584
466 94 1456
467 94 587
468 94 1742
469 94 1802
470 94 1465
471 94 951
472 94 1060
473 94 2586
474 94 2826
475 94 1785
476 94 642
477 94 1111
478 94 2044
479 94 978
480 94 2194
481 94 2385
482 94 1755
483 94 942
484 94 2727
485 94 2542
486 94 2115
487 94 845
488 94 1354
489 94 1135
490 94 1615
491 94 1000
492 94 2014
493 94 2330
494 94 977
495 94 1587
496 94 1252
497 94 645
498 94 614
499 94 1466
500 94 3279
1 95 561
2 95 1785
3 95 1524
4 95 647
5 95 969
6 95 340
7 95 604
8 95 184
9 95 225
10 95 740
11 95 1104
12 95 244
13 95 261
14 95 164
15 95 1080
16 95 289
17 95 416
18 95 563
19 95 334
20 95 435
21 95 918
22 95 947
23 95 187
24 95 1744
25 95 602
26 95 506
27 95 725
28 95 554
29 95 683
30 95 218
31 95 1200
32 95 293
33 95 89
34 95 213
35 95 137
36 95 553
37 95 750
38 95 517
39 95 617
40 95 297
41 95 458
42 95 1684
43 95 203
44 95 210
45 95 557
46 95 138
47 95 620
48 95 759
49 95 199
50 95 575
51 95 580
52 95 533
53 95 821
54 95 721
55 95 447
56 95 700
57 95 1174
58 95 752
59 95 348
60 95 774
61 95 1501
62 95 163
63 95 399
64 95 474
65 95 408
66 95 396
67 95 270
68 95 464
69 95 595
70 95 191
71 95 930
72 95 240
73 95 362
74 95 948
75 95 399
76 95 1454
77 95 230
78 95 967
79 95 281
80 95 432
81 95 1060
82 95 449
83 95 994
84 95 550
85 95 239
86 95 138
87 95 943
88 95 334
89 95 203
90 95 381
91 95 349
92 95 302
93 95 123
94 95 492
95 95 564
96 95 367
97 95 422
98 95 534
99 95 320
100 95 188
101 95 1066
102 95 146
103 95 597
104 95 538
105 95 656
106 95 788
107 95 1037
108 95 297
109 95 205
110 95 442
111 95 1189
112 95 729
113 95 563
114 95 1654
115 95 175
116 95 520
117 95 293
118 95 786
119 95 478
120 95 344
121 95 496
122 95 1285
123 95 580
124 95 362
125 95 1498
126 95 814
127 95 437
128 95 479
129 95 1162
130 95 530
131 95 1147
132 95 215
133 95 146
134 95 157
135 95 188
136 95 165
137 95 301
138 95 122
139 95 206
140 95 329
141 95 1074
142 95 274
143 95 390
144 95 460
145 95 722
146 95 590
147 95 619
148 95 1048
149 95 1236
150 95 614
151 95 595
152 95 567
153 95 464
154 95 218
155 95 371
156 95 479
157 95 86
158 95 1564
159 95 403
160 95 800
161 95 836
162 95 801
163 95 1133
164 95 1588
165 95 273
166 95 639
167 95 448
168 95 348
169 95 177
170 95 1088
171 95 739
172 95 493
173 95 321
174 95 525
175 95 1181
176 95 339
177 95 371
178 95 481
179 95 549
180 95 769
181 95 673
182 95 180
183 95 699
184 95 403
185 95 160
186 95 584
187 95 535
188 95 160
189 95 403
190 95 608
191 95 755
192 95 228
193 95 308
194 95 296
195 95 194
196 95 866
197 95 63
198 95 228
199 95 772
200 95 678
201 95 588
202 95 1212
203 95 312
204 95 633
205 95 689
206 95 568
207 95 709
208 95 1112
209 95 596
210 95 775
211 95 1212
212 95 301
213 95 164
214 95 670
215 95 340
216 95 333
217 95 457
218 95 1390
219 95 194
220 95 936
221 95 350
222 95 1134
223 95 291
224 95 115
225 95 379
226 95 428
227 95 356
228 95 502
229 95 638
230 95 285
231 95 487
232 95 321
233 95 433
234 95 662
235 95 724
236 95 209
237 95 369
238 95 855
239 95 303
240 95 502
241 95 333
242 95 137
243 95 353
244 95 886
245 95 283
246 95 267
247 95 1155
248 95 219
249 95 375
250 95 724
251 95 1101
252 95 363
253 95 335
254 95 383
255 95 523
256 95 516
257 95 408
258 95 422
259 95 234
260 95 340
261 95 618
262 95 1096
263 95 585
264 95 1115
265 95 731
266 95 534
267 95 1193
268 95 643
269 95 343
270 95 223
271 95 491
272 95 365
273 95 158
274 95 533
275 95 835
276 95 702
277 95 1096
278 95 784
279 95 551
280 95 703
281 95 1087
282 95 514
283 95 260
284 95 161
285 95 487
286 95 522
287 95 435
288 95 704
289 95 124
290 95 441
291 95 651
292 95 788
293 95 261
294 95 394
295 95 718
296 95 832
297 95 332
298 95 982
299 95 574
300 95 965
301 95 635
302 95 488
303 95 650
304 95 399
305 95 251
306 95 895
307 95 581
308 95 405
309 95 554
310 95 1055
311 95 250
312 95 682
313 95 324
314 95 367
315 95 782
316 95 565
317 95 539
318 95 275
319 95 1249
320 95 1266
321 95 1219
322 95 161
323 95 607
324 95 1153
325 95 407
326 95 160
327 95 475
328 95 187
329 95 830
330 95 820
331 95 583
332 95 495
333 95 351
334 95 797
335 95 1313
336 95 612
337 95 1052
338 95 796
339 95 217
340 95 599
341 95 301
342 95 679
343 95 211
344 95 972
345 95 1000
346 95 1569
347 95 178
348 95 116
349 95 327
350 95 602
351 95 175
352 95 1209
353 95 179
354 95 206
355 95 680
356 95 651
357 95 748
358 95 282
359 95 188
360 95 358
361 95 257
362 95 188
363 95 1517
364 95 211
365 95 419
366 95 304
367 95 341
368 95 733
369 95 515
370 95 593
371 95 422
372 95 420
373 95 773
374 95 845
375 95 279
376 95 630
377 95 766
378 95 416
379 95 132
380 95 506
381 95 315
382 95 130
383 95 767
384 95 540
385 95 111
386 95 668
387 95 217
388 95 96
389 95 506
390 95 390
391 95 632
392 95 237
393 95 412
394 95 693
395 95 925
396 95 572
397 95 539
398 95 644
399 95 1797
400 95 616
401 95 142
402 95 232
403 95 392
404 95 2051
405 95 690
406 95 575
407 95 309
408 95 1171
409 95 425
410 95 811
411 95 1342
412 95 393
413 95 515
414 95 797
415 95 561
416 95 314
417 95 285
418 95 962
419 95 302
420 95 158
421 95 373
422 95 250
423 95 652
424 95 215
425 95 233
426 95 310
427 95 144
428 95 179
429 95 559
430 95 986
431 95 208
432 95 662
433 95 1010
434 95 1104
435 95 191
436 95 1070
437 95 147
438 95 591
439 95 505
440 95 359
441 95 307
442 95 186
443 95 132
444 95 273
445 95 634
446 95 549
447 95 1189
448 95 86
449 95 215
450 95 434
451 95 1209
452 95 409
453 95 592
454 95 90
455 95 309
456 95 399
457 95 940
458 95 263
459 95 317
460 95 435
461 95 193
462 95 104
463 95 681
464 95 137
465 95 499
466 95 1129
467 95 360
468 95 260
469 95 1463
470 95 358
471 95 802
472 95 962
473 95 1110
474 95 508
475 95 456
476 95 1482
477 95 551
478 95 993
479 95 491
480 95 1208
481 95 135
482 95 587
483 95 324
484 95 232
485 95 870
486 95 425
487 95 344
488 95 391
489 95 615
490 95 709
491 95 237
492 95 170
493 95 212
494 95 367
495 95 339
496 95 200
497 95 307
498 95 584
499 95 262
500 95 365
1 96 981
2 96 2128
3 96 2978
4 96 2312
5 96 2832
6 96 2821
7 96 1386
8 96 2101
9 96 2483
10 96 1008
11 96 2018
12 96 3610
13 96 2622
14 96 2112
15 96 2391
16 96 2926
17 96 2651
18 96 2560
19 96 1732
20 96 2142
21 96 3081
22 96 2861
23 96 2151
24 96 1554
25 96 1483
26 96 641
27 96 1557
28 96 1016
29 96 903
30 96 1013
31 96 1853
32 96 1566
33 96 1620
34 96 2439
35 96 817
36 96 1872
37 96 2416
38 96 2213
39 96 2831
40 96 1582
41 96 1958
42 96 1363
43 96 1903
44 96 2219
45 96 1678
46 96 1195
47 96 3001
48 96 2060
49 96 2193
50 96 2363
51 96 1859
52 96 1080
53 96 3509
54 96 1493
55 96 1106
56 96 3417
57 96 1251
58 96 2344
59 96 1589
60 96 2658
61 96 3923
62 96 2401
63 96 3344
64 96 1779
65 96 1755
66 96 3981
67 96 884
68 96 2744
69 96 3901
70 96 2378
71 96 2382
72 96 1722
73 96 3355
74 96 1955
75 96 1417
76 96 2881
77 96 1889
78 96 2465
79 96 1468
80 96 2719
81 96 1211
82 96 1518
83 96 1554
84 96 2455
85 96 1830
86 96 2448
87 96 3941
88 96 838
89 96 1452
90 96 2469
91 96 1433
92 96 1547
93 96 2267
94 96 2349
95 96 1959
96 96 1780
97 96 2314
98 96 2346
99 96 2238
100 96 1289
101 96 1239
102 96 3502
103 96 2071
104 96 3815
105 96 3821
106 96 2564
107 96 1536
108 96 3888
109 96 2313
110 96 3350
111 96 1526
112 96 2015
113 96 1759
114 96 1969
115 96 2623
116 96 3051
117 96 874
118 96 1635
119 96 2285
120 96 2754
121 96 3225
122 96 1725
123 96 3925
124 96 2762
125 96 2974
126 96 2300
127 96 1955
128 96 2273
129 96 2415
130 96 3803
131 96 1625
132 96 2299
133 96 2944
134 96 1417
135 96 1978
136 96 1479
137 96 1135
138 96 1753
139 96 1774
140 96 894
141 96 2008
142 96 918
143 96 3824
144 96 2998
145 96 2329
146 96 2826
147 96 1663
148 96 1673
149 96 6387
150 96 1521
151 96 3096
152 96 1912
153 96 2548
154 96 2812
155 96 2992
156 96 1363
157 96 1112
158 96 3250
159 96 2315
160 96 2970
161 96 1576
162 96 797
163 96 2461
164 96 1410
165 96 1877
166 96 2712
167 96 1476
168 96 2513
169 96 2029
170 96 1428
171 96 1029
172 96 2711
173 96 2388
174 96 3382
175 96 1541
176 96 1959
177 96 2868
178 96 2741
179 96 3410
180 96 1601
181 96 2275
182 96 1181
183 96 2658
184 96 1390
185 96 1121
186 96 3039
187 96 2078
188 96 1436
189 96 1518
190 96 1380
191 96 4039
192 96 2391
193 96 892
194 96 1213
195 96 2883
196 96 2780
197 96 1978
198 96 1751
199 96 3299
200 96 1754
201 96 1202
202 96 2066
203 96 833
204 96 2579
205 96 1273
206 96 1453
207 96 1586
208 96 3111
209 96 2482
210 96 2408
211 96 1521
212 96 1435
213 96 1592
214 96 1323
215 96 1229
216 96 2451
217 96 1716
218 96 1671
219 96 2896
220 96 2533
221 96 1329
222 96 1854
223 96 852
224 96 1331
225 96 2062
226 96 3583
227 96 2792
228 96 3138
229 96 4620
230 96 2694
231 96 1572
232 96 1263
233 96 2222
234 96 2427
235 96 2173
236 96 1635
237 96 4048
238 96 2865
239 96 2124
240 96 2263
241 96 2245
242 96 1407
243 96 2264
244 96 2313
245 96 1924
246 96 1660
247 96 1561
248 96 1674
249 96 2442
250 96 912
251 96 1846
252 96 1887
253 96 3607
254 96 1840
255 96 1347
256 96 3909
257 96 2127
258 96 3477
259 96 3852
260 96 1705
261 96 1307
262 96 1680
263 96 1478
264 96 2317
265 96 1700
266 96 2103
267 96 2544
268 96 4940
269 96 836
270 96 1674
271 96 1804
272 96 1995
273 96 1583
274 96 2331
275 96 2552
276 96 963
277 96 1935
278 96 2360
279 96 2520
280 96 2381
281 96 2734
282 96 2164
283 96 1315
284 96 2563
285 96 3283
286 96 2043
287 96 3038
288 96 2138
289 96 2171
290 96 1359
291 96 1270
292 96 1442
293 96 3666
294 96 1126
295 96 2873
296 96 3759
297 96 2096
298 96 2059
299 96 3767
300 96 1253
301 96 2056
302 96 2250
303 96 1332
304 96 1768
305 96 2633
306 96 2673
307 96 1477
308 96 2520
309 96 2500
310 96 2481
311 96 2383
312 96 1531
313 96 3914
314 96 2376
315 96 1877
316 96 1308
317 96 2029
318 96 1241
319 96 1930
320 96 3003
321 96 1685
322 96 3012
323 96 2810
324 96 1275
325 96 2489
326 96 1689
327 96 1071
328 96 1722
329 96 3085
330 96 1875
331 96 1264
332 96 1786
333 96 1926
334 96 2640
335 96 4146
336 96 1895
337 96 979
338 96 2944
339 96 3359
340 96 2437
341 96 1569
342 96 1557
343 96 3016
344 96 1498
345 96 2060
346 96 4799
347 96 1843
348 96 1309
349 96 1504
350 96 2947
351 96 1704
352 96 1409
353 96 1198
354 96 2544
355 96 1109
356 96 2992
357 96 1419
358 96 3302
359 96 2221
360 96 1844
361 96 1865
362 96 1920
363 96 2953
364 96 4369
365 96 2340
366 96 1778
367 96 993
368 96 1656
369 96 1289
370 96 1538
371 96 3322
372 96 1418
373 96 3049
374 96 2547
375 96 2275
376 96 1474
377 96 1650
378 96 1155
379 96 2149
380 96 1977
381 96 3006
382 96 2205
383 96 2073
384 96 1671
385 96 3924
386 96 1768
387 96 1829
388 96 1167
389 96 5558
390 96 1567
391 96 5003
392 96 1431
393 96 3380
394 96 945
395 96 2746
396 96 1274
397 96 1155
398 96 2335
399 96 2181
400 96 1416
401 96 3269
402 96 1158
403 96 3337
404 96 2032
405 96 974
406 96 2298
407 96 2489
408 96 1320
409 96 1349
410 96 3614
411 96 1875
412 96 3394
413 96 2182
414 96 3153
415 96 1591
416 96 3619
417 96 1516
418 96 2227
419 96 2967
420 96 1429
421 96 1834
422 96 1571
423 96 2015
424 96 2551
425 96 1694
426 96 1829
427 96 2093
428 96 1408
429 96 1879
430 96 2912
431 96 1859
432 96 3124
433 96 3058
434 96 2535
435 96 2287
436 96 1667
437 96 2449
438 96 1504
439 96 3239
440 96 793
441 96 1740
442 96 1203
443 96 827
444 96 3531
445 96 2255
446 96 592
447 96 1329
448 96 2369
449 96 2235
450 96 2963
451 96 2981
452 96 1879
453 96 2291
454 96 2365
455 96 1571
456 96 1438
457 96 3893
458 96 2820
459 96 1703
460 96 2131
461 96 2330
462 96 2043
463 96 2418
464 96 1655
465 96 1707
466 96 2481
467 96 1993
468 96 1968
469 96 3872
470 96 1697
471 96 1386
472 96 2047
473 96 3147
474 96 2766
475 96 3480
476 96 861
477 96 1226
478 96 991
479 96 2216
480 96 2876
481 96 3205
482 96 1680
483 96 1239
484 96 3078
485 96 2507
486 96 3124
487 96 888
488 96 1459
489 96 1812
490 96 1527
491 96 1777
492 96 2213
493 96 4451
494 96 1396
495 96 2961
496 96 2018
497 96 948
498 96 1013
499 96 1828
500 96 2233
1 97 614
2 97 1263
3 97 1238
4 97 2328
5 97 1763
6 97 867
7 97 1396
8 97 1505
9 97 1389
10 97 956
11 97 2588
12 97 1729
13 97 1517
14 97 1502
15 97 2476
16 97 1314
17 97 2138
18 97 970
19 97 2552
20 97 2056
21 97 1123
22 97 1050
23 97 1017
24 97 2496
25 97 1192
26 97 1388
27 97 1618
28 97 576
29 97 1548
30 97 876
31 97 751
32 97 1165
33 97 1979
34 97 1303
35 97 698
36 97 1733
37 97 760
38 97 898
39 97 2411
40 97 858
41 97 1198
42 97 1026
43 97 1281
44 97 832
45 97 1413
46 97 1306
47 97 2942
48 97 1123
49 97 964
50 97 2454
51 97 1477
52 97 3036
53 97 3482
54 97 2226
55 97 1562
56 97 3231
57 97 1598
58 97 2678
59 97 624
60 97 1151
61 97 1520
62 97 1705
63 97 1027
64 97 1366
65 97 1328
66 97 1242
67 97 788
68 97 1307
69 97 1325
70 97 1884
71 97 959
72 97 1143
73 97 2169
74 97 829
75 97 1154
76 97 1369
77 97 1264
78 97 2718
79 97 573
80 97 1638
81 97 605
82 97 1588
83 97 1453
84 97 1310
85 97 1005
86 97 1668
87 97 2051
88 97 831
89 97 1352
90 97 1808
91 97 699
92 97 1089
93 97 1228
94 97 987
95 97 1230
96 97 1393
97 97 1865
98 97 1255
99 97 1193
100 97 586
101 97 581
102 97 1690
103 97 1800
104 97 2028
105 97 1902
106 97 1135
107 97 923
108 97 1317
109 97 2099
110 97 805
111 97 1431
112 97 1131
113 97 1467
114 97 2205
115 97 2293
116 97 1438
117 97 803
118 97 1002
119 97 1027
120 97 1693
121 97 1419
122 97 1572
123 97 644
124 97 952
125 97 1131
126 97 1869
127 97 791
128 97 1226
129 97 2161
130 97 1418
131 97 1509
132 97 829
133 97 1446
134 97 745
135 97 910
136 97 1949
137 97 2465
138 97 1363
139 97 1787
140 97 846
141 97 1528
142 97 810
143 97 2032
144 97 2419
145 97 1138
146 97 1889
147 97 1235
148 97 969
149 97 2719
150 97 1902
151 97 1187
152 97 835
153 97 3178
154 97 1794
155 97 1043
156 97 998
157 97 1909
158 97 1632
159 97 1914
160 97 707
161 97 1480
162 97 1139
163 97 1869
164 97 1062
165 97 1837
166 97 2578
167 97 1133
168 97 1558
169 97 1573
170 97 809
171 97 1371
172 97 751
173 97 2267
174 97 1381
175 97 1417
176 97 964
177 97 932
178 97 2249
179 97 848
180 97 755
181 97 1135
182 97 853
183 97 1991
184 97 1158
185 97 1280
186 97 2228
187 97 2268
188 97 1911
189 97 2314
190 97 927
191 97 1212
192 97 1872
193 97 849
194 97 840
195 97 3388
196 97 773
197 97 992
198 97 1180
199 97 2288
200 97 741
201 97 486
202 97 1701
203 97 1446
204 97 2621
205 97 1092
206 97 532
207 97 2054
208 97 829
209 97 2429
210 97 2179
211 97 1481
212 97 1581
213 97 846
214 97 1521
215 97 1800
216 97 1827
217 97 1021
218 97 1285
219 97 1269
220 97 1403
221 97 727
222 97 678
223 97 883
224 97 896
225 97 1363
226 97 1828
227 97 898
228 97 2036
229 97 627
230 97 1324
231 97 1328
232 97 844
233 97 923
234 97 1646
235 97 858
236 97 1140
237 97 1593
238 97 772
239 97 1225
240 97 1370
241 97 968
242 97 2500
243 97 991
244 97 1685
245 97 2330
246 97 1602
247 97 1228
248 97 1033
249 97 1322
250 97 1120
251 97 667
252 97 1385
253 97 2486
254 97 1059
255 97 1535
256 97 647
257 97 769
258 97 1820
259 97 2955
260 97 1613
261 97 1393
262 97 560
263 97 677
264 97 2462
265 97 554
266 97 1112
267 97 1154
268 97 2849
269 97 850
270 97 1120
271 97 1369
272 97 1968
273 97 666
274 97 1314
275 97 1139
276 97 991
277 97 1564
278 97 1046
279 97 1443
280 97 1356
281 97 2001
282 97 1982
283 97 1433
284 97 1704
285 97 1474
286 97 1091
287 97 1380
288 97 955
289 97 954
290 97 1234
291 97 1415
292 97 2291
293 97 1684
294 97 345
295 97 885
296 97 1785
297 97 2020
298 97 1098
299 97 1308
300 97 2102
301 97 1246
302 97 1329
303 97 1384
304 97 2330
305 97 1501
306 97 2167
307 97 2201
308 97 1077
309 97 1469
310 97 1917
311 97 1924
312 97 1641
313 97 1776
314 97 1668
315 97 2303
316 97 1485
317 97 2335
318 97 1350
319 97 1741
320 97 817
321 97 765
322 97 2603
323 97 1894
324 97 1953
325 97 1157
326 97 927
327 97 2910
328 97 1107
329 97 2532
330 97 1267
331 97 457
332 97 2091
333 97 1110
334 97 1096
335 97 923
336 97 1214
337 97 1796
338 97 2021
339 97 2773
340 97 2355
341 97 2085
342 97 1155
343 97 3390
344 97 1399
345 97 1678
346 97 2170
347 97 1596
348 97 911
349 97 598
350 97 2982
351 97 1108
352 97 1632
353 97 776
354 97 1292
355 97 2180
356 97 2584
357 97 1495
358 97 1801
359 97 1588
360 97 1998
361 97 1770
362 97 1373
363 97 1173
364 97 1612
365 97 1647
366 97 1167
367 97 644
368 97 531
369 97 1029
370 97 1026
371 97 1616
372 97 1962
373 97 1659
374 97 1104
375 97 1644
376 97 3145
377 97 817
378 97 1552
379 97 1781
380 97 2438
381 97 711
382 97 1697
383 97 1197
384 97 1456
385 97 1804
386 97 729
387 97 1053
388 97 1890
389 97 2047
390 97 1420
391 97 1912
392 97 1517
393 97 820
394 97 1002
395 97 2135
396 97 1505
397 97 2844
398 97 1820
399 97 1658
400 97 1009
401 97 2748
402 97 768
403 97 2317
404 97 1710
405 97 1431
406 97 1760
407 97 1526
408 97 2031
409 97 1623
410 97 1443
411 97 1505
412 97 2400
413 97 2027
414 97 2388
415 97 1287
416 97 2495
417 97 755
418 97 2348
419 97 3251
420 97 1990
421 97 1184
422 97 855
423 97 1194
424 97 2915
425 97 1139
426 97 1547
427 97 866
428 97 798
429 97 1996
430 97 1028
431 97 992
432 97 1652
433 97 2101
434 97 1629
435 97 937
436 97 599
437 97 1304
438 97 646
439 97 482
440 97 783
441 97 502
442 97 1063
443 97 735
444 97 1877
445 97 1173
446 97 1326
447 97 1979
448 97 1210
449 97 780
450 97 1341
451 97 1372
452 97 1087
453 97 1363
454 97 535
455 97 1402
456 97 1147
457 97 1730
458 97 1916
459 97 1228
460 97 2020
461 97 1720
462 97 1125
463 97 2004
464 97 912
465 97 3276
466 97 2052
467 97 1286
468 97 1251
469 97 1530
470 97 1071
471 97 1487
472 97 1035
473 97 1399
474 97 322
475 97 1808
476 97 1545
477 97 510
478 97 2425
479 97 1707
480 97 1383
481 97 2189
482 97 1433
483 97 801
484 97 1707
485 97 1603
486 97 1850
487 97 669
488 97 965
489 97 451
490 97 2220
491 97 1186
492 97 1468
493 97 1676
494 97 1961
495 97 1012
496 97 576
497 97 774
498 97 643
499 97 828
500 97 2354
1 98 579
2 98 508
3 98 1215
4 98 470
5 98 741
6 98 670
7 98 938
8 98 1299
9 98 1188
10 98 665
11 98 878
12 98 461
13 98 666
14 98 1329
15 98 624
16 98 946
17 98 969
18 98 1008
19 98 671
20 98 1044
21 98 237
22 98 538
23 98 887
24 98 448
25 98 538
26 98 924
27 98 372
28 98 572
29 98 1092
30 98 131
31 98 495
32 98 411
33 98 1541
34 98 1183
35 98 251
36 98 620
37 98 1567
38 98 204
39 98 808
40 98 469
41 98 237
42 98 905
43 98 1238
44 98 553
45 98 825
46 98 627
47 98 658
48 98 1163
49 98 920
50 98 1217
51 98 596
52 98 1233
53 98 495
54 98 316
55 98 452
56 98 638
57 98 789
58 98 341
59 98 337
60 98 307
61 98 707
62 98 1623
63 98 1091
64 98 90
65 98 790
66 98 1290
67 98 374
68 98 232
69 98 996
70 98 858
71 98 906
72 98 1078
73 98 1323
74 98 615
75 98 864
76 98 1196
77 98 703
78 98 835
79 98 399
80 98 543
81 98 496
82 98 382
83 98 862
84 98 204
85 98 1087
86 98 746
87 98 1278
88 98 548
89 98 612
90 98 1082
91 98 547
92 98 386
93 98 451
94 98 342
95 98 626
96 98 759
97 98 546
98 98 370
99 98 593
100 98 477
101 98 499
102 98 308
103 98 332
104 98 740
105 98 1297
106 98 790
107 98 1357
108 98 962
109 98 99
110 98 1508
111 98 1153
112 98 106
113 98 198
114 98 913
115 98 304
116 98 1470
117 98 953
118 98 553
119 98 910
120 98 337
121 98 1185
122 98 753
123 98 1130
124 98 746
125 98 1341
126 98 746
127 98 580
128 98 367
129 98 1079
130 98 985
131 98 1984
132 98 416
133 98 1385
134 98 426
135 98 608
136 98 215
137 98 861
138 98 921
139 98 234
140 98 947
141 98 1058
142 98 328
143 98 451
144 98 546
145 98 447
146 98 769
147 98 302
148 98 481
149 98 311
150 98 637
151 98 419
152 98 605
153 98 356
154 98 180
155 98 860
156 98 554
157 98 723
158 98 984
159 98 617
160 98 781
161 98 1150
162 98 500
163 98 701
164 98 967
165 98 145
166 98 1659
167 98 1098
168 98 593
169 98 1335
170 98 836
171 98 251
172 98 1261
173 98 989
174 98 812
175 98 1154
176 98 396
177 98 765
178 98 2176
179 98 1175
180 98 360
181 98 460
182 98 557
183 98 1472
184 98 324
185 98 184
186 98 1496
187 98 639
188 98 193
189 98 437
190 98 1174
191 98 1017
192 98 920
193 98 959
194 98 902
195 98 1473
196 98 1229
197 98 540
198 98 1041
199 98 707
200 98 1196
201 98 447
202 98 557
203 98 432
204 98 1651
205 98 461
206 98 884
207 98 453
208 98 379
209 98 498
210 98 854
211 98 2003
212 98 935
213 98 834
214 98 614
215 98 200
216 98 987
217 98 582
218 98 97
219 98 725
220 98 408
221 98 576
222 98 478
223 98 905
224 98 638
225 98 717
226 98 611
227 98 694
228 98 630
229 98 1507
230 98 316
231 98 308
232 98 930
233 98 1132
234 98 1186
235 98 506
236 98 1112
237 98 957
238 98 1142
239 98 607
240 98 794
241 98 255
242 98 152
243 98 297
244 98 152
245 98 1868
246 98 1050
247 98 1828
248 98 656
249 98 773
250 98 436
251 98 483
252 98 555
253 98 1284
254 98 329
255 98 942
256 98 1084
257 98 643
258 98 613
259 98 526
260 98 741
261 98 1354
262 98 695
263 98 768
264 98 1782
265 98 883
266 98 1124
267 98 791
268 98 747
269 98 491
270 98 505
271 98 109
272 98 1049
273 98 733
274 98 331
275 98 661
276 98 673
277 98 1073
278 98 818
279 98 862
280 98 676
281 98 760
282 98 811
283 98 664
284 98 1495
285 98 1230
286 98 1042
287 98 974
288 98 437
289 98 733
290 98 921
291 98 1362
292 98 332
293 98 418
294 98 516
295 98 268
296 98 567
297 98 988
298 98 502
299 98 1001
300 98 499
301 98 894
302 98 779
303 98 770
304 98 828
305 98 663
306 98 1076
307 98 787
308 98 844
309 98 867
310 98 155
311 98 764
312 98 347
313 98 431
314 98 502
315 98 845
316 98 616
317 98 608
318 98 1470
319 98 543
320 98 646
321 98 422
322 98 550
323 98 774
324 98 1487
325 98 841
326 98 1591
327 98 216
328 98 396
329 98 645
330 98 739
331 98 435
332 98 1248
333 98 838
334 98 741
335 98 126
336 98 652
337 98 913
338 98 1423
339 98 682
340 98 497
341 98 752
342 98 553
343 98 1393
344 98 870
345 98 1086
346 98 357
347 98 405
348 98 609
349 98 354
350 98 660
351 98 403
352 98 1117
353 98 615
354 98 1197
355 98 840
356 98 470
357 98 114
358 98 415
359 98 853
360 98 383
361 98 964
362 98 1150
363 98 1301
364 98 1708
365 98 1005
366 98 1167
367 98 480
368 98 888
369 98 588
370 98 1231
371 98 306
372 98 1645
373 98 156
374 98 698
375 98 482
376 98 135
377 98 314
378 98 444
379 98 609
380 98 525
381 98 644
382 98 608
383 98 1121
384 98 795
385 98 928
386 98 1265
387 98 687
388 98 716
389 98 2190
390 98 836
391 98 404
392 98 712
393 98 1595
394 98 701
395 98 1087
396 98 629
397 98 1205
398 98 1322
399 98 405
400 98 912
401 98 1087
402 98 613
403 98 813
404 98 809
405 98 82
406 98 434
407 98 628
408 98 1448
409 98 495
410 98 660
411 98 925
412 98 858
413 98 886
414 98 391
415 98 561
416 98 1328
417 98 1290
418 98 1055
419 98 402
420 98 213
421 98 1648
422 98 89
423 98 602
424 98 507
425 98 600
426 98 794
427 98 681
428 98 449
429 98 970
430 98 542
431 98 1156
432 98 132
433 98 1395
434 98 678
435 98 415
436 98 747
437 98 573
438 98 684
439 98 498
440 98 128
441 98 675
442 98 306
443 98 303
444 98 274
445 98 493
446 98 842
447 98 1505
448 98 415
449 98 416
450 98 952
451 98 661
452 98 697
453 98 1522
454 98 653
455 98 1041
456 98 842
457 98 580
458 98 1049
459 98 1260
460 98 1047
461 98 307
462 98 800
463 98 524
464 98 1464
465 98 602
466 98 1150
467 98 753
468 98 725
469 98 717
470 98 317
471 98 446
472 98 489
473 98 310
474 98 673
475 98 629
476 98 1082
477 98 346
478 98 695
479 98 483
480 98 650
481 98 705
482 98 845
483 98 376
484 98 933
485 98 362
486 98 830
487 98 423
488 98 452
489 98 661
490 98 343
491 98 1057
492 98 1317
493 98 1660
494 98 1581
495 98 906
496 98 299
497 98 363
498 98 576
499 98 649
500 98 527
104 99 4
295 99 2
367 99 3
15 100 5
30 100 2
31 100 8
43 100 1
44 100 4
48 100 4
50 100 6
61 100 15
62 100 10
67 100 4
68 100 3
69 100 21
70 100 1
72 100 5
82 100 2
83 100 4
85 100 4
86 100 1
87 100 6
100 100 1
110 100 2
113 100 2
121 100 4
123 100 12
127 100 4
130 100 15
134 100 3
136 100 2
139 100 1
142 100 5
145 100 1
147 100 3
155 100 8
158 100 2
160 100 3
161 100 4
178 100 10
181 100 1
188 100 2
191 100 3
192 100 8
198 100 3
209 100 10
212 100 7
220 100 7
226 100 3
236 100 5
247 100 4
249 100 2
255 100 1
256 100 12
257 100 2
258 100 2
260 100 15
261 100 1
263 100 12
272 100 2
273 100 5
284 100 13
285 100 6
291 100 5
297 100 2
298 100 6
299 100 15
306 100 5
311 100 3
321 100 4
332 100 5
335 100 8
340 100 8
341 100 9
344 100 9
347 100 8
354 100 9
361 100 5
362 100 6
364 100 6
367 100 2
373 100 5
383 100 5
393 100 3
395 100 4
401 100 5
407 100 4
409 100 6
420 100 2
424 100 7
426 100 3
428 100 4
431 100 5
438 100 6
444 100 4
445 100 2
452 100 2
454 100 2
455 100 3
456 100 4
469 100 12
472 100 4
474 100 13
475 100 4
476 100 1
481 100 4
484 100 18
488 100 13
491 100 7
493 100 5
495 100 3
497 100 4
1 101 341
2 101 1337
3 101 332
4 101 202
5 101 174
6 101 582
7 101 392
8 101 691
9 101 400
10 101 273
11 101 463
12 101 307
13 101 340
14 101 708
15 101 251
16 101 510
17 101 194
18 101 231
19 101 1000
20 101 519
21 101 898
22 101 757
23 101 255
24 101 823
25 101 531
26 101 489
27 101 438
28 101 336
29 101 139
30 101 283
31 101 391
32 101 482
33 101 185
34 101 365
35 101 196
36 101 494
37 101 451
38 101 195
39 101 342
40 101 190
41 101 358
42 101 512
43 101 458
44 101 464
45 101 492
46 101 254
47 101 83
48 101 175
49 101 236
50 101 106
51 101 576
52 101 302
53 101 478
54 101 968
55 101 567
56 101 1589
57 101 566
58 101 253
59 101 152
60 101 236
61 101 121
62 101 520
63 101 104
64 101 763
65 101 745
66 101 295
67 101 276
68 101 213
69 101 1212
70 101 188
71 101 574
72 101 132
73 101 239
74 101 458
75 101 624
76 101 389
77 101 467
78 101 631
79 101 77
80 101 559
81 101 611
82 101 305
83 101 993
84 101 383
85 101 263
86 101 680
87 101 415
88 101 410
89 101 315
90 101 394
91 101 57
92 101 481
93 101 294
94 101 202
95 101 397
96 101 754
97 101 207
98 101 193
99 101 170
100 101 158
101 101 600
102 101 1014
103 101 166
104 101 654
105 101 143
106 101 343
107 101 459
108 101 172
109 101 230
110 101 995
111 101 546
112 101 411
113 101 511
114 101 230
115 101 507
116 101 361
117 101 251
118 101 349
119 101 347
120 101 132
121 101 109
122 101 185
123 101 514
124 101 546
125 101 316
126 101 825
127 101 595
128 101 197
129 101 761
130 101 1252
131 101 965
132 101 670
133 101 381
134 101 99
135 101 58
136 101 201
137 101 481
138 101 587
139 101 356
140 101 227
141 101 577
142 101 293
143 101 222
144 101 210
145 101 298
146 101 573
147 101 183
148 101 444
149 101 353
150 101 1249
151 101 714
152 101 215
153 101 940
154 101 242
155 101 790
156 101 232
157 101 205
158 101 458
159 101 207
160 101 219
161 101 987
162 101 628
163 101 444
164 101 528
165 101 209
166 101 258
167 101 496
168 101 545
169 101 692
170 101 153
171 101 71
172 101 284
173 101 771
174 101 472
175 101 508
176 101 379
177 101 555
178 101 654
179 101 885
180 101 121
181 101 262
182 101 560
183 101 648
184 101 236
185 101 497
186 101 271
187 101 521
188 101 179
189 101 602
190 101 989
191 101 577
192 101 198
193 101 262
194 101 590
195 101 366
196 101 365
197 101 101
198 101 468
199 101 212
200 101 407
201 101 252
202 101 486
203 101 73
204 101 264
205 101 351
206 101 142
207 101 212
208 101 336
209 101 298
210 101 197
211 101 909
212 101 395
213 101 84
214 101 294
215 101 156
216 101 409
217 101 248
218 101 107
219 101 266
220 101 284
221 101 66
222 101 334
223 101 260
224 101 248
225 101 392
226 101 623
227 101 569
228 101 1223
229 101 1098
230 101 157
231 101 581
232 101 188
233 101 279
234 101 231
235 101 644
236 101 149
237 101 574
238 101 384
239 101 165
240 101 389
241 101 128
242 101 140
243 101 196
244 101 94
245 101 297
246 101 270
247 101 1358
248 101 377
249 101 699
250 101 96
251 101 383
252 101 189
253 101 300
254 101 40
255 101 737
256 101 522
257 101 609
258 101 634
259 101 273
260 101 447
261 101 471
262 101 335
263 101 426
264 101 288
265 101 444
266 101 187
267 101 583
268 101 775
269 101 367
270 101 611
271 101 798
272 101 589
273 101 543
274 101 204
275 101 173
276 101 288
277 101 585
278 101 338
279 101 239
280 101 266
281 101 482
282 101 117
283 101 25
284 101 498
285 101 115
286 101 159
287 101 594
288 101 644
289 101 92
290 101 593
291 101 478
292 101 1011
293 101 309
294 101 321
295 101 228
296 101 1203
297 101 599
298 101 940
299 101 1267
300 101 558
301 101 258
302 101 383
303 101 429
304 101 482
305 101 366
306 101 363
307 101 607
308 101 550
309 101 253
310 101 247
311 101 527
312 101 433
313 101 57
314 101 208
315 101 606
316 101 250
317 101 544
318 101 357
319 101 130
320 101 365
321 101 416
322 101 832
323 101 605
324 101 367
325 101 527
326 101 970
327 101 79
328 101 228
329 101 537
330 101 323
331 101 216
332 101 648
333 101 320
334 101 399
335 101 302
336 101 441
337 101 587
338 101 545
339 101 198
340 101 293
341 101 288
342 101 537
343 101 362
344 101 980
345 101 88
346 101 462
347 101 279
348 101 251
349 101 119
350 101 72
351 101 246
352 101 754
353 101 588
354 101 979
355 101 504
356 101 31
357 101 268
358 101 1293
359 101 70
360 101 223
361 101 302
362 101 506
363 101 329
364 101 160
365 101 298
366 101 605
367 101 468
368 101 427
369 101 247
370 101 151
371 101 118
372 101 108
373 101 154
374 101 178
375 101 589
376 101 226
377 101 116
378 101 622
379 101 573
380 101 1372
381 101 825
382 101 628
383 101 198
384 101 501
385 101 337
386 101 412
387 101 325
388 101 189
389 101 399
390 101 246
391 101 349
392 101 312
393 101 1024
394 101 313
395 101 359
396 101 235
397 101 268
398 101 221
399 101 543
400 101 148
401 101 342
402 101 219
403 101 97
404 101 382
405 101 749
406 101 340
407 101 447
408 101 359
409 101 752
410 101 488
411 101 301
412 101 108
413 101 122
414 101 350
415 101 448
416 101 300
417 101 397
418 101 291
419 101 1446
420 101 194
421 101 356
422 101 613
423 101 421
424 101 283
425 101 637
426 101 681
427 101 725
428 101 104
429 101 93
430 101 743
431 101 238
432 101 1383
433 101 368
434 101 355
435 101 297
436 101 320
437 101 145
438 101 444
439 101 1371
440 101 267
441 101 72
442 101 466
443 101 198
444 101 245
445 101 288
446 101 525
447 101 383
448 101 260
449 101 637
450 101 609
451 101 1471
452 101 396
453 101 211
454 101 419
455 101 1120
456 101 620
457 101 1250
458 101 501
459 101 606
460 101 476
461 101 375
462 101 481
463 101 399
464 101 1062
465 101 574
466 101 777
467 101 426
468 101 505
469 101 91
470 101 43
471 101 95
472 101 857
473 101 281
474 101 1144
475 101 641
476 101 108
477 101 199
478 101 360
479 101 356
480 101 1351
481 101 334
482 101 503
483 101 219
484 101 462
485 101 569
486 101 151
487 101 59
488 101 201
489 101 169
490 101 972
491 101 518
492 101 660
493 101 188
494 101 94
495 101 735
496 101 902
497 101 286
498 101 306
499 101 589
500 101 269
1 102 593
2 102 1654
3 102 1421
4 102 1295
5 102 1566
6 102 1225
7 102 1147
8 102 1446
9 102 983
10 102 788
11 102 2114
12 102 774
13 102 1397
14 102 1411
15 102 924
16 102 941
17 102 1628
18 102 1380
19 102 1613
20 102 2254
21 102 1933
22 102 1047
23 102 1262
24 102 1711
25 102 751
26 102 1579
27 102 821
28 102 598
29 102 1977
30 102 436
31 102 1463
32 102 1000
33 102 2045
34 102 1016
35 102 644
36 102 1467
37 102 908
38 102 926
39 102 2319
40 102 1102
41 102 2115
42 102 1682
43 102 1650
44 102 1301
45 102 520
46 102 1851
47 102 1848
48 102 2434
49 102 1272
50 102 992
51 102 893
52 102 1499
53 102 996
54 102 1144
55 102 1101
56 102 1912
57 102 1512
58 102 1433
59 102 755
60 102 1555
61 102 906
62 102 1689
63 102 2273
64 102 1324
65 102 3358
66 102 2473
67 102 707
68 102 3102
69 102 1383
70 102 1197
71 102 1359
72 102 2082
73 102 1321
74 102 1192
75 102 1364
76 102 1748
77 102 1777
78 102 1813
79 102 1305
80 102 1307
81 102 1292
82 102 1047
83 102 1537
84 102 745
85 102 867
86 102 2125
87 102 1299
88 102 526
89 102 933
90 102 1684
91 102 1039
92 102 1005
93 102 807
94 102 661
95 102 883
96 102 3334
97 102 2257
98 102 788
99 102 1877
100 102 1090
101 102 1197
102 102 1004
103 102 960
104 102 1816
105 102 2377
106 102 2257
107 102 1997
108 102 2592
109 102 1826
110 102 1093
111 102 1290
112 102 596
113 102 1268
114 102 1340
115 102 1620
116 102 706
117 102 673
118 102 935
119 102 2585
120 102 1481
121 102 1455
122 102 1396
123 102 1899
124 102 1259
125 102 1410
126 102 1133
127 102 278
128 102 759
129 102 2555
130 102 1282
131 102 961
132 102 1139
133 102 1665
134 102 1204
135 102 799
136 102 1001
137 102 1657
138 102 1520
139 102 1686
140 102 665
141 102 2732
142 102 714
143 102 2997
144 102 1949
145 102 877
146 102 1220
147 102 661
148 102 1114
149 102 542
150 102 1077
151 102 1795
152 102 1539
153 102 896
154 102 1149
155 102 1819
156 102 714
157 102 978
158 102 924
159 102 2225
160 102 1921
161 102 2364
162 102 933
163 102 1148
164 102 1648
165 102 765
166 102 2165
167 102 840
168 102 1152
169 102 1464
170 102 490
171 102 1534
172 102 2806
173 102 1094
174 102 1579
175 102 1265
176 102 1047
177 102 1260
178 102 1742
179 102 1113
180 102 1159
181 102 819
182 102 573
183 102 555
184 102 743
185 102 941
186 102 1064
187 102 1723
188 102 972
189 102 803
190 102 538
191 102 1432
192 102 1239
193 102 668
194 102 469
195 102 3455
196 102 1374
197 102 682
198 102 1549
199 102 970
200 102 752
201 102 1255
202 102 1155
203 102 784
204 102 2158
205 102 527
206 102 432
207 102 1795
208 102 1026
209 102 2603
210 102 1805
211 102 1030
212 102 543
213 102 1262
214 102 413
215 102 784
216 102 1674
217 102 483
218 102 1773
219 102 2349
220 102 1789
221 102 987
222 102 1385
223 102 717
224 102 2016
225 102 1226
226 102 1935
227 102 1182
228 102 574
229 102 629
230 102 1288
231 102 1745
232 102 664
233 102 980
234 102 1474
235 102 1500
236 102 2097
237 102 525
238 102 1440
239 102 1981
240 102 1139
241 102 1135
242 102 1067
243 102 1111
244 102 2405
245 102 2707
246 102 1243
247 102 1124
248 102 601
249 102 500
250 102 1061
251 102 1352
252 102 732
253 102 1489
254 102 707
255 102 1717
256 102 1852
257 102 228
258 102 1955
259 102 1086
260 102 1872
261 102 1698
262 102 1635
263 102 903
264 102 1757
265 102 1461
266 102 3717
267 102 2003
268 102 1938
269 102 518
270 102 766
271 102 1339
272 102 781
273 102 873
274 102 776
275 102 848
276 102 822
277 102 2735
278 102 373
279 102 966
280 102 1552
281 102 1232
282 102 1796
283 102 1070
284 102 1644
285 102 1452
286 102 3738
287 102 1068
288 102 1531
289 102 977
290 102 1340
291 102 1806
292 102 1114
293 102 786
294 102 1338
295 102 804
296 102 1127
297 102 801
298 102 1206
299 102 1378
300 102 1160
301 102 1167
302 102 1177
303 102 1426
304 102 313
305 102 1364
306 102 2295
307 102 1769
308 102 1089
309 102 1002
310 102 767
311 102 750
312 102 871
313 102 1302
314 102 1089
315 102 2141
316 102 430
317 102 1720
318 102 826
319 102 1216
320 102 1366
321 102 1437
322 102 2383
323 102 1284
324 102 1203
325 102 1100
326 102 1029
327 102 1910
328 102 861
329 102 616
330 102 1569
331 102 1249
332 102 1016
333 102 1407
334 102 2262
335 102 1620
336 102 895
337 102 1737
338 102 2065
339 102 2740
340 102 2543
341 102 1448
342 102 786
343 102 3439
344 102 1483
345 102 1598
346 102 1250
347 102 1370
348 102 1988
349 102 734
350 102 1793
351 102 853
352 102 1095
353 102 560
354 102 1408
355 102 648
356 102 1016
357 102 1563
358 102 2591
359 102 789
360 102 1014
361 102 818
362 102 1587
363 102 1338
364 102 2561
365 102 1519
366 102 673
367 102 958
368 102 1530
369 102 748
370 102 1073
371 102 538
372 102 2086
373 102 1018
374 102 845
375 102 1092
376 102 1877
377 102 1146
378 102 1111
379 102 1924
380 102 1344
381 102 2459
382 102 1820
383 102 2400
384 102 498
385 102 1721
386 102 760
387 102 594
388 102 956
389 102 985
390 102 1751
391 102 2025
392 102 1351
393 102 1186
394 102 852
395 102 2269
396 102 442
397 102 1508
398 102 889
399 102 950
400 102 1307
401 102 668
402 102 595
403 102 2221
404 102 3414
405 102 995
406 102 476
407 102 737
408 102 1137
409 102 522
410 102 1699
411 102 992
412 102 2220
413 102 1719
414 102 878
415 102 1305
416 102 1534
417 102 671
418 102 310
419 102 2028
420 102 958
421 102 1908
422 102 1327
423 102 872
424 102 877
425 102 714
426 102 1204
427 102 1363
428 102 1196
429 102 1707
430 102 1052
431 102 938
432 102 661
433 102 2437
434 102 879
435 102 1206
436 102 1592
437 102 798
438 102 850
439 102 1925
440 102 714
441 102 1873
442 102 885
443 102 647
444 102 650
445 102 848
446 102 1608
447 102 1165
448 102 730
449 102 1199
450 102 1054
451 102 963
452 102 856
453 102 1552
454 102 956
455 102 974
456 102 841
457 102 1108
458 102 1961
459 102 696
460 102 2198
461 102 1606
462 102 815
463 102 1817
464 102 994
465 102 1750
466 102 2515
467 102 1245
468 102 951
469 102 846
470 102 741
471 102 830
472 102 1174
473 102 1358
474 102 664
475 102 1991
476 102 1213
477 102 605
478 102 428
479 102 458
480 102 965
481 102 743
482 102 479
483 102 324
484 102 1108
485 102 1487
486 102 2127
487 102 363
488 102 556
489 102 1257
490 102 1117
491 102 1611
492 102 1389
493 102 2604
494 102 2063
495 102 1787
496 102 1300
497 102 707
498 102 535
499 102 1256
500 102 511
8 103 5
13 103 3
14 103 5
42 103 4
60 103 5
66 103 5
98 103 4
109 103 5
128 103 3
164 103 1
167 103 3
169 103 5
226 103 6
258 103 7
261 103 3
274 103 4
291 103 4
298 103 4
305 103 5
330 103 5
360 103 3
371 103 14
379 103 2
382 103 5
414 103 6
421 103 7
472 103 4
475 103 3
492 103 7
1 104 1782
2 104 2116
3 104 2083
4 104 1237
5 104 1328
6 104 1903
7 104 2144
8 104 1953
9 104 1451
10 104 1376
11 104 1927
12 104 2064
13 104 1553
14 104 1948
15 104 3807
16 104 1320
17 104 3217
18 104 1052
19 104 2402
20 104 2592
21 104 1349
22 104 1425
23 104 2209
24 104 3726
25 104 1946
26 104 2396
27 104 2526
28 104 1777
29 104 2182
30 104 796
31 104 1904
32 104 1245
33 104 2925
34 104 1452
35 104 1298
36 104 2094
37 104 2333
38 104 1323
39 104 1557
40 104 1079
41 104 3619
42 104 2037
43 104 2220
44 104 880
45 104 2446
46 104 2508
47 104 1603
48 104 2073
49 104 2286
50 104 1593
51 104 2554
52 104 4424
53 104 2029
54 104 2293
55 104 919
56 104 1510
57 104 1764
58 104 2181
59 104 952
60 104 1736
61 104 2313
62 104 3151
63 104 1227
64 104 541
65 104 1710
66 104 2002
67 104 727
68 104 2073
69 104 2009
70 104 2088
71 104 1723
72 104 2509
73 104 1756
74 104 1004
75 104 1191
76 104 2328
77 104 4780
78 104 2197
79 104 1866
80 104 1641
81 104 2313
82 104 1122
83 104 2623
84 104 2551
85 104 1152
86 104 2467
87 104 2274
88 104 584
89 104 1630
90 104 2461
91 104 917
92 104 1264
93 104 1075
94 104 1449
95 104 2753
96 104 1731
97 104 2973
98 104 1002
99 104 1740
100 104 720
101 104 2389
102 104 1199
103 104 1988
104 104 2107
105 104 2097
106 104 1365
107 104 2720
108 104 4018
109 104 1399
110 104 2834
111 104 2535
112 104 1191
113 104 1363
114 104 1935
115 104 4251
116 104 1665
117 104 969
118 104 2129
119 104 1942
120 104 1757
121 104 2059
122 104 2552
123 104 1468
124 104 1963
125 104 2192
126 104 2774
127 104 1613
128 104 1016
129 104 2313
130 104 1944
131 104 1976
132 104 2347
133 104 2174
134 104 1776
135 104 1187
136 104 419
137 104 2532
138 104 1323
139 104 1602
140 104 955
141 104 2936
142 104 778
143 104 3010
144 104 2871
145 104 867
146 104 2422
147 104 1469
148 104 2349
149 104 1899
150 104 2265
151 104 2798
152 104 606
153 104 2409
154 104 1469
155 104 2828
156 104 839
157 104 3209
158 104 2377
159 104 2959
160 104 2292
161 104 2217
162 104 2088
163 104 2233
164 104 2042
165 104 2089
166 104 2259
167 104 3033
168 104 1524
169 104 1931
170 104 2667
171 104 2001
172 104 2407
173 104 1426
174 104 1955
175 104 2508
176 104 1488
177 104 1882
178 104 736
179 104 2121
180 104 2379
181 104 918
182 104 610
183 104 2519
184 104 2358
185 104 2555
186 104 2115
187 104 2342
188 104 428
189 104 2005
190 104 1610
191 104 2222
192 104 2150
193 104 928
194 104 991
195 104 2359
196 104 1082
197 104 1832
198 104 1774
199 104 3237
200 104 2689
201 104 1262
202 104 2163
203 104 1598
204 104 2186
205 104 1659
206 104 2750
207 104 1925
208 104 1542
209 104 2534
210 104 1741
211 104 2125
212 104 1833
213 104 2295
214 104 3360
215 104 1357
216 104 2544
217 104 1304
218 104 2491
219 104 1851
220 104 2025
221 104 956
222 104 1151
223 104 925
224 104 2023
225 104 1187
226 104 2434
227 104 1878
228 104 1308
229 104 3230
230 104 1860
231 104 2683
232 104 2339
233 104 844
234 104 1412
235 104 2128
236 104 2479
237 104 2361
238 104 1116
239 104 1740
240 104 2240
241 104 1616
242 104 2353
243 104 892
244 104 1514
245 104 2053
246 104 1942
247 104 1939
248 104 1825
249 104 1757
250 104 1095
251 104 1097
252 104 1451
253 104 1490
254 104 1430
255 104 1440
256 104 1395
257 104 1530
258 104 2525
259 104 1466
260 104 2846
261 104 1165
262 104 1129
263 104 1369
264 104 3525
265 104 1173
266 104 2845
267 104 910
268 104 2792
269 104 562
270 104 473
271 104 607
272 104 2261
273 104 1297
274 104 1071
275 104 1972
276 104 1398
277 104 2934
278 104 1732
279 104 1597
280 104 2089
281 104 3261
282 104 2210
283 104 1035
284 104 3185
285 104 2149
286 104 2882
287 104 1474
288 104 2123
289 104 1863
290 104 1136
291 104 1217
292 104 2326
293 104 2152
294 104 1431
295 104 1861
296 104 2810
297 104 2181
298 104 1290
299 104 2003
300 104 1715
301 104 1798
302 104 2207
303 104 962
304 104 1899
305 104 1533
306 104 2326
307 104 1375
308 104 1667
309 104 1474
310 104 2231
311 104 1894
312 104 2623
313 104 2266
314 104 2552
315 104 1004
316 104 3337
317 104 2354
318 104 1617
319 104 2918
320 104 3973
321 104 1875
322 104 3050
323 104 2375
324 104 2175
325 104 1654
326 104 1338
327 104 1987
328 104 2824
329 104 2960
330 104 1192
331 104 1244
332 104 2112
333 104 1665
334 104 1387
335 104 2246
336 104 2651
337 104 2133
338 104 2476
339 104 1874
340 104 2645
341 104 1427
342 104 1969
343 104 2421
344 104 2578
345 104 2769
346 104 2538
347 104 2424
348 104 1944
349 104 944
350 104 1607
351 104 2845
352 104 1402
353 104 634
354 104 2236
355 104 1614
356 104 1918
357 104 1315
358 104 3230
359 104 1252
360 104 1557
361 104 1692
362 104 2277
363 104 2182
364 104 3060
365 104 2035
366 104 1720
367 104 1080
368 104 1189
369 104 928
370 104 1940
371 104 2234
372 104 888
373 104 2304
374 104 2061
375 104 1935
376 104 2698
377 104 2344
378 104 937
379 104 2118
380 104 3227
381 104 2426
382 104 2128
383 104 2158
384 104 2542
385 104 2960
386 104 2669
387 104 1884
388 104 3179
389 104 2157
390 104 2741
391 104 2096
392 104 703
393 104 2966
394 104 1485
395 104 2257
396 104 3348
397 104 4420
398 104 1288
399 104 1841
400 104 1191
401 104 2394
402 104 826
403 104 2221
404 104 2939
405 104 1560
406 104 1966
407 104 2317
408 104 2311
409 104 1620
410 104 2331
411 104 1921
412 104 2267
413 104 2142
414 104 1309
415 104 1105
416 104 1546
417 104 1234
418 104 2074
419 104 3238
420 104 393
421 104 2493
422 104 843
423 104 2830
424 104 1569
425 104 479
426 104 2151
427 104 1486
428 104 1631
429 104 2342
430 104 1385
431 104 1217
432 104 2612
433 104 2918
434 104 3328
435 104 1852
436 104 1139
437 104 2059
438 104 1381
439 104 1226
440 104 605
441 104 1819
442 104 2495
443 104 1348
444 104 3516
445 104 934
446 104 2474
447 104 2231
448 104 1122
449 104 2511
450 104 1424
451 104 3857
452 104 562
453 104 1705
454 104 1381
455 104 2321
456 104 1745
457 104 2793
458 104 2405
459 104 1694
460 104 2580
461 104 2837
462 104 1618
463 104 1993
464 104 1337
465 104 2627
466 104 2371
467 104 1220
468 104 2829
469 104 2228
470 104 1356
471 104 2169
472 104 1350
473 104 1646
474 104 5230
475 104 2541
476 104 1814
477 104 1102
478 104 4012
479 104 1934
480 104 3941
481 104 2742
482 104 2506
483 104 1171
484 104 867
485 104 1292
486 104 2090
487 104 913
488 104 692
489 104 1500
490 104 2225
491 104 1752
492 104 1983
493 104 3057
494 104 889
495 104 2854
496 104 946
497 104 780
498 104 1742
499 104 1755
500 104 2481
1 105 294
2 105 1083
3 105 305
4 105 880
5 105 417
6 105 964
7 105 894
8 105 555
9 105 456
10 105 194
11 105 298
12 105 622
13 105 195
14 105 545
15 105 555
16 105 212
17 105 552
18 105 338
19 105 779
20 105 568
21 105 99
22 105 155
23 105 347
24 105 594
25 105 615
26 105 237
27 105 859
28 105 320
29 105 975
30 105 455
31 105 721
32 105 357
33 105 118
34 105 484
35 105 686
36 105 271
37 105 1029
38 105 487
39 105 1150
40 105 376
41 105 1207
42 105 779
43 105 414
44 105 908
45 105 830
46 105 797
47 105 242
48 105 848
49 105 425
50 105 474
51 105 188
52 105 212
53 105 876
54 105 197
55 105 565
56 105 1874
57 105 556
58 105 866
59 105 312
60 105 213
61 105 712
62 105 519
63 105 372
64 105 899
65 105 290
66 105 1454
67 105 361
68 105 742
69 105 901
70 105 283
71 105 424
72 105 163
73 105 250
74 105 597
75 105 722
76 105 987
77 105 472
78 105 656
79 105 563
80 105 823
81 105 932
82 105 994
83 105 536
84 105 1241
85 105 1248
86 105 809
87 105 244
88 105 306
89 105 194
90 105 194
91 105 345
92 105 349
93 105 278
94 105 566
95 105 892
96 105 328
97 105 260
98 105 483
99 105 391
100 105 59
101 105 977
102 105 566
103 105 540
104 105 431
105 105 199
106 105 1252
107 105 192
108 105 125
109 105 143
110 105 431
111 105 550
112 105 738
113 105 484
114 105 138
115 105 505
116 105 526
117 105 228
118 105 689
119 105 647
120 105 429
121 105 1149
122 105 89
123 105 449
124 105 1001
125 105 311
126 105 611
127 105 438
128 105 520
129 105 576
130 105 916
131 105 279
132 105 493
133 105 747
134 105 172
135 105 408
136 105 891
137 105 577
138 105 270
139 105 189
140 105 234
141 105 1446
142 105 362
143 105 738
144 105 224
145 105 481
146 105 1324
147 105 203
148 105 931
149 105 1144
150 105 833
151 105 302
152 105 844
153 105 296
154 105 429
155 105 159
156 105 423
157 105 532
158 105 269
159 105 283
160 105 701
161 105 266
162 105 600
163 105 1541
164 105 860
165 105 223
166 105 163
167 105 319
168 105 563
169 105 550
170 105 186
171 105 286
172 105 439
173 105 192
174 105 308
175 105 529
176 105 383
177 105 953
178 105 684
179 105 401
180 105 393
181 105 518
182 105 165
183 105 1461
184 105 702
185 105 246
186 105 565
187 105 108
188 105 893
189 105 758
190 105 1090
191 105 595
192 105 264
193 105 256
194 105 244
195 105 618
196 105 437
197 105 694
198 105 122
199 105 475
200 105 297
201 105 747
202 105 756
203 105 846
204 105 147
205 105 507
206 105 912
207 105 1354
208 105 233
209 105 340
210 105 337
211 105 306
212 105 207
213 105 256
214 105 918
215 105 500
216 105 211
217 105 142
218 105 652
219 105 354
220 105 737
221 105 338
222 105 367
223 105 274
224 105 323
225 105 413
226 105 926
227 105 1014
228 105 708
229 105 1228
230 105 639
231 105 344
232 105 655
233 105 526
234 105 259
235 105 354
236 105 169
237 105 279
238 105 456
239 105 380
240 105 309
241 105 392
242 105 98
243 105 436
244 105 497
245 105 474
246 105 348
247 105 323
248 105 352
249 105 431
250 105 317
251 105 417
252 105 427
253 105 1279
254 105 490
255 105 575
256 105 465
257 105 455
258 105 975
259 105 1119
260 105 195
261 105 192
262 105 707
263 105 428
264 105 671
265 105 1268
266 105 691
267 105 398
268 105 260
269 105 307
270 105 600
271 105 887
272 105 270
273 105 557
274 105 499
275 105 858
276 105 180
277 105 1547
278 105 413
279 105 178
280 105 702
281 105 327
282 105 311
283 105 822
284 105 487
285 105 1165
286 105 694
287 105 439
288 105 344
289 105 695
290 105 745
291 105 211
292 105 212
293 105 591
294 105 590
295 105 213
296 105 338
297 105 263
298 105 1185
299 105 963
300 105 467
301 105 1436
302 105 342
303 105 514
304 105 368
305 105 171
306 105 513
307 105 592
308 105 220
309 105 162
310 105 589
311 105 484
312 105 919
313 105 675
314 105 274
315 105 158
316 105 947
317 105 91
318 105 431
319 105 602
320 105 233
321 105 696
322 105 142
323 105 1315
324 105 850
325 105 230
326 105 317
327 105 132
328 105 169
329 105 435
330 105 188
331 105 748
332 105 538
333 105 477
334 105 1296
335 105 495
336 105 891
337 105 950
338 105 127
339 105 821
340 105 352
341 105 393
342 105 667
343 105 570
344 105 520
345 105 507
346 105 332
347 105 707
348 105 298
349 105 358
350 105 230
351 105 213
352 105 897
353 105 208
354 105 314
355 105 1007
356 105 223
357 105 590
358 105 570
359 105 469
360 105 941
361 105 264
362 105 412
363 105 303
364 105 438
365 105 1024
366 105 580
367 105 239
368 105 1237
369 105 386
370 105 506
371 105 1191
372 105 639
373 105 335
374 105 781
375 105 332
376 105 835
377 105 410
378 105 504
379 105 773
380 105 682
381 105 982
382 105 809
383 105 857
384 105 806
385 105 287
386 105 283
387 105 316
388 105 508
389 105 1220
390 105 250
391 105 912
392 105 118
393 105 447
394 105 203
395 105 558
396 105 896
397 105 212
398 105 234
399 105 615
400 105 181
401 105 704
402 105 644
403 105 449
404 105 968
405 105 261
406 105 581
407 105 866
408 105 884
409 105 364
410 105 511
411 105 161
412 105 459
413 105 343
414 105 296
415 105 275
416 105 1293
417 105 267
418 105 1739
419 105 653
420 105 834
421 105 422
422 105 768
423 105 906
424 105 344
425 105 612
426 105 330
427 105 153
428 105 171
429 105 1234
430 105 119
431 105 1295
432 105 1394
433 105 1039
434 105 1478
435 105 604
436 105 740
437 105 282
438 105 462
439 105 158
440 105 39
441 105 646
442 105 760
443 105 724
444 105 173
445 105 471
446 105 288
447 105 874
448 105 271
449 105 489
450 105 390
451 105 933
452 105 384
453 105 397
454 105 191
455 105 806
456 105 464
457 105 340
458 105 408
459 105 550
460 105 569
461 105 295
462 105 118
463 105 781
464 105 346
465 105 274
466 105 544
467 105 412
468 105 419
469 105 679
470 105 534
471 105 767
472 105 1175
473 105 599
474 105 154
475 105 902
476 105 740
477 105 204
478 105 278
479 105 636
480 105 1014
481 105 765
482 105 825
483 105 227
484 105 254
485 105 739
486 105 516
487 105 488
488 105 238
489 105 612
490 105 193
491 105 159
492 105 536
493 105 408
494 105 623
495 105 179
496 105 112
497 105 374
498 105 329
499 105 241
500 105 908
1 106 34
2 106 38
3 106 6
4 106 35
6 106 39
7 106 11
8 106 43
9 106 31
10 106 10
11 106 24
12 106 5
13 106 30
14 106 42
15 106 33
16 106 44
17 106 101
18 106 48
19 106 6
20 106 9
21 106 136
22 106 34
23 106 2
24 106 75
25 106 22
26 106 11
27 106 1
28 106 15
29 106 43
30 106 14
31 106 11
32 106 12
33 106 78
34 106 40
35 106 9
36 106 36
37 106 48
38 106 9
39 106 89
40 106 9
41 106 49
42 106 26
43 106 35
44 106 10
45 106 27
46 106 48
47 106 40
48 106 120
49 106 6
50 106 23
51 106 23
52 106 13
53 106 28
54 106 14
55 106 18
57 106 12
58 106 2
59 106 13
60 106 22
61 106 77
62 106 18
63 106 46
64 106 2
65 106 62
66 106 13
67 106 7
68 106 90
69 106 63
70 106 27
71 106 20
72 106 60
73 106 24
74 106 14
75 106 45
76 106 34
77 106 31
78 106 44
79 106 8
80 106 40
81 106 28
83 106 19
84 106 26
85 106 37
86 106 33
87 106 28
88 106 9
89 106 6
90 106 39
91 106 7
92 106 20
93 106 17
94 106 50
95 106 3
96 106 65
97 106 11
98 106 17
99 106 14
100 106 24
101 106 27
102 106 63
103 106 70
104 106 3
105 106 74
106 106 26
107 106 13
108 106 27
109 106 44
110 106 14
111 106 25
112 106 18
113 106 34
114 106 60
115 106 35
116 106 114
117 106 12
118 106 11
119 106 16
120 106 11
121 106 45
122 106 12
123 106 31
124 106 36
125 106 22
126 106 75
127 106 22
128 106 22
129 106 87
130 106 72
131 106 58
132 106 16
133 106 87
134 106 35
135 106 12
136 106 6
137 106 47
138 106 3
139 106 69
140 106 26
141 106 94
142 106 5
143 106 38
144 106 52
145 106 8
146 106 29
147 106 35
148 106 7
149 106 62
150 106 78
151 106 25
152 106 10
153 106 26
154 106 29
155 106 44
156 106 17
157 106 14
158 106 29
159 106 13
160 106 67
161 106 49
162 106 12
163 106 72
164 106 32
165 106 75
166 106 28
167 106 10
168 106 49
169 106 41
170 106 32
171 106 39
172 106 6
173 106 152
174 106 39
175 106 26
176 106 6
177 106 33
178 106 49
179 106 54
180 106 68
181 106 17
182 106 12
183 106 40
184 106 16
185 106 34
186 106 31
187 106 33
188 106 5
189 106 13
190 106 8
191 106 12
192 106 18
193 106 19
194 106 12
195 106 75
196 106 73
197 106 27
198 106 36
199 106 36
200 106 36
201 106 15
202 106 10
203 106 15
204 106 30
205 106 11
206 106 40
207 106 58
208 106 51
209 106 38
210 106 15
211 106 67
212 106 97
213 106 31
214 106 55
215 106 6
216 106 42
217 106 12
218 106 39
219 106 20
220 106 67
221 106 8
222 106 53
223 106 21
224 106 37
225 106 55
226 106 53
227 106 37
228 106 27
229 106 53
230 106 19
231 106 32
232 106 74
233 106 22
235 106 27
236 106 52
237 106 4
238 106 73
239 106 14
240 106 69
241 106 4
242 106 35
243 106 74
244 106 3
245 106 24
246 106 3
247 106 30
248 106 17
249 106 24
250 106 27
251 106 35
252 106 2
253 106 44
254 106 35
255 106 26
256 106 43
257 106 19
258 106 51
259 106 32
260 106 150
261 106 28
262 106 17
263 106 11
264 106 35
265 106 19
266 106 25
267 106 40
268 106 44
269 106 6
270 106 73
271 106 1
272 106 25
273 106 27
274 106 19
275 106 7
276 106 14
277 106 99
278 106 27
279 106 29
280 106 40
281 106 9
282 106 190
283 106 5
284 106 14
285 106 66
286 106 20
287 106 39
288 106 38
289 106 11
290 106 38
291 106 28
292 106 14
293 106 7
294 106 82
295 106 15
296 106 4
297 106 25
298 106 17
299 106 62
300 106 4
301 106 3
302 106 74
303 106 54
304 106 15
305 106 24
306 106 41
307 106 58
308 106 54
309 106 34
310 106 35
311 106 70
312 106 6
313 106 14
314 106 24
315 106 37
316 106 65
317 106 45
319 106 40
320 106 83
321 106 10
322 106 32
323 106 21
324 106 10
325 106 48
326 106 12
327 106 11
328 106 14
329 106 52
330 106 53
331 106 14
332 106 54
333 106 41
334 106 31
335 106 47
336 106 2
337 106 13
338 106 81
339 106 49
340 106 46
341 106 26
342 106 25
343 106 72
344 106 22
345 106 23
346 106 25
347 106 46
348 106 27
349 106 22
350 106 46
351 106 16
352 106 35
353 106 10
354 106 72
355 106 17
356 106 25
357 106 43
358 106 4
359 106 12
360 106 79
361 106 31
362 106 29
363 106 12
364 106 7
365 106 25
366 106 25
367 106 38
368 106 8
369 106 25
370 106 5
371 106 20
372 106 47
373 106 41
374 106 2
375 106 219
376 106 12
377 106 65
378 106 19
379 106 66
380 106 59
381 106 76
382 106 82
383 106 110
384 106 29
385 106 27
386 106 49
387 106 14
388 106 24
389 106 62
390 106 10
391 106 27
392 106 46
393 106 15
394 106 17
395 106 31
396 106 46
397 106 11
398 106 53
399 106 47
400 106 34
401 106 43
402 106 18
403 106 85
404 106 16
405 106 21
406 106 19
407 106 16
408 106 4
409 106 16
410 106 9
411 106 35
412 106 85
413 106 184
414 106 22
415 106 37
416 106 63
418 106 6
419 106 61
420 106 10
421 106 21
422 106 15
423 106 3
424 106 24
425 106 69
426 106 43
427 106 33
428 106 40
429 106 28
430 106 33
431 106 35
432 106 31
433 106 21
434 106 22
436 106 16
437 106 30
438 106 14
439 106 15
440 106 46
441 106 10
442 106 36
443 106 10
444 106 44
445 106 22
446 106 11
447 106 8
448 106 10
449 106 21
450 106 36
451 106 23
452 106 20
453 106 31
454 106 59
455 106 64
456 106 15
457 106 4
458 106 63
459 106 25
460 106 13
461 106 21
462 106 12
463 106 13
464 106 6
465 106 25
466 106 74
467 106 60
468 106 29
469 106 76
470 106 47
471 106 4
472 106 13
473 106 35
474 106 64
475 106 57
476 106 36
477 106 9
478 106 44
479 106 15
480 106 23
481 106 2
482 106 26
483 106 4
484 106 34
485 106 38
486 106 27
487 106 10
488 106 40
489 106 9
490 106 12
491 106 36
492 106 56
493 106 10
494 106 48
495 106 49
496 106 48
497 106 13
498 106 21
499 106 17
500 106 15
1 107 625
2 107 966
3 107 3000
4 107 680
5 107 636
6 107 2366
7 107 745
8 107 958
9 107 226
10 107 632
11 107 654
12 107 932
13 107 1003
14 107 1008
15 107 1312
16 107 1980
17 107 1919
18 107 842
19 107 1516
20 107 1127
21 107 880
22 107 1624
23 107 481
24 107 1149
25 107 1470
26 107 2309
27 107 1038
28 107 599
29 107 1048
30 107 750
31 107 1405
32 107 1827
33 107 841
34 107 216
35 107 339
36 107 911
37 107 278
38 107 1222
39 107 1965
40 107 517
41 107 537
42 107 573
43 107 1476
44 107 1054
45 107 1031
46 107 935
47 107 1049
48 107 571
49 107 447
50 107 802
51 107 709
52 107 723
53 107 1159
54 107 1432
55 107 514
56 107 749
57 107 763
58 107 1864
59 107 420
60 107 1924
61 107 1798
62 107 1389
63 107 667
64 107 597
65 107 1310
66 107 1489
67 107 583
68 107 168
69 107 496
70 107 1578
71 107 1273
72 107 785
73 107 1948
74 107 1386
75 107 1656
76 107 1602
77 107 1287
78 107 1335
79 107 1093
80 107 355
81 107 1572
82 107 545
83 107 903
84 107 1770
85 107 1000
86 107 1108
87 107 889
88 107 491
89 107 885
90 107 688
91 107 461
92 107 1920
93 107 677
94 107 1039
95 107 840
96 107 1292
97 107 802
98 107 884
99 107 1118
100 107 478
101 107 1604
102 107 893
103 107 1708
104 107 842
105 107 1194
106 107 348
107 107 1239
108 107 2431
109 107 1176
110 107 1624
111 107 1729
112 107 1347
113 107 883
114 107 342
115 107 1411
116 107 883
117 107 902
118 107 745
119 107 422
120 107 418
121 107 947
122 107 699
123 107 1254
124 107 2407
125 107 3018
126 107 438
127 107 381
128 107 833
129 107 426
130 107 481
131 107 1556
132 107 637
133 107 1224
134 107 614
135 107 584
136 107 275
137 107 1996
138 107 523
139 107 1064
140 107 859
141 107 877
142 107 616
143 107 925
144 107 985
145 107 813
146 107 938
147 107 860
148 107 598
149 107 1102
150 107 3150
151 107 686
152 107 997
153 107 1064
154 107 1106
155 107 1298
156 107 623
157 107 774
158 107 1157
159 107 797
160 107 231
161 107 1488
162 107 801
163 107 1058
164 107 648
165 107 849
166 107 1784
167 107 827
168 107 500
169 107 976
170 107 1419
171 107 895
172 107 634
173 107 1941
174 107 1145
175 107 1734
176 107 1051
177 107 2400
178 107 2381
179 107 2566
180 107 1155
181 107 837
182 107 544
183 107 1418
184 107 717
185 107 1533
186 107 794
187 107 626
188 107 292
189 107 401
190 107 647
191 107 783
192 107 1584
193 107 891
194 107 975
195 107 913
196 107 805
197 107 429
198 107 413
199 107 532
200 107 2406
201 107 626
202 107 228
203 107 637
204 107 1767
205 107 634
206 107 1739
207 107 766
208 107 303
209 107 809
210 107 1545
211 107 1544
212 107 1251
213 107 994
214 107 1280
215 107 1565
216 107 659
217 107 471
218 107 973
219 107 1236
220 107 2221
221 107 438
222 107 1418
223 107 858
224 107 701
225 107 1900
226 107 1439
227 107 2371
228 107 542
229 107 585
230 107 941
231 107 930
232 107 1064
233 107 816
234 107 667
235 107 550
236 107 882
237 107 1766
238 107 813
239 107 1111
240 107 958
241 107 1542
242 107 547
243 107 1118
244 107 660
245 107 1346
246 107 501
247 107 917
248 107 464
249 107 1295
250 107 184
251 107 1501
252 107 1217
253 107 803
254 107 502
255 107 724
256 107 1329
257 107 334
258 107 1409
259 107 476
260 107 2278
261 107 1075
262 107 752
263 107 1291
264 107 1226
265 107 496
266 107 1438
267 107 1097
268 107 1477
269 107 457
270 107 443
271 107 584
272 107 1153
273 107 999
274 107 881
275 107 749
276 107 614
277 107 821
278 107 253
279 107 815
280 107 721
281 107 1251
282 107 1523
283 107 1063
284 107 1415
285 107 1013
286 107 1499
287 107 433
288 107 596
289 107 840
290 107 1691
291 107 1074
292 107 1463
293 107 896
294 107 946
295 107 1227
296 107 1727
297 107 1128
298 107 1647
299 107 485
300 107 794
301 107 1521
302 107 932
303 107 361
304 107 1244
305 107 1071
306 107 2258
307 107 1080
308 107 662
309 107 822
310 107 1203
311 107 1424
312 107 1096
313 107 145
314 107 1417
315 107 1124
316 107 1272
317 107 635
318 107 831
319 107 487
320 107 1052
321 107 1310
322 107 550
323 107 930
324 107 1711
325 107 676
326 107 888
327 107 1676
328 107 640
329 107 937
330 107 774
331 107 526
332 107 818
333 107 427
334 107 352
335 107 1315
336 107 795
337 107 1576
338 107 1244
339 107 1320
340 107 808
341 107 1150
342 107 1498
343 107 900
344 107 899
345 107 613
346 107 1001
347 107 2576
348 107 711
349 107 481
350 107 994
351 107 618
352 107 343
353 107 547
354 107 638
355 107 2438
356 107 631
357 107 634
358 107 1689
359 107 1133
360 107 1598
361 107 898
362 107 1448
363 107 2954
364 107 466
365 107 1409
366 107 614
367 107 769
368 107 471
369 107 641
370 107 1519
371 107 1631
372 107 1441
373 107 1803
374 107 759
375 107 2211
376 107 1350
377 107 1071
378 107 548
379 107 1393
380 107 2273
381 107 1213
382 107 1403
383 107 575
384 107 1050
385 107 1639
386 107 2468
387 107 454
388 107 768
389 107 3095
390 107 1042
391 107 475
392 107 586
393 107 1667
394 107 633
395 107 2262
396 107 1335
397 107 747
398 107 1283
399 107 955
400 107 1518
401 107 587
402 107 879
403 107 538
404 107 1337
405 107 569
406 107 498
407 107 1244
408 107 1657
409 107 915
410 107 967
411 107 2304
412 107 577
413 107 1570
414 107 1958
415 107 1686
416 107 750
417 107 867
418 107 1382
419 107 1093
420 107 303
421 107 1850
422 107 497
423 107 845
424 107 367
425 107 473
426 107 2392
427 107 1040
428 107 572
429 107 772
430 107 1583
431 107 978
432 107 1778
433 107 1815
434 107 966
435 107 1393
436 107 726
437 107 1509
438 107 1227
439 107 898
440 107 461
441 107 1155
442 107 317
443 107 350
444 107 937
445 107 849
446 107 2334
447 107 1709
448 107 634
449 107 621
450 107 432
451 107 318
452 107 873
453 107 1908
454 107 681
455 107 647
456 107 303
457 107 1718
458 107 2029
459 107 562
460 107 1156
461 107 544
462 107 818
463 107 734
464 107 873
465 107 1752
466 107 418
467 107 1950
468 107 982
469 107 1820
470 107 464
471 107 1432
472 107 1558
473 107 1554
474 107 541
475 107 1375
476 107 1016
477 107 352
478 107 869
479 107 460
480 107 310
481 107 2304
482 107 1070
483 107 774
484 107 439
485 107 1571
486 107 1436
487 107 983
488 107 791
489 107 421
490 107 1479
491 107 443
492 107 991
493 107 487
494 107 1440
495 107 1320
496 107 834
497 107 573
498 107 633
499 107 927
500 107 1106
1 108 491
2 108 791
3 108 243
4 108 463
5 108 864
6 108 527
7 108 823
8 108 152
9 108 671
10 108 23
11 108 884
12 108 367
13 108 454
14 108 162
15 108 546
16 108 315
17 108 131
18 108 365
19 108 835
20 108 359
21 108 221
22 108 392
23 108 282
24 108 334
25 108 513
26 108 435
27 108 278
28 108 458
29 108 909
30 108 62
31 108 604
32 108 533
33 108 1203
34 108 653
35 108 263
36 108 106
37 108 343
38 108 118
39 108 434
40 108 468
41 108 229
42 108 499
43 108 529
44 108 209
45 108 663
46 108 184
47 108 304
48 108 216
49 108 322
50 108 1159
51 108 837
52 108 288
53 108 994
54 108 293
55 108 458
56 108 388
57 108 115
58 108 480
59 108 296
60 108 277
61 108 229
62 108 820
63 108 778
64 108 988
65 108 268
66 108 727
67 108 371
68 108 274
69 108 1044
70 108 339
71 108 70
72 108 355
73 108 973
74 108 566
75 108 162
76 108 827
77 108 126
78 108 260
79 108 122
80 108 264
81 108 436
82 108 189
83 108 498
84 108 585
85 108 218
86 108 79
87 108 489
88 108 490
89 108 250
90 108 215
91 108 63
92 108 573
93 108 81
94 108 485
95 108 504
96 108 257
97 108 144
98 108 179
99 108 542
100 108 215
101 108 404
102 108 224
103 108 286
104 108 763
105 108 68
106 108 126
107 108 1556
108 108 242
109 108 599
110 108 241
111 108 204
112 108 384
113 108 247
114 108 211
115 108 336
116 108 907
117 108 681
118 108 648
119 108 495
120 108 190
121 108 531
122 108 190
123 108 885
124 108 565
125 108 273
126 108 203
127 108 361
128 108 181
129 108 914
130 108 1060
131 108 135
132 108 329
133 108 460
134 108 138
135 108 78
136 108 430
137 108 243
138 108 545
139 108 640
140 108 689
141 108 78
142 108 369
143 108 358
144 108 503
145 108 372
146 108 500
147 108 574
148 108 1347
149 108 230
150 108 390
151 108 232
152 108 460
153 108 412
154 108 327
155 108 765
156 108 364
157 108 674
158 108 197
159 108 157
160 108 293
161 108 640
162 108 437
163 108 587
164 108 536
165 108 253
166 108 818
167 108 247
168 108 254
169 108 149
170 108 392
171 108 120
172 108 134
173 108 498
174 108 845
175 108 176
176 108 456
177 108 574
178 108 388
179 108 352
180 108 969
181 108 348
182 108 553
183 108 569
184 108 375
185 108 134
186 108 152
187 108 308
188 108 489
189 108 512
190 108 801
191 108 690
192 108 327
193 108 636
194 108 284
195 108 597
196 108 140
197 108 157
198 108 582
199 108 1003
200 108 304
201 108 184
202 108 771
203 108 517
204 108 793
205 108 584
206 108 118
207 108 215
208 108 231
209 108 709
210 108 310
211 108 117
212 108 660
213 108 385
214 108 1267
215 108 348
216 108 186
217 108 410
218 108 158
219 108 802
220 108 118
221 108 68
222 108 296
223 108 642
224 108 545
225 108 155
226 108 147
227 108 572
228 108 262
229 108 495
230 108 570
231 108 131
232 108 202
233 108 710
234 108 117
235 108 186
236 108 317
237 108 247
238 108 169
239 108 503
240 108 161
241 108 559
242 108 181
243 108 76
244 108 174
245 108 365
246 108 689
247 108 1014
248 108 620
249 108 654
250 108 158
251 108 281
252 108 571
253 108 1654
254 108 197
255 108 340
256 108 957
257 108 346
258 108 136
259 108 563
260 108 1113
261 108 170
262 108 261
263 108 382
264 108 671
265 108 98
266 108 131
267 108 599
268 108 444
269 108 505
270 108 201
271 108 1010
272 108 305
273 108 221
274 108 212
275 108 325
276 108 26
277 108 77
278 108 136
279 108 293
280 108 328
281 108 330
282 108 354
283 108 291
284 108 803
285 108 548
286 108 150
287 108 468
288 108 186
289 108 131
290 108 156
291 108 142
292 108 273
293 108 387
294 108 457
295 108 553
296 108 1061
297 108 300
298 108 667
299 108 1085
300 108 362
301 108 362
302 108 162
303 108 414
304 108 57
305 108 486
306 108 352
307 108 90
308 108 375
309 108 344
310 108 145
311 108 541
312 108 314
313 108 163
314 108 692
315 108 1070
316 108 1308
317 108 297
318 108 136
319 108 180
320 108 534
321 108 588
322 108 144
323 108 448
324 108 305
325 108 357
326 108 98
327 108 643
328 108 156
329 108 225
330 108 226
331 108 159
332 108 827
333 108 225
334 108 142
335 108 183
336 108 525
337 108 142
338 108 95
339 108 229
340 108 651
341 108 670
342 108 554
343 108 548
344 108 528
345 108 230
346 108 197
347 108 320
348 108 540
349 108 235
350 108 317
351 108 143
352 108 436
353 108 581
354 108 70
355 108 1024
356 108 226
357 108 184
358 108 762
359 108 563
360 108 399
361 108 226
362 108 515
363 108 253
364 108 121
365 108 424
366 108 129
367 108 591
368 108 106
369 108 369
370 108 903
371 108 289
372 108 1201
373 108 1134
374 108 342
375 108 705
376 108 351
377 108 985
378 108 467
379 108 561
380 108 1017
381 108 483
382 108 562
383 108 198
384 108 640
385 108 231
386 108 265
387 108 560
388 108 666
389 108 313
390 108 385
391 108 747
392 108 173
393 108 270
394 108 37
395 108 376
396 108 1241
397 108 284
398 108 177
399 108 872
400 108 471
401 108 875
402 108 208
403 108 169
404 108 504
405 108 357
406 108 184
407 108 349
408 108 299
409 108 419
410 108 535
411 108 596
412 108 177
413 108 333
414 108 641
415 108 958
416 108 1580
417 108 458
418 108 1341
419 108 586
420 108 445
421 108 1186
422 108 163
423 108 513
424 108 516
425 108 176
426 108 454
427 108 158
428 108 125
429 108 214
430 108 378
431 108 188
432 108 289
433 108 335
434 108 450
435 108 323
436 108 275
437 108 335
438 108 378
439 108 379
440 108 91
441 108 381
442 108 520
443 108 242
444 108 335
445 108 370
446 108 451
447 108 303
448 108 79
449 108 296
450 108 495
451 108 1251
452 108 240
453 108 682
454 108 365
455 108 285
456 108 401
457 108 1058
458 108 628
459 108 116
460 108 358
461 108 345
462 108 204
463 108 241
464 108 95
465 108 320
466 108 906
467 108 157
468 108 187
469 108 202
470 108 171
471 108 349
472 108 655
473 108 559
474 108 805
475 108 150
476 108 227
477 108 158
478 108 304
479 108 194
480 108 1209
481 108 666
482 108 646
483 108 348
484 108 116
485 108 964
486 108 302
487 108 208
488 108 63
489 108 107
490 108 269
491 108 602
492 108 148
493 108 118
494 108 1193
495 108 782
496 108 470
497 108 406
498 108 496
499 108 99
500 108 717
1 109 847
2 109 1715
3 109 1767
4 109 2521
5 109 2264
6 109 1540
7 109 2077
8 109 2825
9 109 1761
10 109 1088
11 109 1727
12 109 965
13 109 1644
14 109 2843
15 109 1766
16 109 2145
17 109 1907
18 109 1513
19 109 2794
20 109 760
21 109 2978
22 109 2259
23 109 493
24 109 1237
25 109 2244
26 109 2130
27 109 3036
28 109 925
29 109 2189
30 109 1098
31 109 1510
32 109 2336
33 109 1612
34 109 1845
35 109 1377
36 109 1357
37 109 1713
38 109 1354
39 109 2503
40 109 1147
41 109 1476
42 109 1000
43 109 1805
44 109 1824
45 109 1476
46 109 1850
47 109 1994
48 109 1663
49 109 418
50 109 1239
51 109 1355
52 109 2244
53 109 1877
54 109 1408
55 109 724
56 109 2885
57 109 2467
58 109 1993
59 109 595
60 109 1157
61 109 2601
62 109 2241
63 109 1439
64 109 767
65 109 1690
66 109 1507
67 109 656
68 109 1235
69 109 1504
70 109 2209
71 109 719
72 109 1682
73 109 2509
74 109 1397
75 109 1149
76 109 1182
77 109 2008
78 109 1627
79 109 1866
80 109 1664
81 109 1656
82 109 1239
83 109 1180
84 109 1740
85 109 2259
86 109 1690
87 109 2296
88 109 1149
89 109 887
90 109 1547
91 109 1780
92 109 2384
93 109 1405
94 109 2243
95 109 1545
96 109 1651
97 109 1569
98 109 939
99 109 2001
100 109 522
101 109 1653
102 109 2786
103 109 1927
104 109 2591
105 109 2391
106 109 1626
107 109 1293
108 109 2219
109 109 1275
110 109 2843
111 109 1959
112 109 1254
113 109 1550
114 109 1909
115 109 1453
116 109 971
117 109 1811
118 109 978
119 109 2237
120 109 3153
121 109 1008
122 109 1322
123 109 1230
124 109 1547
125 109 1878
126 109 2728
127 109 1837
128 109 941
129 109 1457
130 109 1476
131 109 1500
132 109 1063
133 109 1578
134 109 795
135 109 1172
136 109 1495
137 109 1612
138 109 1299
139 109 1273
140 109 1882
141 109 1138
142 109 676
143 109 1542
144 109 2552
145 109 572
146 109 1799
147 109 794
148 109 639
149 109 799
150 109 2233
151 109 1507
152 109 697
153 109 2794
154 109 2432
155 109 1874
156 109 737
157 109 997
158 109 1466
159 109 1534
160 109 2208
161 109 1821
162 109 1513
163 109 2467
164 109 914
165 109 2866
166 109 1706
167 109 1940
168 109 1920
169 109 2863
170 109 2178
171 109 1383
172 109 580
173 109 3037
174 109 861
175 109 1985
176 109 2279
177 109 1540
178 109 1967
179 109 1918
180 109 2832
181 109 596
182 109 924
183 109 2555
184 109 1190
185 109 1845
186 109 1785
187 109 846
188 109 1579
189 109 1085
190 109 1757
191 109 1765
192 109 2378
193 109 1791
194 109 758
195 109 2809
196 109 2028
197 109 1290
198 109 2737
199 109 837
200 109 1555
201 109 336
202 109 1803
203 109 998
204 109 1612
205 109 361
206 109 1888
207 109 2009
208 109 2235
209 109 1498
210 109 3237
211 109 1480
212 109 2780
213 109 929
214 109 1544
215 109 1395
216 109 1495
217 109 1064
218 109 1502
219 109 2160
220 109 1479
221 109 1878
222 109 1481
223 109 1796
224 109 3476
225 109 3201
226 109 2147
227 109 1529
228 109 1796
229 109 2477
230 109 2407
231 109 590
232 109 1125
233 109 2035
234 109 2240
235 109 1513
236 109 1714
237 109 1474
238 109 2021
239 109 1974
240 109 1434
241 109 2190
242 109 1213
243 109 1143
244 109 886
245 109 2847
246 109 760
247 109 1923
248 109 1691
249 109 1742
250 109 1012
251 109 1446
252 109 799
253 109 1388
254 109 1107
255 109 1256
256 109 1171
257 109 1756
258 109 2102
259 109 1169
260 109 2261
261 109 1466
262 109 1398
263 109 1981
264 109 3838
265 109 1653
266 109 2316
267 109 1709
268 109 1849
269 109 1201
270 109 1619
271 109 677
272 109 3977
273 109 1281
274 109 963
275 109 1702
276 109 1054
277 109 1129
278 109 1933
279 109 1446
280 109 2084
281 109 1864
282 109 1599
283 109 843
284 109 2148
285 109 988
286 109 2247
287 109 1109
288 109 1541
289 109 717
290 109 1140
291 109 1499
292 109 1437
293 109 1014
294 109 1057
295 109 1180
296 109 2041
297 109 3854
298 109 1627
299 109 1418
300 109 1385
301 109 1515
302 109 1368
303 109 1732
304 109 1136
305 109 1686
306 109 1168
307 109 1493
308 109 1653
309 109 1462
310 109 2343
311 109 1424
312 109 2967
313 109 1292
314 109 2288
315 109 2400
316 109 1495
317 109 843
318 109 1451
319 109 751
320 109 1694
321 109 1516
322 109 3554
323 109 1876
324 109 1679
325 109 1636
326 109 1484
327 109 2791
328 109 762
329 109 3209
330 109 2047
331 109 341
332 109 1804
333 109 1190
334 109 1654
335 109 1615
336 109 1513
337 109 1493
338 109 2203
339 109 2306
340 109 1512
341 109 1974
342 109 2153
343 109 2851
344 109 1181
345 109 1386
346 109 2686
347 109 2259
348 109 3472
349 109 637
350 109 1979
351 109 757
352 109 1149
353 109 907
354 109 2156
355 109 2112
356 109 1810
357 109 1837
358 109 1318
359 109 1277
360 109 1533
361 109 925
362 109 1883
363 109 1991
364 109 1587
365 109 1386
366 109 1525
367 109 1264
368 109 1686
369 109 831
370 109 2406
371 109 3068
372 109 2162
373 109 2214
374 109 1675
375 109 1493
376 109 1290
377 109 2783
378 109 744
379 109 1811
380 109 2173
381 109 1558
382 109 1729
383 109 1705
384 109 1464
385 109 1467
386 109 1583
387 109 1716
388 109 1106
389 109 2550
390 109 2219
391 109 2265
392 109 1442
393 109 2910
394 109 1073
395 109 1114
396 109 1443
397 109 2286
398 109 2031
399 109 2525
400 109 1169
401 109 3514
402 109 1365
403 109 2519
404 109 1444
405 109 802
406 109 858
407 109 1660
408 109 1641
409 109 2088
410 109 1349
411 109 943
412 109 2636
413 109 1526
414 109 1644
415 109 1238
416 109 1348
417 109 898
418 109 2655
419 109 1622
420 109 1534
421 109 3177
422 109 841
423 109 1557
424 109 1738
425 109 1605
426 109 1211
427 109 2241
428 109 781
429 109 1950
430 109 2248
431 109 2276
432 109 871
433 109 2834
434 109 1090
435 109 1777
436 109 1452
437 109 1365
438 109 1958
439 109 1424
440 109 756
441 109 1705
442 109 1001
443 109 1349
444 109 2138
445 109 613
446 109 2198
447 109 1547
448 109 1418
449 109 1051
450 109 1100
451 109 2017
452 109 346
453 109 1457
454 109 1277
455 109 2608
456 109 1379
457 109 2138
458 109 4029
459 109 1570
460 109 796
461 109 1527
462 109 2952
463 109 2903
464 109 1529
465 109 1494
466 109 1397
467 109 3310
468 109 1252
469 109 2635
470 109 1171
471 109 1152
472 109 1626
473 109 1465
474 109 1302
475 109 2117
476 109 1852
477 109 445
478 109 1444
479 109 909
480 109 2048
481 109 2468
482 109 1473
483 109 364
484 109 398
485 109 1073
486 109 1631
487 109 912
488 109 1677
489 109 1535
490 109 1505
491 109 2745
492 109 2930
493 109 1642
494 109 2106
495 109 1788
496 109 955
497 109 630
498 109 854
499 109 2177
500 109 2867
1 110 919
2 110 1929
3 110 2335
4 110 1664
5 110 2190
6 110 1476
7 110 1896
8 110 1905
9 110 1435
10 110 2385
11 110 720
12 110 978
13 110 1479
14 110 1909
15 110 2595
16 110 2104
17 110 1204
18 110 1241
19 110 2254
20 110 2778
21 110 1540
22 110 2816
23 110 1411
24 110 1216
25 110 1754
26 110 2038
27 110 1741
28 110 830
29 110 2213
30 110 499
31 110 1877
32 110 550
33 110 1832
34 110 1486
35 110 886
36 110 2045
37 110 1946
38 110 1224
39 110 1520
40 110 1671
41 110 3356
42 110 2201
43 110 1774
44 110 1000
45 110 1735
46 110 1421
47 110 2936
48 110 1848
49 110 1485
50 110 2409
51 110 1325
52 110 2042
53 110 1849
54 110 1322
55 110 1779
56 110 3373
57 110 1962
58 110 3910
59 110 1058
60 110 1214
61 110 2574
62 110 3207
63 110 2120
64 110 1724
65 110 2519
66 110 1782
67 110 781
68 110 1934
69 110 2469
70 110 2866
71 110 629
72 110 1293
73 110 1732
74 110 769
75 110 1685
76 110 2427
77 110 1179
78 110 1171
79 110 2517
80 110 1972
81 110 1170
82 110 1469
83 110 2218
84 110 2876
85 110 1686
86 110 1341
87 110 2026
88 110 365
89 110 1479
90 110 2264
91 110 959
92 110 546
93 110 1301
94 110 1260
95 110 2600
96 110 2560
97 110 1646
98 110 1709
99 110 2117
100 110 756
101 110 1178
102 110 3674
103 110 2216
104 110 2582
105 110 1842
106 110 2084
107 110 1848
108 110 2174
109 110 1121
110 110 2475
111 110 2622
112 110 1215
113 110 1757
114 110 2173
115 110 1938
116 110 2228
117 110 1260
118 110 1080
119 110 1896
120 110 2803
121 110 1527
122 110 1011
123 110 2333
124 110 1467
125 110 2395
126 110 2142
127 110 1483
128 110 1693
129 110 1589
130 110 2613
131 110 1803
132 110 1011
133 110 2439
134 110 1771
135 110 1982
136 110 1308
137 110 943
138 110 754
139 110 924
140 110 1178
141 110 2315
142 110 815
143 110 3690
144 110 2384
145 110 1096
146 110 2438
147 110 1132
148 110 1154
149 110 625
150 110 2225
151 110 3320
152 110 633
153 110 3225
154 110 949
155 110 1721
156 110 1874
157 110 1914
158 110 1899
159 110 1598
160 110 1907
161 110 2357
162 110 1302
163 110 1435
164 110 2264
165 110 2105
166 110 1962
167 110 815
168 110 1190
169 110 1953
170 110 3037
171 110 1957
172 110 1641
173 110 4046
174 110 2599
175 110 2784
176 110 906
177 110 1430
178 110 2236
179 110 2079
180 110 1650
181 110 1134
182 110 690
183 110 2933
184 110 1760
185 110 1673
186 110 2672
187 110 1864
188 110 1272
189 110 1490
190 110 1107
191 110 2700
192 110 2860
193 110 1159
194 110 1038
195 110 771
196 110 2871
197 110 1475
198 110 776
199 110 1470
200 110 1445
201 110 1077
202 110 2022
203 110 1602
204 110 1909
205 110 1693
206 110 1494
207 110 2829
208 110 1041
209 110 2178
210 110 2292
211 110 1914
212 110 1932
213 110 912
214 110 1650
215 110 1605
216 110 2152
217 110 1009
218 110 2065
219 110 4049
220 110 1265
221 110 955
222 110 822
223 110 1197
224 110 1680
225 110 2775
226 110 1171
227 110 1428
228 110 1948
229 110 2297
230 110 1778
231 110 2297
232 110 1342
233 110 1012
234 110 2189
235 110 1806
236 110 1391
237 110 3105
238 110 2811
239 110 2135
240 110 1029
241 110 2522
242 110 2233
243 110 782
244 110 1573
245 110 2588
246 110 551
247 110 723
248 110 1453
249 110 1331
250 110 1394
251 110 849
252 110 1648
253 110 1052
254 110 710
255 110 1389
256 110 2343
257 110 1494
258 110 1186
259 110 2194
260 110 2065
261 110 1222
262 110 1458
263 110 1400
264 110 1531
265 110 1806
266 110 1263
267 110 3451
268 110 2037
269 110 419
270 110 1419
271 110 1795
272 110 1338
273 110 1641
274 110 1684
275 110 930
276 110 2429
277 110 2335
278 110 2535
279 110 1815
280 110 2597
281 110 1852
282 110 2095
283 110 1738
284 110 3225
285 110 1475
286 110 1327
287 110 801
288 110 1832
289 110 1369
290 110 1770
291 110 1213
292 110 1331
293 110 984
294 110 1296
295 110 2483
296 110 3108
297 110 1402
298 110 2388
299 110 2557
300 110 1536
301 110 1644
302 110 1019
303 110 1720
304 110 1058
305 110 1494
306 110 2498
307 110 1655
308 110 1491
309 110 1762
310 110 2090
311 110 1906
312 110 1804
313 110 2064
314 110 1628
315 110 2537
316 110 1576
317 110 1939
318 110 1232
319 110 1231
320 110 2743
321 110 1893
322 110 2247
323 110 2420
324 110 2202
325 110 1480
326 110 2523
327 110 1555
328 110 1467
329 110 1560
330 110 1672
331 110 1031
332 110 1467
333 110 1261
334 110 2085
335 110 1689
336 110 2691
337 110 2073
338 110 1140
339 110 725
340 110 2252
341 110 2190
342 110 1681
343 110 769
344 110 2256
345 110 2170
346 110 2370
347 110 1993
348 110 1709
349 110 1114
350 110 2964
351 110 1480
352 110 1565
353 110 709
354 110 3324
355 110 2793
356 110 865
357 110 1075
358 110 2552
359 110 2226
360 110 1586
361 110 1283
362 110 1772
363 110 2454
364 110 1687
365 110 2293
366 110 1906
367 110 1305
368 110 1850
369 110 1916
370 110 2167
371 110 1999
372 110 1745
373 110 3131
374 110 920
375 110 2058
376 110 1704
377 110 1629
378 110 1791
379 110 2193
380 110 992
381 110 3010
382 110 2223
383 110 1934
384 110 1648
385 110 892
386 110 1459
387 110 1453
388 110 1914
389 110 2505
390 110 1497
391 110 5040
392 110 2109
393 110 2477
394 110 2341
395 110 2504
396 110 1609
397 110 2063
398 110 2376
399 110 2023
400 110 1440
401 110 1164
402 110 1882
403 110 2130
404 110 2246
405 110 891
406 110 1006
407 110 2379
408 110 2186
409 110 2287
410 110 2180
411 110 1767
412 110 2190
413 110 2154
414 110 1331
415 110 912
416 110 1011
417 110 1358
418 110 2738
419 110 799
420 110 1301
421 110 3024
422 110 1339
423 110 2689
424 110 990
425 110 1424
426 110 2127
427 110 1666
428 110 1794
429 110 2757
430 110 2826
431 110 1719
432 110 1524
433 110 1603
434 110 3263
435 110 1246
436 110 1479
437 110 1848
438 110 1388
439 110 1903
440 110 847
441 110 1490
442 110 1839
443 110 896
444 110 1600
445 110 1157
446 110 1985
447 110 2236
448 110 1305
449 110 1012
450 110 867
451 110 1708
452 110 1125
453 110 2252
454 110 1521
455 110 2856
456 110 1482
457 110 3038
458 110 1156
459 110 2028
460 110 2713
461 110 2881
462 110 1045
463 110 1592
464 110 2513
465 110 1678
466 110 1597
467 110 2784
468 110 1342
469 110 2482
470 110 638
471 110 2016
472 110 2275
473 110 3720
474 110 1788
475 110 1177
476 110 3667
477 110 686
478 110 1212
479 110 939
480 110 1877
481 110 1797
482 110 1739
483 110 427
484 110 981
485 110 2375
486 110 2217
487 110 766
488 110 1228
489 110 679
490 110 1322
491 110 803
492 110 1955
493 110 1679
494 110 1701
495 110 1803
496 110 689
497 110 791
498 110 905
499 110 1233
500 110 2108
