%%MatrixMarket matrix coordinate integer general
500 110 41764
1 1 7246
2 1 6307
3 1 5711
4 1 6004
5 1 3497
6 1 4841
7 1 4651
8 1 5886
9 1 4785
10 1 5784
11 1 6191
12 1 5624
13 1 8420
14 1 5962
15 1 6252
16 1 3406
17 1 4043
18 1 4410
19 1 3988
20 1 5078
21 1 6757
22 1 4455
23 1 3694
24 1 5469
25 1 6589
26 1 5355
27 1 3818
28 1 7443
29 1 5269
30 1 8055
31 1 8778
32 1 7236
33 1 5120
34 1 5765
35 1 8472
36 1 5808
37 1 8185
38 1 4640
39 1 6191
40 1 6848
41 1 5434
42 1 4310
43 1 7116
44 1 5448
45 1 8778
46 1 7837
47 1 5457
48 1 4833
49 1 5814
50 1 2916
51 1 5400
52 1 2528
53 1 4297
54 1 4323
55 1 6868
56 1 7162
57 1 6529
58 1 5102
59 1 6335
60 1 4317
61 1 5468
62 1 6953
63 1 7748
64 1 5012
65 1 3485
66 1 5745
67 1 8740
68 1 5779
69 1 5859
70 1 5478
71 1 4395
72 1 6889
73 1 7883
74 1 5975
75 1 5062
76 1 3925
77 1 5948
78 1 6251
79 1 11066
80 1 6793
81 1 7732
82 1 4772
83 1 5775
84 1 3337
85 1 7135
86 1 6855
87 1 5365
88 1 6407
89 1 6806
90 1 5371
91 1 5623
92 1 9072
93 1 6510
94 1 4622
95 1 4943
96 1 7264
97 1 5461
98 1 4044
99 1 5171
100 1 5073
101 1 5785
102 1 5246
103 1 8860
104 1 6663
105 1 3798
106 1 7873
107 1 6065
108 1 9213
109 1 4422
110 1 6326
111 1 3786
112 1 6471
113 1 7811
114 1 7695
115 1 6201
116 1 9716
117 1 5553
118 1 4288
119 1 8687
120 1 8150
121 1 3473
122 1 6226
123 1 7219
124 1 11683
125 1 5456
126 1 9846
127 1 5067
128 1 8510
129 1 6378
130 1 7690
131 1 7316
132 1 7479
133 1 2618
134 1 5753
135 1 6992
136 1 9465
137 1 3850
138 1 6484
139 1 5604
140 1 4240
141 1 5852
142 1 3718
143 1 4747
144 1 4772
145 1 8019
146 1 4051
147 1 8332
148 1 6396
149 1 6664
150 1 4199
151 1 7382
152 1 7910
153 1 2575
154 1 9223
155 1 6025
156 1 4728
157 1 5340
158 1 5709
159 1 4900
160 1 4479
161 1 4056
162 1 4318
163 1 7109
164 1 7984
165 1 5871
166 1 9010
167 1 5253
168 1 6818
169 1 4838
170 1 3882
171 1 7734
172 1 8265
173 1 7023
174 1 9057
175 1 6725
176 1 6377
177 1 8352
178 1 6022
179 1 7164
180 1 9289
181 1 5889
182 1 6665
183 1 7777
184 1 5677
185 1 4884
186 1 3546
187 1 5428
188 1 3236
189 1 9673
190 1 3228
191 1 3549
192 1 4813
193 1 6313
194 1 5836
195 1 8326
196 1 7981
197 1 8381
198 1 5946
199 1 7393
200 1 5405
201 1 8123
202 1 5171
203 1 6614
204 1 5660
205 1 7006
206 1 3497
207 1 4498
208 1 8696
209 1 3462
210 1 3358
211 1 6382
212 1 2285
213 1 3886
214 1 4963
215 1 8154
216 1 5784
217 1 5174
218 1 4777
219 1 6345
220 1 5380
221 1 8205
222 1 3411
223 1 12873
224 1 3692
225 1 8788
226 1 4019
227 1 4919
228 1 6139
229 1 4082
230 1 9923
231 1 4894
232 1 4786
233 1 5347
234 1 5091
235 1 6556
236 1 7167
237 1 5438
238 1 5058
239 1 5330
240 1 7138
241 1 7046
242 1 6050
243 1 5845
244 1 3464
245 1 7592
246 1 3137
247 1 9041
248 1 7634
249 1 4543
250 1 3058
251 1 8733
252 1 7659
253 1 4535
254 1 5939
255 1 6336
256 1 5664
257 1 4565
258 1 5581
259 1 7066
260 1 6023
261 1 2883
262 1 9035
263 1 3188
264 1 5672
265 1 6007
266 1 4696
267 1 5567
268 1 5441
269 1 5573
270 1 3379
271 1 6677
272 1 8755
273 1 6971
274 1 6319
275 1 7751
276 1 6187
277 1 5598
278 1 6088
279 1 2195
280 1 6439
281 1 11002
282 1 6730
283 1 6318
284 1 4960
285 1 5109
286 1 3947
287 1 13237
288 1 6181
289 1 5728
290 1 4791
291 1 10122
292 1 2697
293 1 5690
294 1 3790
295 1 5197
296 1 6968
297 1 4226
298 1 9542
299 1 3959
300 1 6438
301 1 4734
302 1 7312
303 1 5794
304 1 4603
305 1 5294
306 1 6893
307 1 9585
308 1 4410
309 1 6277
310 1 9536
311 1 5299
312 1 5737
313 1 7796
314 1 6053
315 1 6257
316 1 6606
317 1 6268
318 1 3063
319 1 10620
320 1 7855
321 1 4889
322 1 2041
323 1 9449
324 1 3248
325 1 4353
326 1 3223
327 1 10115
328 1 2938
329 1 6963
330 1 5683
331 1 6316
332 1 7369
333 1 5633
334 1 4119
335 1 4367
336 1 6927
337 1 6154
338 1 8038
339 1 4320
340 1 5456
341 1 4937
342 1 5938
343 1 5719
344 1 9943
345 1 3881
346 1 4959
347 1 6031
348 1 5895
349 1 10599
350 1 4208
351 1 9133
352 1 7224
353 1 5777
354 1 3327
355 1 7218
356 1 4734
357 1 7353
358 1 3438
359 1 3398
360 1 6838
361 1 9204
362 1 7435
363 1 3023
364 1 5316
365 1 4256
366 1 4410
367 1 3352
368 1 8261
369 1 6730
370 1 3359
371 1 12508
372 1 8148
373 1 4868
374 1 8342
375 1 6568
376 1 8524
377 1 5841
378 1 4533
379 1 4920
380 1 6170
381 1 7863
382 1 6509
383 1 7448
384 1 7904
385 1 8664
386 1 7391
387 1 9019
388 1 4379
389 1 9003
390 1 6037
391 1 6330
392 1 3094
393 1 9748
394 1 3219
395 1 6381
396 1 1968
397 1 9284
398 1 4821
399 1 12286
400 1 4943
401 1 6069
402 1 7846
403 1 3486
404 1 6875
405 1 4681
406 1 7436
407 1 4410
408 1 6720
409 1 6560
410 1 4636
411 1 4732
412 1 6364
413 1 6314
414 1 5264
415 1 6884
416 1 9061
417 1 6872
418 1 9096
419 1 7062
420 1 6708
421 1 5908
422 1 7876
423 1 6896
424 1 2606
425 1 4047
426 1 8689
427 1 4618
428 1 4700
429 1 4675
430 1 11184
431 1 8211
432 1 5493
433 1 6923
434 1 5446
435 1 6165
436 1 4808
437 1 6825
438 1 6192
439 1 9324
440 1 5412
441 1 5744
442 1 1988
443 1 7136
444 1 8473
445 1 3989
446 1 4964
447 1 7840
448 1 6584
449 1 9165
450 1 3894
451 1 5107
452 1 6788
453 1 5209
454 1 5608
455 1 9010
456 1 5294
457 1 6287
458 1 4837
459 1 4841
460 1 10180
461 1 4631
462 1 11057
463 1 10631
464 1 7131
465 1 5292
466 1 4998
467 1 4808
468 1 7446
469 1 6680
470 1 11130
471 1 10373
472 1 4714
473 1 6687
474 1 10130
475 1 13987
476 1 8073
477 1 11206
478 1 6731
479 1 5299
480 1 8031
481 1 7721
482 1 3204
483 1 4542
484 1 3897
485 1 4415
486 1 7070
487 1 6546
488 1 8020
489 1 9376
490 1 5316
491 1 4605
492 1 8903
493 1 5687
494 1 3758
495 1 6170
496 1 5332
497 1 3252
498 1 6103
499 1 8619
500 1 8318
1 2 2678
2 2 3964
3 2 1836
4 2 4116
5 2 1970
6 2 2079
7 2 3548
8 2 3215
9 2 3046
10 2 1960
11 2 4126
12 2 2712
13 2 4259
14 2 3388
15 2 5670
16 2 2765
17 2 1314
18 2 3230
19 2 1470
20 2 2929
21 2 1649
22 2 2630
23 2 1037
24 2 2915
25 2 3223
26 2 1859
27 2 1027
28 2 2757
29 2 3693
30 2 4401
31 2 2450
32 2 2259
33 2 2777
34 2 3507
35 2 2005
36 2 2093
37 2 3209
38 2 1759
39 2 2865
40 2 1848
41 2 2855
42 2 1853
43 2 3686
44 2 2174
45 2 3728
46 2 3375
47 2 3177
48 2 2037
49 2 3113
50 2 1097
51 2 1575
52 2 1313
53 2 3256
54 2 1377
55 2 3204
56 2 2208
57 2 2851
58 2 2359
59 2 3584
60 2 3676
61 2 2526
62 2 3878
63 2 1928
64 2 2665
65 2 1936
66 2 3502
67 2 3815
68 2 2503
69 2 3178
70 2 1951
71 2 2420
72 2 4466
73 2 2762
74 2 2612
75 2 2891
76 2 1983
77 2 2252
78 2 2258
79 2 4586
80 2 3179
81 2 1829
82 2 3733
83 2 2567
84 2 1608
85 2 2585
86 2 3580
87 2 3261
88 2 2690
89 2 2576
90 2 3125
91 2 1937
92 2 2385
93 2 4258
94 2 2452
95 2 2072
96 2 2299
97 2 974
98 2 2358
99 2 2421
100 2 2676
101 2 1930
102 2 2601
103 2 4066
104 2 3824
105 2 1069
106 2 3076
107 2 1493
108 2 2979
109 2 3503
110 2 2044
111 2 2329
112 2 2086
113 2 2498
114 2 2487
115 2 3706
116 2 3640
117 2 1602
118 2 2239
119 2 1987
120 2 3941
121 2 1925
122 2 3272
123 2 3745
124 2 2731
125 2 2500
126 2 3147
127 2 2465
128 2 3975
129 2 2945
130 2 3237
131 2 3604
132 2 2825
133 2 1877
134 2 3333
135 2 2325
136 2 3152
137 2 2569
138 2 3402
139 2 1825
140 2 1748
141 2 4232
142 2 994
143 2 1799
144 2 3172
145 2 3895
146 2 1108
147 2 3365
148 2 1810
149 2 4244
150 2 2310
151 2 1973
152 2 2627
153 2 2015
154 2 2320
155 2 2651
156 2 1952
157 2 2113
158 2 2073
159 2 2456
160 2 2241
161 2 1526
162 2 1721
163 2 2285
164 2 2695
165 2 5195
166 2 2742
167 2 1991
168 2 2120
169 2 2047
170 2 3602
171 2 3672
172 2 5143
173 2 2840
174 2 4066
175 2 1946
176 2 1806
177 2 1769
178 2 3433
179 2 5338
180 2 1303
181 2 2358
182 2 3413
183 2 3732
184 2 3429
185 2 2310
186 2 2070
187 2 2673
188 2 1855
189 2 2091
190 2 1142
191 2 1635
192 2 3195
193 2 2204
194 2 3880
195 2 4649
196 2 2280
197 2 2952
198 2 1230
199 2 2563
200 2 2206
201 2 5033
202 2 1475
203 2 2079
204 2 3694
205 2 3398
206 2 2250
207 2 1492
208 2 3141
209 2 2251
210 2 2204
211 2 2860
212 2 1058
213 2 1508
214 2 3215
215 2 2198
216 2 2509
217 2 1752
218 2 2229
219 2 2763
220 2 3923
221 2 3431
222 2 2603
223 2 2231
224 2 1899
225 2 3145
226 2 1724
227 2 2092
228 2 2392
229 2 3106
230 2 2077
231 2 2312
232 2 1943
233 2 3889
234 2 2633
235 2 1865
236 2 4210
237 2 967
238 2 2829
239 2 1797
240 2 3231
241 2 2274
242 2 3619
243 2 2622
244 2 2056
245 2 2448
246 2 3712
247 2 3286
248 2 1867
249 2 1272
250 2 1882
251 2 1919
252 2 1460
253 2 2889
254 2 3446
255 2 3669
256 2 3875
257 2 2298
258 2 2276
259 2 1259
260 2 2405
261 2 2520
262 2 4982
263 2 953
264 2 2679
265 2 4244
266 2 1932
267 2 1660
268 2 3128
269 2 3137
270 2 1411
271 2 5742
272 2 3072
273 2 3092
274 2 2837
275 2 4769
276 2 2365
277 2 1672
278 2 2702
279 2 2419
280 2 2823
281 2 4214
282 2 1170
283 2 2758
284 2 1625
285 2 2584
286 2 500
287 2 3040
288 2 3746
289 2 2560
290 2 2239
291 2 2654
292 2 1555
293 2 2701
294 2 4749
295 2 3954
296 2 2734
297 2 1393
298 2 3160
299 2 1673
300 2 2615
301 2 2810
302 2 1392
303 2 3138
304 2 1533
305 2 3914
306 2 4142
307 2 3671
308 2 2637
309 2 2299
310 2 3719
311 2 2957
312 2 3196
313 2 1419
314 2 3136
315 2 2347
316 2 2789
317 2 1851
318 2 2225
319 2 2791
320 2 4458
321 2 2070
322 2 1099
323 2 2315
324 2 1011
325 2 2454
326 2 1139
327 2 3678
328 2 1139
329 2 1793
330 2 2172
331 2 3419
332 2 1436
333 2 1630
334 2 2337
335 2 1571
336 2 2101
337 2 2677
338 2 2524
339 2 1886
340 2 2349
341 2 2202
342 2 2993
343 2 1842
344 2 2945
345 2 3030
346 2 2433
347 2 4244
348 2 3411
349 2 4280
350 2 2200
351 2 3523
352 2 1949
353 2 3276
354 2 944
355 2 2606
356 2 1788
357 2 2602
358 2 1582
359 2 2241
360 2 2508
361 2 2161
362 2 3501
363 2 1838
364 2 949
365 2 1709
366 2 1659
367 2 992
368 2 2592
369 2 3543
370 2 1928
371 2 2793
372 2 3773
373 2 1933
374 2 3246
375 2 3924
376 2 3522
377 2 2993
378 2 3176
379 2 2212
380 2 3113
381 2 3058
382 2 2782
383 2 4057
384 2 3531
385 2 3332
386 2 1105
387 2 4433
388 2 1361
389 2 3045
390 2 4165
391 2 3093
392 2 2117
393 2 3024
394 2 2463
395 2 2612
396 2 1116
397 2 3971
398 2 1510
399 2 2573
400 2 1156
401 2 3531
402 2 4731
403 2 2215
404 2 3022
405 2 2517
406 2 3496
407 2 2039
408 2 3615
409 2 2873
410 2 2505
411 2 2402
412 2 1768
413 2 3732
414 2 3514
415 2 3250
416 2 3950
417 2 4086
418 2 4779
419 2 3020
420 2 3119
421 2 2509
422 2 1660
423 2 2108
424 2 1223
425 2 3805
426 2 3000
427 2 2889
428 2 2003
429 2 1653
430 2 4878
431 2 3349
432 2 1538
433 2 2942
434 2 3485
435 2 4627
436 2 2306
437 2 3075
438 2 3734
439 2 5085
440 2 2095
441 2 1736
442 2 1093
443 2 2459
444 2 2900
445 2 3329
446 2 1461
447 2 1858
448 2 2435
449 2 3999
450 2 1587
451 2 2488
452 2 4568
453 2 2365
454 2 2418
455 2 2217
456 2 2116
457 2 2274
458 2 2327
459 2 1750
460 2 2328
461 2 2803
462 2 2294
463 2 2427
464 2 1747
465 2 2085
466 2 1543
467 2 3558
468 2 3041
469 2 2983
470 2 4421
471 2 2630
472 2 2117
473 2 3597
474 2 3215
475 2 2790
476 2 3731
477 2 998
478 2 2807
479 2 2785
480 2 2803
481 2 2307
482 2 1976
483 2 1414
484 2 1674
485 2 2663
486 2 2535
487 2 3083
488 2 1768
489 2 5770
490 2 3616
491 2 2095
492 2 3071
493 2 2719
494 2 1499
495 2 2294
496 2 2401
497 2 2373
498 2 2287
499 2 2191
500 2 5147
1 3 323
2 3 618
3 3 372
4 3 264
5 3 376
6 3 197
7 3 1384
8 3 249
9 3 236
10 3 548
11 3 497
12 3 894
13 3 934
14 3 498
15 3 509
16 3 266
17 3 470
18 3 189
19 3 187
20 3 727
21 3 270
22 3 913
23 3 332
24 3 294
25 3 790
26 3 840
27 3 138
28 3 1492
29 3 157
30 3 631
31 3 327
32 3 421
33 3 322
34 3 1162
35 3 261
36 3 687
37 3 612
38 3 221
39 3 298
40 3 560
41 3 249
42 3 417
43 3 573
44 3 642
45 3 382
46 3 562
47 3 595
48 3 166
49 3 553
50 3 165
51 3 380
52 3 156
53 3 197
54 3 280
55 3 769
56 3 496
57 3 617
58 3 501
59 3 415
60 3 247
61 3 316
62 3 459
63 3 642
64 3 1038
65 3 386
66 3 928
67 3 337
68 3 474
69 3 583
70 3 579
71 3 643
72 3 352
73 3 275
74 3 840
75 3 420
76 3 444
77 3 638
78 3 355
79 3 1337
80 3 283
81 3 879
82 3 329
83 3 183
84 3 420
85 3 262
86 3 495
87 3 472
88 3 159
89 3 488
90 3 420
91 3 836
92 3 442
93 3 414
94 3 217
95 3 200
96 3 376
97 3 504
98 3 297
99 3 379
100 3 881
101 3 562
102 3 546
103 3 812
104 3 439
105 3 131
106 3 213
107 3 598
108 3 557
109 3 403
110 3 465
111 3 167
112 3 395
113 3 809
114 3 592
115 3 744
116 3 714
117 3 273
118 3 371
119 3 751
120 3 716
121 3 654
122 3 492
123 3 538
124 3 202
125 3 389
126 3 318
127 3 265
128 3 437
129 3 687
130 3 712
131 3 424
132 3 1445
133 3 507
134 3 768
135 3 1077
136 3 493
137 3 273
138 3 221
139 3 378
140 3 263
141 3 452
142 3 133
143 3 220
144 3 642
145 3 300
146 3 835
147 3 506
148 3 619
149 3 369
150 3 289
151 3 846
152 3 540
153 3 517
154 3 554
155 3 201
156 3 355
157 3 285
158 3 313
159 3 538
160 3 356
161 3 435
162 3 249
163 3 295
164 3 564
165 3 888
166 3 414
167 3 569
168 3 736
169 3 237
170 3 470
171 3 985
172 3 659
173 3 525
174 3 757
175 3 531
176 3 154
177 3 1039
178 3 884
179 3 926
180 3 503
181 3 458
182 3 585
183 3 637
184 3 878
185 3 265
186 3 597
187 3 669
188 3 457
189 3 415
190 3 137
191 3 81
192 3 334
193 3 380
194 3 563
195 3 335
196 3 1118
197 3 690
198 3 328
199 3 655
200 3 539
201 3 649
202 3 282
203 3 489
204 3 406
205 3 395
206 3 306
207 3 311
208 3 306
209 3 305
210 3 336
211 3 317
212 3 272
213 3 270
214 3 659
215 3 828
216 3 314
217 3 289
218 3 270
219 3 662
220 3 352
221 3 556
222 3 605
223 3 226
224 3 803
225 3 761
226 3 203
227 3 216
228 3 496
229 3 648
230 3 552
231 3 296
232 3 819
233 3 616
234 3 287
235 3 292
236 3 496
237 3 161
238 3 245
239 3 356
240 3 344
241 3 1042
242 3 664
243 3 248
244 3 434
245 3 195
246 3 510
247 3 488
248 3 330
249 3 287
250 3 928
251 3 1041
252 3 426
253 3 970
254 3 243
255 3 883
256 3 609
257 3 654
258 3 363
259 3 404
260 3 704
261 3 465
262 3 664
263 3 141
264 3 462
265 3 645
266 3 380
267 3 641
268 3 481
269 3 399
270 3 137
271 3 399
272 3 272
273 3 568
274 3 630
275 3 1263
276 3 471
277 3 312
278 3 342
279 3 570
280 3 177
281 3 506
282 3 217
283 3 195
284 3 259
285 3 504
286 3 431
287 3 221
288 3 709
289 3 327
290 3 580
291 3 637
292 3 308
293 3 343
294 3 398
295 3 704
296 3 255
297 3 275
298 3 459
299 3 701
300 3 547
301 3 417
302 3 376
303 3 464
304 3 299
305 3 588
306 3 926
307 3 337
308 3 445
309 3 1180
310 3 322
311 3 768
312 3 514
313 3 407
314 3 488
315 3 273
316 3 888
317 3 198
318 3 242
319 3 746
320 3 467
321 3 273
322 3 179
323 3 567
324 3 138
325 3 295
326 3 132
327 3 443
328 3 172
329 3 145
330 3 317
331 3 587
332 3 329
333 3 265
334 3 218
335 3 309
336 3 222
337 3 314
338 3 347
339 3 599
340 3 315
341 3 193
342 3 585
343 3 328
344 3 529
345 3 485
346 3 1225
347 3 1057
348 3 785
349 3 789
350 3 342
351 3 255
352 3 828
353 3 1275
354 3 141
355 3 651
356 3 394
357 3 631
358 3 224
359 3 265
360 3 909
361 3 364
362 3 377
363 3 287
364 3 467
365 3 264
366 3 508
367 3 125
368 3 730
369 3 304
370 3 207
371 3 704
372 3 401
373 3 271
374 3 183
375 3 380
376 3 1031
377 3 251
378 3 514
379 3 215
380 3 338
381 3 1491
382 3 623
383 3 1815
384 3 355
385 3 458
386 3 706
387 3 317
388 3 270
389 3 381
390 3 668
391 3 402
392 3 425
393 3 392
394 3 242
395 3 911
396 3 180
397 3 714
398 3 242
399 3 547
400 3 337
401 3 467
402 3 1352
403 3 278
404 3 722
405 3 233
406 3 561
407 3 425
408 3 467
409 3 265
410 3 452
411 3 217
412 3 299
413 3 596
414 3 496
415 3 828
416 3 992
417 3 363
418 3 535
419 3 262
420 3 888
421 3 971
422 3 282
423 3 204
424 3 85
425 3 345
426 3 592
427 3 388
428 3 664
429 3 151
430 3 995
431 3 655
432 3 622
433 3 311
434 3 392
435 3 730
436 3 483
437 3 628
438 3 337
439 3 658
440 3 423
441 3 235
442 3 149
443 3 377
444 3 232
445 3 294
446 3 493
447 3 895
448 3 601
449 3 932
450 3 621
451 3 262
452 3 310
453 3 383
454 3 185
455 3 383
456 3 288
457 3 254
458 3 401
459 3 270
460 3 574
461 3 264
462 3 797
463 3 323
464 3 441
465 3 478
466 3 431
467 3 378
468 3 1256
469 3 644
470 3 997
471 3 791
472 3 766
473 3 330
474 3 333
475 3 801
476 3 552
477 3 237
478 3 582
479 3 216
480 3 280
481 3 224
482 3 656
483 3 266
484 3 553
485 3 300
486 3 472
487 3 462
488 3 291
489 3 411
490 3 495
491 3 568
492 3 576
493 3 399
494 3 195
495 3 771
496 3 236
497 3 543
498 3 737
499 3 647
500 3 1283
1 4 2663
2 4 2135
3 4 2524
4 4 2593
5 4 1684
6 4 1755
7 4 4048
8 4 3622
9 4 2385
10 4 2538
11 4 5868
12 4 3857
13 4 3869
14 4 1624
15 4 4376
16 4 3796
17 4 1524
18 4 2806
19 4 2817
20 4 2721
21 4 1808
22 4 6038
23 4 2333
24 4 3244
25 4 3801
26 4 3609
27 4 590
28 4 4194
29 4 3057
30 4 3754
31 4 2977
32 4 1369
33 4 4231
34 4 3646
35 4 3820
36 4 4026
37 4 3539
38 4 1108
39 4 1284
40 4 4301
41 4 3170
42 4 2441
43 4 3506
44 4 4845
45 4 3137
46 4 2937
47 4 3000
48 4 1760
49 4 5900
50 4 1180
51 4 2247
52 4 1406
53 4 2777
54 4 2711
55 4 2527
56 4 3094
57 4 3217
58 4 4614
59 4 2242
60 4 4371
61 4 1709
62 4 3353
63 4 2586
64 4 4056
65 4 1684
66 4 3622
67 4 4220
68 4 2390
69 4 4059
70 4 2605
71 4 6092
72 4 4782
73 4 3617
74 4 4058
75 4 3047
76 4 1301
77 4 1672
78 4 2201
79 4 4072
80 4 2925
81 4 3110
82 4 3217
83 4 3923
84 4 2446
85 4 4996
86 4 2108
87 4 3265
88 4 3138
89 4 6063
90 4 2450
91 4 3954
92 4 1937
93 4 3981
94 4 3242
95 4 1727
96 4 4032
97 4 3599
98 4 2246
99 4 1906
100 4 5355
101 4 3590
102 4 1948
103 4 3881
104 4 1616
105 4 600
106 4 3253
107 4 3025
108 4 4449
109 4 3053
110 4 5748
111 4 1970
112 4 3585
113 4 6114
114 4 2302
115 4 3923
116 4 5434
117 4 2329
118 4 3574
119 4 2856
120 4 2546
121 4 2164
122 4 2958
123 4 5294
124 4 3760
125 4 2696
126 4 3698
127 4 1788
128 4 2752
129 4 2156
130 4 3519
131 4 3394
132 4 4188
133 4 2251
134 4 5053
135 4 4106
136 4 2293
137 4 2520
138 4 2103
139 4 4100
140 4 924
141 4 2401
142 4 563
143 4 1148
144 4 3420
145 4 6786
146 4 2576
147 4 5628
148 4 3414
149 4 4319
150 4 6044
151 4 3311
152 4 4899
153 4 2074
154 4 4881
155 4 2086
156 4 3573
157 4 1714
158 4 2916
159 4 3694
160 4 2661
161 4 2147
162 4 896
163 4 1545
164 4 5068
165 4 5446
166 4 2814
167 4 2930
168 4 3816
169 4 1748
170 4 2077
171 4 6100
172 4 3217
173 4 2340
174 4 3740
175 4 2382
176 4 2454
177 4 2338
178 4 3969
179 4 4199
180 4 1971
181 4 2353
182 4 3318
183 4 3458
184 4 3581
185 4 6062
186 4 3635
187 4 3185
188 4 2089
189 4 2459
190 4 1646
191 4 3081
192 4 4400
193 4 2262
194 4 2622
195 4 4776
196 4 2743
197 4 5283
198 4 3896
199 4 3367
200 4 3357
201 4 3195
202 4 5182
203 4 3441
204 4 3429
205 4 4878
206 4 3572
207 4 1894
208 4 4763
209 4 3684
210 4 1079
211 4 4317
212 4 746
213 4 2449
214 4 3377
215 4 3117
216 4 3502
217 4 4708
218 4 2660
219 4 2725
220 4 5234
221 4 5702
222 4 2586
223 4 3133
224 4 2476
225 4 4034
226 4 3000
227 4 1880
228 4 3046
229 4 3331
230 4 2911
231 4 1811
232 4 2053
233 4 2421
234 4 3046
235 4 1836
236 4 4181
237 4 987
238 4 2396
239 4 1937
240 4 2264
241 4 3979
242 4 1842
243 4 1845
244 4 2344
245 4 3629
246 4 2399
247 4 1969
248 4 3623
249 4 2270
250 4 1347
251 4 3637
252 4 2217
253 4 1649
254 4 2740
255 4 3914
256 4 2648
257 4 2726
258 4 2790
259 4 2386
260 4 3732
261 4 3090
262 4 3109
263 4 1644
264 4 3592
265 4 5547
266 4 3621
267 4 3078
268 4 3342
269 4 2749
270 4 1532
271 4 2392
272 4 4422
273 4 4149
274 4 2916
275 4 5909
276 4 3088
277 4 2411
278 4 3206
279 4 2941
280 4 3084
281 4 2116
282 4 2066
283 4 3468
284 4 1991
285 4 4386
286 4 2300
287 4 2427
288 4 3839
289 4 3500
290 4 1686
291 4 2669
292 4 2508
293 4 2635
294 4 1639
295 4 4601
296 4 3817
297 4 3117
298 4 3613
299 4 4184
300 4 5565
301 4 2747
302 4 2748
303 4 2935
304 4 1841
305 4 3688
306 4 4540
307 4 2473
308 4 3888
309 4 3942
310 4 3000
311 4 4754
312 4 3358
313 4 2334
314 4 1934
315 4 3861
316 4 1867
317 4 3711
318 4 3243
319 4 2756
320 4 5380
321 4 1266
322 4 1467
323 4 4779
324 4 1681
325 4 3247
326 4 1701
327 4 3639
328 4 1257
329 4 2159
330 4 1301
331 4 3041
332 4 2671
333 4 2345
334 4 2712
335 4 1917
336 4 2338
337 4 4091
338 4 3248
339 4 2446
340 4 3650
341 4 1954
342 4 3345
343 4 4129
344 4 2520
345 4 2453
346 4 5482
347 4 3386
348 4 3737
349 4 5310
350 4 1664
351 4 3606
352 4 3001
353 4 4152
354 4 1664
355 4 3343
356 4 4282
357 4 2752
358 4 1989
359 4 3616
360 4 4106
361 4 3005
362 4 2812
363 4 2669
364 4 3593
365 4 891
366 4 3225
367 4 1725
368 4 2680
369 4 2604
370 4 2093
371 4 5699
372 4 2766
373 4 1991
374 4 2514
375 4 3052
376 4 3236
377 4 2960
378 4 1751
379 4 1814
380 4 2994
381 4 4371
382 4 3774
383 4 3502
384 4 4017
385 4 5717
386 4 3919
387 4 2444
388 4 2728
389 4 4199
390 4 3399
391 4 3719
392 4 4152
393 4 5473
394 4 1833
395 4 4245
396 4 1539
397 4 2491
398 4 2076
399 4 4894
400 4 3294
401 4 4719
402 4 5933
403 4 3617
404 4 2593
405 4 2063
406 4 6369
407 4 3692
408 4 2126
409 4 3560
410 4 2892
411 4 2895
412 4 1901
413 4 4891
414 4 4348
415 4 3607
416 4 4011
417 4 2169
418 4 4231
419 4 1893
420 4 3792
421 4 4950
422 4 2160
423 4 2319
424 4 1055
425 4 4624
426 4 3874
427 4 3077
428 4 3296
429 4 1889
430 4 8675
431 4 4983
432 4 2607
433 4 2802
434 4 4804
435 4 3242
436 4 4096
437 4 2076
438 4 6219
439 4 3060
440 4 3199
441 4 3946
442 4 1460
443 4 3119
444 4 3298
445 4 2490
446 4 2901
447 4 1853
448 4 2071
449 4 3983
450 4 1761
451 4 1735
452 4 3535
453 4 2167
454 4 1506
455 4 4830
456 4 1770
457 4 3227
458 4 1383
459 4 3733
460 4 2558
461 4 2200
462 4 3392
463 4 2834
464 4 2107
465 4 3679
466 4 3475
467 4 1873
468 4 3788
469 4 4267
470 4 4324
471 4 2807
472 4 2130
473 4 2695
474 4 3637
475 4 2597
476 4 2553
477 4 3813
478 4 3519
479 4 1429
480 4 3492
481 4 3481
482 4 1724
483 4 2646
484 4 1667
485 4 5086
486 4 4198
487 4 4160
488 4 4609
489 4 5954
490 4 3734
491 4 3391
492 4 2747
493 4 2737
494 4 1829
495 4 2875
496 4 2285
497 4 3161
498 4 4394
499 4 5405
500 4 4358
1 5 682
2 5 165
3 5 2008
4 5 5
5 5 1493
7 5 2298
8 5 1678
9 5 2170
10 5 2189
11 5 1349
12 5 2175
13 5 147
14 5 1063
15 5 35
16 5 2568
17 5 8
18 5 8
19 5 1570
20 5 1471
21 5 1395
22 5 4
24 5 1544
25 5 377
26 5 2705
28 5 4
29 5 758
30 5 26
31 5 112
32 5 1443
33 5 2045
35 5 84
36 5 104
37 5 6
39 5 94
40 5 1079
41 5 1572
42 5 677
43 5 1075
44 5 1308
45 5 47
46 5 158
47 5 23
49 5 8
50 5 390
51 5 1867
53 5 4
55 5 2155
56 5 32
57 5 722
58 5 149
59 5 59
60 5 2228
61 5 2195
62 5 7
63 5 3270
64 5 47
65 5 1476
66 5 275
67 5 134
68 5 942
69 5 1248
70 5 1014
71 5 1250
72 5 8
73 5 3282
74 5 3002
75 5 7
76 5 338
77 5 9
78 5 599
79 5 739
80 5 72
82 5 1342
83 5 50
84 5 1400
85 5 1582
86 5 1521
87 5 133
88 5 518
89 5 87
90 5 2369
91 5 1284
93 5 2170
96 5 1857
98 5 1556
99 5 1505
100 5 262
101 5 72
102 5 21
103 5 6
104 5 82
106 5 2453
107 5 24
108 5 690
109 5 1690
110 5 2381
111 5 1168
112 5 888
113 5 2268
114 5 4
115 5 2528
116 5 313
118 5 1221
119 5 2453
120 5 1604
121 5 610
122 5 51
123 5 25
124 5 3850
125 5 841
126 5 1799
127 5 748
128 5 69
129 5 1746
130 5 2337
131 5 27
132 5 4
134 5 87
135 5 26
136 5 351
137 5 820
139 5 1000
141 5 1546
144 5 70
145 5 4
146 5 2704
147 5 3154
148 5 1121
149 5 190
150 5 68
151 5 2313
152 5 7
154 5 1702
155 5 1022
156 5 9
158 5 103
159 5 2799
160 5 292
161 5 786
163 5 1543
164 5 3
165 5 114
166 5 21
167 5 73
168 5 3044
170 5 94
171 5 32
172 5 1882
173 5 27
174 5 1689
175 5 1612
176 5 139
177 5 64
178 5 1402
179 5 115
180 5 54
181 5 5
182 5 1615
183 5 666
184 5 261
185 5 1558
186 5 31
187 5 1692
188 5 1279
189 5 153
191 5 655
192 5 1286
193 5 5
194 5 20
195 5 202
196 5 21
197 5 171
198 5 41
199 5 2822
200 5 2528
201 5 1889
203 5 46
204 5 48
205 5 99
207 5 1152
208 5 74
211 5 600
213 5 1965
214 5 1123
215 5 1500
216 5 26
217 5 3134
218 5 1127
219 5 4
220 5 6
221 5 81
222 5 721
223 5 43
224 5 1079
225 5 643
226 5 1200
228 5 1583
229 5 1685
230 5 1064
231 5 662
232 5 140
233 5 5
234 5 1631
235 5 1604
236 5 4
237 5 458
238 5 891
239 5 2281
240 5 393
241 5 26
242 5 1607
243 5 1233
244 5 1398
245 5 1168
246 5 833
247 5 24
248 5 139
249 5 3
250 5 662
251 5 99
253 5 12
254 5 32
255 5 71
256 5 28
257 5 2988
258 5 6
259 5 1205
260 5 1475
261 5 3472
262 5 114
264 5 29
265 5 6
266 5 9
267 5 2261
268 5 121
269 5 156
270 5 587
271 5 71
272 5 18
273 5 2042
274 5 1033
275 5 2958
276 5 1545
278 5 1602
279 5 310
280 5 491
281 5 6
282 5 1528
283 5 1212
284 5 1454
285 5 1705
286 5 1062
287 5 126
288 5 2638
289 5 14
290 5 49
291 5 72
292 5 1352
293 5 26
294 5 1757
295 5 3
296 5 793
297 5 825
298 5 30
299 5 2017
300 5 5
301 5 2240
302 5 2440
303 5 2777
304 5 1150
305 5 34
306 5 75
308 5 766
309 5 29
310 5 36
311 5 93
312 5 1642
314 5 1348
315 5 17
316 5 140
317 5 27
319 5 2495
320 5 26
321 5 1017
323 5 1637
325 5 1986
327 5 2
328 5 461
329 5 600
330 5 1364
331 5 31
332 5 2470
334 5 1577
335 5 2083
336 5 4
337 5 497
338 5 2532
339 5 990
340 5 1741
342 5 1870
343 5 1032
344 5 642
345 5 2763
346 5 1296
347 5 736
348 5 71
349 5 699
350 5 2589
351 5 28
352 5 1962
353 5 2595
355 5 2772
356 5 1655
357 5 3557
358 5 556
360 5 70
361 5 13
362 5 190
363 5 206
366 5 467
368 5 483
369 5 33
370 5 1869
371 5 1849
372 5 19
373 5 1468
375 5 99
376 5 77
377 5 1061
378 5 2330
380 5 2772
381 5 212
382 5 2226
383 5 25
384 5 3654
385 5 34
386 5 73
387 5 2954
389 5 72
390 5 24
391 5 1928
392 5 2272
393 5 31
395 5 2
398 5 933
399 5 2391
400 5 590
401 5 1131
402 5 3065
404 5 851
405 5 1578
406 5 1209
407 5 1918
408 5 1476
409 5 17
410 5 7
411 5 2075
412 5 733
413 5 7
414 5 1694
416 5 132
417 5 2289
418 5 643
419 5 1612
420 5 393
421 5 1111
422 5 4
423 5 4
425 5 1268
426 5 18
427 5 7
428 5 800
430 5 396
431 5 3
432 5 94
433 5 916
434 5 21
435 5 820
436 5 840
437 5 7
438 5 59
439 5 88
440 5 87
441 5 5
443 5 39
445 5 1545
446 5 1801
447 5 884
449 5 132
450 5 867
451 5 790
452 5 6
453 5 1787
454 5 757
455 5 8
457 5 1465
458 5 696
459 5 821
460 5 23
461 5 977
462 5 18
463 5 59
464 5 468
465 5 2161
466 5 1312
467 5 112
468 5 1569
469 5 23
470 5 274
471 5 6
472 5 116
473 5 1694
474 5 891
475 5 314
476 5 1222
477 5 1436
478 5 323
479 5 606
480 5 3298
481 5 5
482 5 83
484 5 1260
485 5 2061
486 5 136
487 5 3
488 5 2
489 5 111
490 5 4
491 5 5
492 5 16
493 5 31
494 5 295
495 5 1961
496 5 5
497 5 1183
498 5 24
499 5 1835
500 5 286
1 6 5
2 6 73
3 6 25
4 6 4492
5 6 34
6 6 2366
7 6 7
8 6 53
9 6 8
10 6 5
11 6 62
12 6 75
13 6 4007
14 6 51
15 6 5469
17 6 2530
18 6 2389
19 6 78
20 6 32
21 6 97
22 6 4955
23 6 2200
24 6 48
26 6 5
27 6 1151
28 6 2806
29 6 108
30 6 3329
31 6 5497
32 6 143
33 6 4
34 6 4314
35 6 5450
36 6 3641
37 6 3964
38 6 2166
39 6 1186
40 6 4
41 6 51
42 6 944
43 6 38
44 6 10
45 6 4708
46 6 5843
47 6 4227
48 6 2393
49 6 2972
50 6 1818
52 6 1310
53 6 2487
54 6 2049
55 6 14
56 6 2163
58 6 4642
59 6 2324
60 6 4
61 6 65
62 6 4403
63 6 10
64 6 4437
65 6 24
66 6 2084
67 6 273
68 6 259
69 6 19
70 6 109
71 6 96
72 6 3602
73 6 83
74 6 112
75 6 6005
76 6 1441
77 6 5136
78 6 83
79 6 247
80 6 4661
81 6 4071
82 6 4
83 6 3860
84 6 107
85 6 136
86 6 20
87 6 2673
88 6 5
89 6 1773
90 6 28
91 6 30
92 6 4125
94 6 2250
95 6 2359
96 6 140
97 6 2292
98 6 5
99 6 156
100 6 5399
101 6 5081
102 6 3520
103 6 3183
104 6 3944
105 6 1117
106 6 7
107 6 4887
108 6 25
109 6 23
110 6 14
111 6 29
112 6 89
114 6 3016
115 6 26
116 6 28
117 6 4998
118 6 22
119 6 126
120 6 23
121 6 58
122 6 3811
123 6 4590
124 6 48
125 6 55
126 6 72
127 6 63
128 6 2911
129 6 111
130 6 75
131 6 4305
132 6 2865
133 6 1861
134 6 2687
135 6 4306
136 6 1234
137 6 133
138 6 1697
139 6 52
140 6 2130
141 6 123
142 6 1110
143 6 2320
144 6 3326
145 6 2869
146 6 139
147 6 1
148 6 74
149 6 354
150 6 3597
151 6 52
152 6 1794
153 6 1939
154 6 33
155 6 61
156 6 2580
157 6 3367
158 6 3398
159 6 10
160 6 692
161 6 45
162 6 2054
163 6 81
164 6 1780
165 6 1902
166 6 2637
167 6 3626
168 6 151
169 6 2358
170 6 3875
171 6 4270
172 6 124
173 6 438
174 6 29
175 6 97
176 6 2087
177 6 4298
178 6 32
179 6 2213
180 6 2360
181 6 2575
182 6 24
183 6 75
184 6 2082
185 6 119
186 6 3334
187 6 100
188 6 42
189 6 1557
190 6 4551
191 6 49
192 6 10
193 6 2222
194 6 5387
195 6 5592
196 6 4600
197 6 3121
198 6 2561
200 6 25
201 6 142
202 6 2332
203 6 4968
204 6 2135
205 6 851
206 6 2073
207 6 147
208 6 5178
209 6 2193
210 6 2238
211 6 117
212 6 1576
213 6 27
214 6 58
215 6 51
216 6 2823
217 6 104
218 6 44
219 6 4062
220 6 3291
221 6 1714
222 6 2015
223 6 5005
224 6 673
225 6 11
226 6 20
227 6 2395
228 6 22
229 6 71
230 6 90
231 6 97
232 6 1985
233 6 4588
234 6 93
235 6 38
236 6 6398
237 6 776
239 6 99
240 6 740
241 6 4308
242 6 27
243 6 28
244 6 17
245 6 129
246 6 4
247 6 4269
248 6 2153
249 6 2914
250 6 8
251 6 4801
252 6 2105
253 6 2905
254 6 4109
255 6 2115
256 6 5433
258 6 5311
259 6 56
260 6 85
261 6 53
262 6 4845
263 6 1782
264 6 2816
265 6 4725
266 6 2677
267 6 7
268 6 2626
269 6 2614
270 6 110
271 6 4863
272 6 3445
273 6 47
274 6 84
275 6 8
276 6 28
277 6 5104
278 6 47
279 6 1044
280 6 9
281 6 4526
282 6 135
283 6 6
284 6 108
285 6 22
286 6 46
287 6 1263
288 6 40
289 6 2715
290 6 2437
291 6 4010
292 6 2268
293 6 4712
294 6 133
295 6 3543
297 6 8
298 6 2929
300 6 2376
301 6 87
302 6 100
303 6 59
304 6 132
305 6 4863
306 6 4304
307 6 4257
308 6 82
309 6 4683
310 6 4170
311 6 2895
312 6 112
313 6 2083
314 6 7
315 6 3670
316 6 3755
317 6 3669
318 6 3040
319 6 27
320 6 3360
321 6 81
322 6 2065
323 6 28
324 6 1799
325 6 84
326 6 4573
327 6 2471
328 6 1776
329 6 1618
330 6 5
331 6 3987
332 6 105
333 6 5094
334 6 24
335 6 37
336 6 4802
337 6 49
338 6 4
339 6 62
340 6 9
341 6 2423
342 6 110
343 6 48
344 6 116
345 6 54
346 6 68
347 6 33
348 6 3485
349 6 123
350 6 69
351 6 3342
352 6 137
353 6 25
354 6 1763
356 6 58
357 6 3
358 6 231
359 6 2101
360 6 3639
361 6 4240
362 6 1798
363 6 326
364 6 2171
365 6 2146
366 6 7
367 6 1812
368 6 1803
369 6 4055
370 6 392
371 6 31
372 6 2475
373 6 2165
374 6 3644
375 6 3266
376 6 479
378 6 26
379 6 2439
380 6 18
381 6 3866
382 6 57
383 6 833
384 6 110
385 6 3622
386 6 3349
387 6 29
388 6 2131
389 6 4666
390 6 3873
391 6 23
392 6 22
393 6 1233
394 6 2531
395 6 3302
396 6 2062
397 6 2655
398 6 61
399 6 72
400 6 102
401 6 3
402 6 7
403 6 2171
404 6 50
405 6 99
406 6 205
407 6 7
408 6 25
409 6 1267
410 6 3197
411 6 70
412 6 128
413 6 5971
414 6 6
415 6 3227
416 6 2752
417 6 123
418 6 74
419 6 29
421 6 169
422 6 2555
423 6 4895
424 6 1936
425 6 3
426 6 2458
427 6 4125
428 6 6
429 6 1979
430 6 241
431 6 4205
432 6 3765
433 6 90
434 6 3211
435 6 61
436 6 141
437 6 4855
438 6 1978
439 6 4827
440 6 934
441 6 2880
442 6 2056
443 6 2334
444 6 2540
445 6 48
446 6 23
447 6 4
448 6 4293
449 6 2734
450 6 103
451 6 64
452 6 3702
453 6 52
454 6 29
455 6 1890
456 6 3264
457 6 19
458 6 8
459 6 150
460 6 3235
461 6 81
462 6 5643
463 6 3318
464 6 77
465 6 104
466 6 24
467 6 2139
468 6 81
469 6 2000
470 6 333
471 6 2628
472 6 1904
473 6 83
474 6 249
475 6 973
476 6 28
477 6 28
478 6 265
479 6 149
480 6 86
481 6 3630
482 6 3513
483 6 2037
484 6 125
485 6 28
486 6 3536
487 6 4785
488 6 3836
489 6 777
490 6 5626
491 6 4786
492 6 2379
493 6 4728
494 6 2578
495 6 80
496 6 2913
497 6 241
498 6 3473
499 6 48
500 6 650
1 7 3378
2 7 3546
3 7 2909
4 7 29
5 7 109
6 7 70
7 7 3777
8 7 3730
9 7 966
10 7 6439
11 7 4210
12 7 4882
13 7 83
14 7 4188
15 7 156
16 7 877
19 7 1431
20 7 5224
21 7 4141
22 7 34
23 7 40
24 7 60
25 7 4766
26 7 5153
28 7 33
29 7 1820
31 7 30
32 7 1658
33 7 5695
35 7 20
36 7 7
37 7 53
39 7 4
40 7 4708
41 7 57
42 7 19
43 7 2983
44 7 3796
46 7 37
47 7 62
48 7 49
49 7 59
50 7 16
51 7 544
52 7 26
54 7 35
55 7 3521
56 7 25
57 7 3750
58 7 22
59 7 17
60 7 4696
61 7 6009
62 7 2
63 7 2992
64 7 30
65 7 132
67 7 2842
68 7 2663
69 7 3668
70 7 2115
71 7 2432
72 7 95
73 7 2533
74 7 3608
75 7 72
76 7 17
77 7 81
78 7 2605
79 7 2645
80 7 124
81 7 61
82 7 3403
83 7 7
84 7 234
85 7 2260
86 7 4437
87 7 125
88 7 2208
89 7 2820
90 7 3601
91 7 2812
92 7 19
93 7 5423
94 7 3
95 7 53
96 7 3351
97 7 5
98 7 4230
99 7 4280
100 7 126
103 7 24
104 7 26
106 7 3718
107 7 104
108 7 5349
109 7 2972
110 7 5692
111 7 287
112 7 1244
113 7 4910
114 7 29
115 7 4058
116 7 3531
117 7 3
118 7 4597
119 7 3310
120 7 3965
121 7 277
124 7 5174
125 7 4809
126 7 3149
127 7 494
128 7 7
129 7 4203
130 7 3703
132 7 15
134 7 30
136 7 20
138 7 60
139 7 3843
140 7 4
141 7 3731
144 7 81
145 7 286
146 7 6830
147 7 3470
148 7 4711
149 7 3594
150 7 53
151 7 3214
152 7 226
154 7 2775
155 7 4138
156 7 4
157 7 4
158 7 23
159 7 5494
160 7 20
161 7 406
162 7 9
163 7 59
164 7 246
165 7 342
166 7 21
168 7 3805
169 7 42
171 7 238
172 7 4644
173 7 3991
174 7 3011
175 7 4667
177 7 29
178 7 1933
179 7 107
180 7 2
182 7 2627
183 7 4658
185 7 2032
186 7 21
187 7 3456
188 7 325
189 7 106
190 7 4
191 7 295
192 7 4797
193 7 34
194 7 4
195 7 2
196 7 17
197 7 151
198 7 17
199 7 3266
200 7 5647
201 7 4621
202 7 25
203 7 58
204 7 39
205 7 447
206 7 7
207 7 56
208 7 7
209 7 8
211 7 3052
212 7 4
213 7 2282
214 7 3807
215 7 2388
216 7 59
217 7 5770
218 7 383
219 7 4
220 7 131
221 7 1360
222 7 4
223 7 30
224 7 92
225 7 5602
226 7 1151
227 7 74
228 7 4428
229 7 3937
230 7 2328
231 7 4050
232 7 85
233 7 8
234 7 2977
235 7 6201
236 7 287
237 7 6
238 7 4383
239 7 3411
242 7 3604
243 7 2848
244 7 1519
245 7 4320
246 7 3872
247 7 116
248 7 72
250 7 4770
251 7 164
252 7 51
253 7 57
254 7 6
255 7 398
256 7 2
257 7 3470
258 7 6
259 7 3727
260 7 77
261 7 4784
262 7 6
264 7 16
265 7 153
266 7 4
267 7 2485
268 7 161
269 7 51
270 7 68
272 7 23
273 7 3231
274 7 3867
275 7 5498
276 7 4311
277 7 7
278 7 4171
279 7 16
280 7 2186
281 7 5
282 7 5077
283 7 2958
284 7 5473
285 7 3482
286 7 1620
287 7 21
288 7 4072
289 7 59
290 7 25
291 7 7
292 7 44
294 7 2704
295 7 91
296 7 6449
297 7 720
298 7 368
299 7 3676
300 7 68
301 7 3750
302 7 4607
303 7 4374
304 7 57
305 7 5
308 7 3630
309 7 51
310 7 1311
311 7 30
312 7 4710
313 7 42
314 7 4916
315 7 22
316 7 114
317 7 6
318 7 6
319 7 4395
320 7 330
321 7 981
322 7 12
323 7 2780
325 7 3064
326 7 5
328 7 17
329 7 19
330 7 4980
331 7 37
332 7 4540
333 7 4
334 7 6342
335 7 189
336 7 1
337 7 3900
338 7 5491
339 7 174
340 7 4522
341 7 48
342 7 4852
343 7 3826
344 7 4713
345 7 6134
346 7 5359
347 7 4849
348 7 2
349 7 6135
350 7 2980
351 7 78
352 7 2479
353 7 3768
355 7 3273
356 7 4464
357 7 4400
358 7 51
359 7 6
360 7 1
361 7 3
362 7 5
363 7 60
364 7 7
365 7 3
366 7 3200
368 7 65
369 7 273
371 7 5394
372 7 655
373 7 14
374 7 55
375 7 25
376 7 1239
377 7 3437
378 7 4995
379 7 60
380 7 3154
381 7 27
382 7 4486
383 7 369
384 7 4164
385 7 227
386 7 223
387 7 6625
388 7 27
390 7 33
391 7 3428
392 7 3338
393 7 277
394 7 4
395 7 106
396 7 20
397 7 4
398 7 11
399 7 2404
400 7 2876
401 7 4661
402 7 5605
403 7 5
404 7 6102
405 7 1985
406 7 3838
407 7 5119
408 7 4450
409 7 327
410 7 83
411 7 5376
412 7 5562
413 7 6
414 7 3357
415 7 20
416 7 26
417 7 3505
418 7 4844
419 7 6602
420 7 4677
421 7 6552
423 7 7
424 7 28
425 7 6971
426 7 819
428 7 3863
430 7 2406
432 7 5
433 7 4839
434 7 5
435 7 4674
436 7 45
437 7 5
438 7 2601
439 7 7
440 7 43
441 7 32
442 7 20
443 7 67
444 7 132
445 7 4179
446 7 2042
447 7 4235
448 7 55
449 7 24
450 7 222
451 7 499
452 7 6
453 7 3147
454 7 1909
455 7 359
456 7 7
457 7 4295
458 7 3566
459 7 5
460 7 5
461 7 80
462 7 134
464 7 103
465 7 4911
466 7 2880
468 7 1757
469 7 55
470 7 5931
471 7 172
472 7 83
473 7 6596
474 7 5003
475 7 68
476 7 8009
477 7 1396
478 7 7069
479 7 4042
480 7 2494
481 7 32
482 7 22
483 7 42
484 7 71
485 7 2635
487 7 29
488 7 102
489 7 1148
491 7 28
492 7 114
495 7 3617
497 7 4
498 7 64
499 7 7203
500 7 3697
1 8 6
2 8 156
3 8 2
4 8 10778
5 8 2728
6 8 9385
7 8 59
8 8 53
9 8 2533
10 8 28
12 8 21
13 8 7646
14 8 5
15 8 501
16 8 2972
17 8 6181
18 8 6182
19 8 80
20 8 178
21 8 53
22 8 2237
23 8 7909
24 8 9415
26 8 30
27 8 11106
28 8 7909
29 8 41
30 8 7227
31 8 4010
32 8 259
33 8 6
34 8 9282
35 8 3808
36 8 5513
37 8 13912
38 8 6655
39 8 6458
40 8 12
41 8 9490
42 8 3346
43 8 86
44 8 74
45 8 8182
46 8 2148
47 8 8518
48 8 9349
49 8 7399
50 8 4357
51 8 2529
52 8 6892
53 8 6269
54 8 10008
55 8 73
56 8 6821
58 8 5426
59 8 10820
60 8 70
61 8 5
62 8 13954
63 8 55
64 8 8301
65 8 2756
66 8 7187
67 8 23
68 8 27
70 8 71
71 8 63
72 8 618
73 8 5
74 8 61
75 8 856
76 8 3555
77 8 8251
78 8 25
79 8 5
80 8 6888
81 8 8794
82 8 146
83 8 10112
84 8 4263
85 8 88
86 8 69
87 8 3017
88 8 113
90 8 168
91 8 27
92 8 5972
93 8 155
94 8 8148
95 8 9345
97 8 13846
98 8 83
99 8 79
100 8 13451
101 8 8388
102 8 8392
103 8 7704
104 8 8154
105 8 10734
106 8 130
107 8 4819
108 8 28
110 8 2
111 8 8284
112 8 600
113 8 8
114 8 3946
115 8 27
116 8 237
117 8 5272
118 8 30
119 8 6
120 8 20
121 8 3483
122 8 4606
123 8 9172
124 8 40
125 8 122
126 8 33
127 8 682
128 8 9499
129 8 24
131 8 8438
132 8 7828
133 8 4528
134 8 6249
135 8 6835
136 8 4308
137 8 6901
138 8 8635
139 8 6
140 8 7257
141 8 68
142 8 10848
143 8 6530
144 8 9346
145 8 566
146 8 24
147 8 84
148 8 4
149 8 103
150 8 6261
151 8 2
152 8 252
153 8 4404
154 8 20
155 8 61
156 8 1337
157 8 7348
158 8 13645
159 8 33
160 8 9683
161 8 2582
162 8 7360
163 8 5112
164 8 231
165 8 204
166 8 10215
167 8 11051
168 8 1
169 8 9640
170 8 7161
171 8 454
172 8 92
173 8 119
174 8 32
175 8 56
176 8 8465
177 8 7344
178 8 11
179 8 1254
180 8 6496
181 8 10862
182 8 5
183 8 119
184 8 7092
185 8 53
186 8 7362
187 8 28
188 8 3397
189 8 3317
190 8 6913
191 8 3476
192 8 45
193 8 6362
194 8 6869
195 8 5363
196 8 8224
197 8 505
198 8 7207
199 8 97
200 8 8
201 8 77
202 8 6137
203 8 10207
204 8 6299
205 8 224
206 8 3127
207 8 7588
208 8 6775
209 8 3055
210 8 2634
211 8 22
212 8 6074
213 8 193
214 8 156
215 8 1404
216 8 5426
217 8 36
218 8 2310
219 8 10738
220 8 429
221 8 190
222 8 4699
223 8 12426
224 8 10944
225 8 30
226 8 503
227 8 9694
228 8 75
230 8 66
231 8 6
232 8 13597
233 8 9163
234 8 4
236 8 354
237 8 5317
238 8 137
240 8 8653
241 8 6883
242 8 48
243 8 122
244 8 1293
245 8 20
246 8 109
247 8 7206
248 8 4354
249 8 6168
250 8 139
251 8 702
252 8 7791
253 8 7656
254 8 9713
255 8 230
256 8 6784
257 8 40
258 8 10378
259 8 12
260 8 6699
261 8 26
262 8 6546
263 8 4182
264 8 11017
265 8 4829
266 8 1378
268 8 3085
269 8 5414
270 8 4910
271 8 8211
272 8 10928
273 8 56
274 8 57
275 8 22
276 8 88
277 8 5309
278 8 4
279 8 8644
280 8 107
281 8 3968
282 8 52
283 8 7
284 8 17
285 8 3
286 8 153
287 8 5248
288 8 29
289 8 5456
290 8 7557
291 8 4967
292 8 5560
293 8 8222
294 8 21
295 8 8854
296 8 9
297 8 2861
298 8 356
299 8 108
300 8 8764
301 8 58
302 8 19
303 8 79
304 8 7752
305 8 5594
306 8 8627
307 8 4161
308 8 8
309 8 5469
311 8 7080
312 8 8
313 8 7700
315 8 8304
316 8 6240
317 8 8547
318 8 10906
320 8 410
321 8 1136
322 8 3097
323 8 27
324 8 4226
325 8 4
326 8 6795
327 8 9729
328 8 4192
329 8 7523
330 8 67
331 8 3313
332 8 34
333 8 5368
334 8 27
335 8 10384
336 8 6622
337 8 33
338 8 50
339 8 4002
340 8 5
341 8 9711
342 8 46
343 8 1
344 8 30
345 8 4
346 8 27
347 8 37
348 8 9926
349 8 126
350 8 20
351 8 9037
352 8 66
353 8 30
354 8 4384
355 8 100
356 8 29
357 8 17
358 8 6481
359 8 3115
360 8 8926
361 8 7423
362 8 6978
363 8 7179
364 8 13708
365 8 7363
366 8 22
367 8 4423
368 8 3891
369 8 248
370 8 5725
371 8 31
372 8 27
373 8 4802
374 8 9363
375 8 5666
376 8 165
377 8 5
378 8 126
379 8 9483
380 8 69
381 8 10863
382 8 30
383 8 18
384 8 96
385 8 599
386 8 228
387 8 25
388 8 10085
389 8 7909
390 8 4367
391 8 51
392 8 60
393 8 152
394 8 4057
395 8 273
396 8 3181
397 8 7782
398 8 5309
399 8 6
400 8 89
401 8 26
402 8 29
403 8 3085
404 8 35
405 8 247
406 8 68
407 8 7
408 8 64
409 8 24
410 8 7335
411 8 60
413 8 5027
415 8 945
416 8 6444
417 8 4
418 8 56
419 8 54
421 8 18
422 8 11575
423 8 6628
424 8 12365
425 8 4
426 8 3
427 8 9078
428 8 56
429 8 11371
430 8 24
431 8 5291
432 8 12830
433 8 88
434 8 7529
435 8 57
436 8 6074
437 8 13941
438 8 163
439 8 6442
440 8 6951
441 8 6447
442 8 3037
443 8 13498
444 8 9807
445 8 88
446 8 171
447 8 118
448 8 6795
449 8 6769
450 8 3276
451 8 670
452 8 7487
453 8 30
454 8 81
455 8 194
456 8 7312
458 8 23
459 8 3431
460 8 5217
461 8 6722
462 8 1107
463 8 14388
464 8 7614
465 8 74
466 8 22
467 8 5909
468 8 73
469 8 4884
470 8 94
471 8 812
472 8 13825
473 8 90
474 8 164
475 8 7820
476 8 9
477 8 391
478 8 7
479 8 52
480 8 6
481 8 6083
482 8 5662
483 8 9896
484 8 5240
485 8 63
486 8 1950
487 8 12691
488 8 6435
489 8 78
490 8 6624
491 8 8687
492 8 8441
493 8 8116
494 8 3650
495 8 60
496 8 8954
497 8 6128
498 8 5530
1 9 9474
2 9 7184
3 9 7880
4 9 29
5 9 7
6 9 18
7 9 7680
8 9 5812
9 9 55
10 9 9002
11 9 8532
12 9 7465
13 9 78
14 9 17028
15 9 6379
16 9 38
17 9 15
18 9 29
19 9 108
20 9 2472
21 9 11237
22 9 6876
23 9 5
24 9 30
25 9 10855
26 9 12919
27 9 1
28 9 33
29 9 302
30 9 276
31 9 304
32 9 6748
33 9 15600
34 9 69
35 9 5
36 9 253
37 9 159
38 9 2
39 9 204
40 9 11063
41 9 26
42 9 5
43 9 2733
44 9 6121
45 9 8
46 9 5372
47 9 60
48 9 9
49 9 148
51 9 11
52 9 20
53 9 22
54 9 18
55 9 6532
56 9 29
57 9 10889
58 9 21
59 9 2
60 9 2908
61 9 11024
62 9 31
63 9 7935
64 9 117
65 9 2
66 9 26
67 9 6351
68 9 9166
69 9 9826
70 9 4973
71 9 9153
72 9 7273
73 9 7836
74 9 9823
75 9 10693
77 9 22
78 9 5315
79 9 15375
80 9 159
81 9 57
82 9 7815
83 9 2
85 9 8618
86 9 8734
87 9 1186
88 9 915
89 9 9596
90 9 6888
91 9 7835
92 9 8
93 9 3063
94 9 62
95 9 28
96 9 9333
97 9 95
98 9 23374
99 9 5653
100 9 65
101 9 5
102 9 81
103 9 154
104 9 173
105 9 2
106 9 10136
107 9 799
108 9 19283
109 9 20120
110 9 9016
111 9 8
112 9 6
113 9 10307
114 9 1319
115 9 1697
116 9 12729
117 9 38
118 9 6504
119 9 12734
120 9 8203
121 9 29
122 9 8
123 9 99
124 9 7156
125 9 8348
126 9 10470
127 9 80
128 9 5
129 9 14392
130 9 9742
131 9 127
132 9 34
133 9 6
134 9 5
135 9 70
137 9 59
138 9 47
139 9 9156
140 9 3
141 9 6649
142 9 2
143 9 4
144 9 61
145 9 2114
146 9 9609
147 9 11758
148 9 4445
149 9 11889
150 9 110
151 9 8864
152 9 11739
153 9 22
154 9 10116
155 9 4880
156 9 2991
157 9 9
158 9 7
159 9 7517
161 9 21
162 9 7
163 9 40
164 9 12421
165 9 9106
166 9 44
167 9 25
168 9 8763
169 9 17
170 9 22
171 9 6689
172 9 19049
173 9 10560
174 9 904
175 9 9000
177 9 77
178 9 6829
179 9 2866
180 9 96
181 9 167
182 9 7269
183 9 9176
184 9 24
185 9 5057
186 9 32
187 9 8667
189 9 770
190 9 6
192 9 22024
193 9 2
194 9 225
195 9 757
196 9 60
197 9 11387
198 9 11
199 9 228
200 9 9261
201 9 19398
203 9 3
204 9 23
205 9 10631
206 9 17
207 9 55
208 9 28
209 9 23
210 9 24
211 9 6959
212 9 10
213 9 132
214 9 7719
215 9 50
216 9 139
217 9 8253
218 9 59
219 9 36
220 9 4105
221 9 8667
223 9 117
224 9 21
225 9 10392
226 9 69
227 9 20
228 9 6593
229 9 7940
230 9 8143
231 9 10494
233 9 56
234 9 20508
235 9 10653
236 9 7197
237 9 51
238 9 106
239 9 9152
240 9 6
241 9 65
242 9 4255
243 9 1592
244 9 19
245 9 9459
246 9 674
247 9 30
248 9 54
249 9 81
250 9 6572
251 9 9977
252 9 18
253 9 23
254 9 5
255 9 8235
256 9 251
257 9 8283
258 9 49
259 9 8313
260 9 34
261 9 8593
262 9 351
263 9 29
264 9 31
265 9 2719
266 9 2943
267 9 7120
268 9 1204
269 9 7
271 9 28
272 9 100
273 9 6435
274 9 10479
275 9 12034
276 9 6479
277 9 48
278 9 5891
279 9 20
280 9 856
281 9 657
282 9 7932
283 9 6043
284 9 12501
285 9 3896
286 9 110
287 9 24
288 9 1721
289 9 137
290 9 2
291 9 128
292 9 48
293 9 5
294 9 9015
295 9 172
296 9 12005
297 9 18
298 9 6868
299 9 125
301 9 6616
302 9 7759
303 9 13908
304 9 33
305 9 70
306 9 67
307 9 1007
308 9 6991
309 9 4
310 9 15372
311 9 8
312 9 13408
313 9 21
314 9 9745
315 9 42
316 9 59
318 9 19
319 9 9421
320 9 11737
321 9 69
322 9 22
323 9 10133
324 9 24
325 9 6509
326 9 7
327 9 135
329 9 19
330 9 4418
331 9 454
332 9 7719
333 9 53
334 9 6858
335 9 17
336 9 240
337 9 11727
338 9 10078
339 9 10
340 9 12056
341 9 21
342 9 11863
343 9 9053
344 9 11976
345 9 6255
346 9 6696
347 9 8932
348 9 4
349 9 14215
350 9 7218
351 9 25
352 9 11891
353 9 14772
354 9 30
355 9 230
356 9 6591
357 9 9735
358 9 15
359 9 10
360 9 106
361 9 26
362 9 38
363 9 7
364 9 84
365 9 6
366 9 9482
367 9 31
368 9 70
369 9 10577
370 9 4
371 9 15235
372 9 8038
373 9 92
374 9 42
375 9 357
376 9 7391
377 9 5828
378 9 3272
379 9 21
380 9 12467
381 9 155
382 9 7744
383 9 6741
384 9 8326
385 9 6725
386 9 5066
387 9 9905
388 9 10
389 9 439
390 9 915
391 9 13560
392 9 9242
393 9 15103
394 9 37
395 9 14710
396 9 9
397 9 129
398 9 18
399 9 9651
400 9 3634
401 9 9644
402 9 12145
403 9 20
404 9 5883
405 9 28
406 9 7552
407 9 6570
408 9 8817
409 9 11353
410 9 6
411 9 9755
412 9 8935
413 9 841
414 9 18336
415 9 3826
416 9 22
417 9 10677
418 9 13505
419 9 6904
420 9 10986
421 9 10497
422 9 69
423 9 214
424 9 3
425 9 7995
426 9 8924
428 9 11367
429 9 19
430 9 12644
431 9 49
432 9 10
433 9 6959
435 9 9165
436 9 53
438 9 16177
439 9 366
440 9 54
441 9 269
442 9 17
443 9 49
444 9 98
445 9 7269
446 9 187
447 9 11715
448 9 64
449 9 22
450 9 22
451 9 95
452 9 3
453 9 8209
454 9 335
455 9 12422
456 9 5
457 9 8103
458 9 12903
459 9 20
460 9 824
461 9 9
462 9 9306
463 9 34
464 9 6
465 9 124
466 9 14182
467 9 46
468 9 7757
469 9 773
470 9 15540
471 9 3089
473 9 7777
474 9 9300
475 9 6
476 9 8841
477 9 164
478 9 12337
479 9 6124
480 9 8032
481 9 5
482 9 36
483 9 18
484 9 10
485 9 528
486 9 2147
487 9 5
488 9 5
489 9 11652
490 9 860
492 9 89
493 9 6
494 9 6
495 9 5731
497 9 6
498 9 123
499 9 9823
500 9 19058
1 10 2293
2 10 4668
3 10 1830
7 10 2096
8 10 3331
10 10 3143
11 10 2207
12 10 2020
14 10 2450
15 10 2397
20 10 128
21 10 2972
22 10 2440
25 10 3092
26 10 1834
28 10 620
29 10 4
30 10 29
31 10 697
32 10 1455
33 10 980
36 10 301
37 10 1
39 10 506
40 10 1457
43 10 143
44 10 324
45 10 9
46 10 4483
47 10 5
49 10 6
55 10 2929
57 10 1489
59 10 25
60 10 620
61 10 2463
63 10 2139
67 10 2025
68 10 1752
69 10 2491
70 10 293
71 10 4165
72 10 3902
73 10 2335
74 10 2045
75 10 3650
76 10 4
78 10 706
79 10 5135
80 10 23
81 10 6
82 10 3493
85 10 1783
86 10 1589
87 10 2795
88 10 54
89 10 3093
90 10 510
91 10 4140
92 10 26
93 10 408
96 10 1977
97 10 32
98 10 2719
99 10 1540
100 10 120
103 10 208
104 10 60
106 10 5376
107 10 1094
108 10 1118
109 10 2315
110 10 2341
113 10 2877
114 10 1093
115 10 110
116 10 3367
118 10 1273
119 10 1057
120 10 2457
123 10 6
124 10 1670
125 10 1363
126 10 3133
127 10 5
128 10 10
129 10 3032
130 10 1385
131 10 5
132 10 583
139 10 2162
141 10 2485
145 10 1886
146 10 3244
147 10 2859
148 10 2129
149 10 2429
151 10 1602
152 10 4330
154 10 2446
155 10 211
156 10 3452
158 10 7
159 10 2417
160 10 4
164 10 4505
165 10 1510
168 10 3419
171 10 3558
172 10 1904
173 10 1823
174 10 7
175 10 2810
178 10 895
179 10 986
181 10 494
182 10 2354
183 10 2881
185 10 2086
187 10 1741
189 10 1340
192 10 1720
194 10 102
195 10 521
196 10 95
197 10 2425
198 10 5
200 10 1602
201 10 1941
205 10 2819
208 10 7
211 10 3245
214 10 3192
216 10 195
217 10 2441
218 10 25
220 10 3497
221 10 1721
225 10 3529
228 10 2955
229 10 2304
230 10 325
231 10 3013
234 10 3447
235 10 1740
236 10 2946
239 10 1453
242 10 348
243 10 29
245 10 2120
246 10 85
247 10 6
250 10 1133
251 10 1858
255 10 3221
256 10 103
257 10 2463
259 10 1565
261 10 981
262 10 1110
265 10 2873
266 10 3460
267 10 2624
268 10 2705
272 10 5
273 10 2045
274 10 2935
275 10 1659
276 10 2816
278 10 2855
280 10 38
281 10 1325
282 10 1335
283 10 1185
284 10 2930
285 10 918
286 10 5
288 10 130
289 10 204
291 10 259
294 10 3020
296 10 2200
298 10 2065
299 10 3
301 10 2058
302 10 2899
303 10 2502
305 10 137
306 10 184
307 10 2128
308 10 1994
309 10 93
310 10 3962
311 10 5
312 10 3056
314 10 2868
316 10 23
317 10 4
319 10 1978
320 10 3743
323 10 2360
325 10 1935
330 10 424
331 10 1759
332 10 2873
334 10 2161
336 10 346
337 10 2156
338 10 912
340 10 1773
342 10 2357
343 10 2285
344 10 3633
345 10 2757
346 10 3707
347 10 1496
349 10 2539
350 10 2489
352 10 1009
353 10 2145
356 10 2018
357 10 3506
358 10 5
362 10 7
363 10 4
364 10 26
366 10 1723
368 10 11
369 10 3094
371 10 3956
372 10 3153
374 10 8
375 10 931
376 10 2071
377 10 2092
378 10 960
380 10 3647
381 10 609
382 10 2609
383 10 2401
384 10 2632
385 10 2800
386 10 2217
387 10 3395
389 10 1315
390 10 1027
391 10 1588
392 10 739
393 10 1602
395 10 1654
397 10 8
399 10 2489
400 10 286
401 10 2627
402 10 1622
404 10 1597
406 10 4337
407 10 1524
408 10 1621
409 10 3224
410 10 4
411 10 2392
412 10 3286
413 10 2167
414 10 2238
415 10 2480
417 10 2791
418 10 3862
419 10 1386
420 10 3060
421 10 1825
423 10 317
425 10 2573
426 10 2947
428 10 1986
430 10 3015
433 10 1375
435 10 3246
438 10 3512
439 10 1170
440 10 5
441 10 264
444 10 949
445 10 3274
447 10 3785
451 10 6
453 10 1718
454 10 12
455 10 5974
457 10 1947
458 10 1243
460 10 1197
461 10 6
462 10 3572
466 10 1991
468 10 1205
469 10 911
470 10 6641
471 10 1109
473 10 2851
474 10 3864
476 10 3057
477 10 19
478 10 4956
479 10 1158
480 10 2282
484 10 6
485 10 19
486 10 1001
487 10 7
489 10 2850
490 10 1396
492 10 10
495 10 1320
499 10 1990
500 10 3154
1 11 36
2 11 62
4 11 3623
5 11 3076
6 11 3808
7 11 76
8 11 24
9 11 3914
10 11 95
11 11 56
12 11 109
13 11 4343
14 11 47
15 11 5
16 11 4648
17 11 5082
18 11 1517
19 11 4709
20 11 2764
21 11 50
22 11 28
23 11 2740
24 11 3390
26 11 58
27 11 2299
28 11 153
29 11 2665
30 11 303
31 11 28
32 11 26
33 11 150
34 11 6053
35 11 4158
36 11 101
37 11 1127
38 11 3310
39 11 90
40 11 26
41 11 3286
42 11 3319
43 11 2489
44 11 4699
45 11 4784
46 11 76
47 11 5071
48 11 3753
49 11 5044
50 11 2315
51 11 3743
52 11 2042
53 11 1534
54 11 3323
55 11 67
56 11 4196
57 11 22
58 11 6431
59 11 1368
60 11 1178
61 11 28
62 11 2996
63 11 96
64 11 3161
65 11 3126
66 11 3575
69 11 8
70 11 1746
71 11 29
72 11 67
73 11 6
74 11 56
75 11 3
76 11 2210
77 11 3233
78 11 469
79 11 196
80 11 1879
81 11 5127
82 11 61
83 11 3361
84 11 1449
85 11 65
86 11 27
87 11 108
88 11 2645
89 11 126
90 11 735
91 11 6
92 11 376
93 11 2812
94 11 4370
95 11 3800
96 11 25
97 11 236
98 11 119
99 11 25
100 11 207
101 11 1925
102 11 4115
103 11 103
104 11 127
105 11 2284
106 11 58
107 11 22
109 11 10
110 11 67
111 11 4725
112 11 3038
114 11 9
115 11 4500
116 11 11
117 11 2668
118 11 62
119 11 152
121 11 2560
122 11 2431
123 11 4378
124 11 6
125 11 79
126 11 3
127 11 2782
128 11 6369
129 11 72
131 11 1932
132 11 170
133 11 1793
134 11 4513
135 11 6334
136 11 2808
137 11 3743
138 11 8231
139 11 110
140 11 3076
141 11 5
142 11 2394
143 11 3476
144 11 3349
145 11 75
147 11 78
148 11 91
149 11 76
150 11 4212
151 11 343
153 11 1833
154 11 35
155 11 1378
156 11 2
157 11 2769
158 11 1763
159 11 102
160 11 2932
161 11 3371
162 11 3122
163 11 1510
165 11 75
166 11 5192
167 11 3419
168 11 29
169 11 3806
170 11 2956
171 11 130
172 11 117
173 11 26
174 11 4221
175 11 47
176 11 5144
177 11 5836
178 11 281
179 11 119
180 11 340
181 11 182
184 11 3580
185 11 74
186 11 4090
187 11 4
188 11 3672
189 11 23
190 11 2530
191 11 5125
192 11 24
193 11 4951
194 11 98
195 11 120
196 11 203
197 11 5
198 11 2537
199 11 4570
200 11 84
201 11 124
202 11 3955
203 11 3703
204 11 3987
205 11 69
206 11 3408
207 11 2946
208 11 4615
209 11 3463
210 11 2256
211 11 23
212 11 1495
213 11 4440
214 11 69
215 11 3927
216 11 119
217 11 26
218 11 3117
219 11 2711
220 11 8
221 11 228
222 11 2909
223 11 5795
224 11 2721
225 11 67
226 11 3105
227 11 3895
228 11 51
229 11 25
230 11 3363
231 11 11
232 11 3786
233 11 5716
234 11 46
235 11 101
236 11 95
237 11 2849
238 11 3482
239 11 57
240 11 2473
241 11 6260
242 11 1635
243 11 2403
244 11 3388
246 11 4880
247 11 3684
248 11 4210
249 11 2581
250 11 203
251 11 82
252 11 1513
253 11 4816
254 11 5568
255 11 22
256 11 88
257 11 158
258 11 3844
259 11 28
260 11 2746
261 11 584
262 11 35
263 11 2524
264 11 3692
265 11 4
266 11 7
267 11 203
268 11 105
269 11 6419
270 11 2080
271 11 4467
272 11 4968
273 11 80
274 11 49
275 11 17
276 11 64
277 11 2678
278 11 30
279 11 1974
280 11 2658
282 11 87
283 11 88
285 11 633
286 11 2520
287 11 5089
288 11 4429
289 11 140
290 11 3546
291 11 25
292 11 2907
293 11 4150
294 11 52
295 11 1864
296 11 5
297 11 4444
299 11 4045
300 11 2228
301 11 5
304 11 2860
305 11 204
306 11 113
307 11 14
308 11 139
309 11 66
310 11 139
311 11 1915
312 11 4
313 11 1595
314 11 4
315 11 4419
316 11 862
317 11 3680
318 11 3493
319 11 131
320 11 100
321 11 2570
322 11 2850
323 11 32
324 11 2632
325 11 11
326 11 2474
327 11 1898
328 11 2299
329 11 3335
330 11 1296
331 11 283
333 11 2603
334 11 85
335 11 4864
336 11 61
337 11 114
338 11 863
339 11 3421
340 11 6
341 11 3828
342 11 17
343 11 108
344 11 7
346 11 4
347 11 307
348 11 3370
349 11 117
351 11 4959
353 11 54
354 11 2695
355 11 4506
356 11 23
357 11 12
358 11 2662
359 11 3413
360 11 4732
361 11 5551
362 11 4389
363 11 2254
364 11 240
365 11 3176
366 11 100
367 11 2669
368 11 2962
369 11 6
370 11 2411
371 11 113
372 11 28
373 11 1959
374 11 3898
375 11 31
376 11 21
377 11 66
378 11 1066
379 11 3794
380 11 5
381 11 14
382 11 51
383 11 3
384 11 32
385 11 21
387 11 95
388 11 3487
390 11 125
391 11 179
392 11 1023
393 11 25
394 11 3172
395 11 23
396 11 2908
397 11 3759
398 11 3402
399 11 81
400 11 1764
401 11 19
402 11 24
403 11 3544
404 11 15
405 11 4810
406 11 4
407 11 95
408 11 33
409 11 27
410 11 4182
411 11 54
412 11 66
413 11 162
414 11 54
415 11 40
416 11 4300
418 11 7
419 11 162
422 11 5513
423 11 56
424 11 1865
425 11 40
426 11 83
427 11 4151
428 11 386
429 11 4825
430 11 81
431 11 3311
432 11 3287
433 11 2345
434 11 3579
435 11 3
436 11 3982
437 11 5953
438 11 76
439 11 23
440 11 3068
441 11 173
442 11 2856
443 11 3543
444 11 67
445 11 89
446 11 3676
447 11 7
448 11 5179
449 11 4270
450 11 4614
451 11 2814
452 11 5386
453 11 136
454 11 3074
455 11 58
456 11 2826
458 11 91
459 11 4047
460 11 36
461 11 3686
462 11 3
463 11 6435
464 11 4823
465 11 4413
466 11 6
467 11 3253
468 11 484
469 11 78
470 11 22
472 11 3821
473 11 29
474 11 113
475 11 3876
476 11 54
477 11 2717
478 11 2
479 11 88
480 11 8
481 11 6154
482 11 2732
483 11 3406
484 11 2458
485 11 4501
486 11 4
487 11 6719
488 11 4036
489 11 7
491 11 3160
492 11 5141
493 11 4060
494 11 4845
495 11 80
496 11 2027
497 11 3157
498 11 5668
500 11 74
1 12 760
2 12 1379
3 12 981
7 12 1081
8 12 708
9 12 2
10 12 1898
11 12 380
12 12 176
14 12 515
15 12 1069
17 12 27
18 12 202
21 12 313
22 12 1495
24 12 29
25 12 880
26 12 499
28 12 456
29 12 4
30 12 555
31 12 1263
32 12 1784
33 12 495
34 12 9
35 12 6
36 12 977
37 12 319
38 12 13
39 12 497
40 12 905
41 12 24
45 12 5
46 12 935
50 12 8
51 12 2
53 12 180
55 12 367
56 12 101
57 12 1055
58 12 2
59 12 151
60 12 4
61 12 1358
63 12 470
66 12 24
67 12 990
68 12 1209
69 12 393
70 12 10
71 12 1301
72 12 1766
73 12 1232
74 12 937
75 12 830
77 12 38
78 12 27
79 12 587
80 12 122
81 12 9
82 12 1196
84 12 14
85 12 482
86 12 1027
87 12 535
88 12 9
89 12 1044
91 12 754
92 12 404
96 12 889
97 12 179
98 12 374
99 12 850
100 12 549
101 12 24
103 12 880
104 12 752
106 12 1913
107 12 1413
108 12 1495
109 12 533
110 12 1323
112 12 3
113 12 894
114 12 661
115 12 21
116 12 957
117 12 7
118 12 719
119 12 8
120 12 1015
121 12 6
122 12 7
124 12 529
125 12 585
126 12 2092
127 12 10
129 12 153
130 12 1377
131 12 157
132 12 444
133 12 5
134 12 5
136 12 34
139 12 344
141 12 513
143 12 15
145 12 1642
146 12 2106
147 12 774
148 12 238
149 12 654
150 12 42
152 12 1229
153 12 5
154 12 442
156 12 1453
158 12 140
159 12 645
163 12 5
164 12 1197
165 12 722
168 12 483
170 12 9
171 12 994
172 12 308
173 12 2026
175 12 1566
176 12 3
177 12 6
178 12 21
179 12 923
180 12 487
181 12 497
182 12 1655
183 12 1325
184 12 20
185 12 224
186 12 5
187 12 1049
189 12 504
191 12 5
192 12 651
194 12 450
195 12 831
196 12 574
197 12 855
198 12 24
199 12 26
200 12 5
201 12 275
203 12 58
204 12 3
205 12 623
208 12 8
211 12 540
212 12 4
214 12 590
215 12 10
216 12 522
217 12 353
219 12 257
220 12 1221
221 12 1345
222 12 12
225 12 1093
228 12 990
229 12 1097
230 12 4
231 12 990
232 12 6
234 12 432
235 12 32
236 12 805
237 12 5
238 12 6
239 12 999
240 12 6
243 12 12
245 12 1050
247 12 5
249 12 27
250 12 22
251 12 848
255 12 583
256 12 456
257 12 208
258 12 25
259 12 894
261 12 27
262 12 812
264 12 6
265 12 886
266 12 1447
267 12 49
268 12 511
271 12 9
272 12 2
273 12 786
274 12 492
275 12 843
276 12 1027
277 12 3
278 12 656
279 12 4
280 12 9
281 12 543
282 12 474
283 12 95
284 12 1407
287 12 21
288 12 29
289 12 561
290 12 22
291 12 1442
293 12 31
294 12 849
295 12 113
296 12 964
298 12 556
299 12 25
300 12 472
301 12 414
302 12 569
303 12 1089
305 12 961
306 12 1162
307 12 617
308 12 58
309 12 505
310 12 1007
311 12 229
312 12 1111
314 12 1172
315 12 50
316 12 600
319 12 1273
320 12 947
323 12 453
325 12 651
327 12 203
328 12 1
330 12 9
331 12 965
332 12 509
333 12 7
334 12 1278
335 12 7
336 12 1598
337 12 948
339 12 9
340 12 1311
342 12 846
343 12 317
344 12 810
345 12 720
346 12 1045
347 12 24
348 12 105
349 12 534
350 12 716
351 12 4
352 12 638
353 12 538
355 12 19
356 12 328
357 12 739
361 12 9
364 12 171
366 12 817
369 12 1760
371 12 825
372 12 1613
374 12 52
375 12 500
376 12 1424
377 12 789
380 12 555
381 12 599
382 12 960
383 12 631
384 12 1130
385 12 752
386 12 1136
387 12 647
389 12 1176
390 12 622
391 12 95
393 12 503
394 12 3
395 12 1912
399 12 1048
401 12 1021
402 12 849
404 12 757
406 12 1153
407 12 1144
408 12 1068
409 12 640
410 12 27
411 12 1159
412 12 359
413 12 1941
414 12 492
415 12 1795
416 12 1
417 12 531
418 12 564
419 12 159
420 12 961
421 12 1335
422 12 7
423 12 1641
425 12 564
426 12 524
428 12 86
430 12 1186
431 12 28
434 12 3
435 12 356
436 12 3
438 12 1277
439 12 835
441 12 345
443 12 2
444 12 1186
445 12 887
447 12 496
449 12 4
451 12 6
453 12 502
455 12 2000
457 12 714
458 12 1162
460 12 413
461 12 9
462 12 357
466 12 894
467 12 21
468 12 22
469 12 514
470 12 1551
471 12 1467
472 12 2
473 12 795
474 12 1096
475 12 17
476 12 1410
478 12 933
479 12 347
480 12 1198
482 12 70
484 12 7
485 12 2
486 12 1233
488 12 5
489 12 828
490 12 437
492 12 9
493 12 28
495 12 747
496 12 3
497 12 3
498 12 9
499 12 1004
500 12 2417
1 13 61
2 13 66
3 13 47
4 13 1774
5 13 3076
6 13 1190
7 13 24
9 13 2171
11 13 32
12 13 482
13 13 2047
14 13 52
16 13 1515
17 13 1460
18 13 6
19 13 1425
20 13 1273
22 13 9
23 13 798
24 13 1333
25 13 11
27 13 337
28 13 4
29 13 1775
31 13 3
32 13 63
33 13 4
34 13 1876
35 13 903
36 13 67
37 13 23
38 13 967
39 13 6
40 13 8
41 13 1340
42 13 2277
43 13 1086
44 13 2439
45 13 2577
46 13 3
47 13 1074
48 13 1176
49 13 804
50 13 960
51 13 1502
52 13 1147
53 13 1
54 13 1105
55 13 87
56 13 91
58 13 1397
59 13 5
60 13 1464
61 13 32
62 13 2621
63 13 299
64 13 1551
65 13 2942
66 13 2286
67 13 6
68 13 5
69 13 25
70 13 1011
71 13 4
72 13 77
75 13 28
76 13 1733
77 13 353
78 13 1884
79 13 64
80 13 92
81 13 2523
82 13 3
83 13 1240
84 13 2042
85 13 19
87 13 4
88 13 1084
90 13 2028
92 13 19
93 13 2799
94 13 2783
95 13 1217
96 13 4
98 13 28
100 13 34
101 13 1837
102 13 1668
103 13 7
104 13 31
105 13 369
107 13 4
108 13 4
109 13 3
110 13 5
111 13 1745
112 13 1956
113 13 5
114 13 28
115 13 3336
117 13 711
119 13 2264
120 13 4
121 13 816
122 13 1000
123 13 1374
124 13 152
127 13 1854
128 13 1071
129 13 210
130 13 6
131 13 6
132 13 5
133 13 917
134 13 1861
135 13 2534
136 13 1501
137 13 2890
138 13 701
139 13 16
140 13 805
141 13 53
142 13 334
143 13 1026
144 13 1530
145 13 7
146 13 32
147 13 8
148 13 344
149 13 5
150 13 3037
151 13 1658
152 13 3
153 13 876
154 13 23
155 13 2082
157 13 1743
158 13 9
159 13 1
160 13 1052
161 13 812
162 13 865
163 13 1334
164 13 9
165 13 25
166 13 2796
167 13 1211
168 13 10
169 13 1184
170 13 1656
171 13 8
174 13 1779
175 13 36
176 13 1771
177 13 1647
178 13 1218
183 13 62
184 13 2182
185 13 81
186 13 1393
187 13 58
188 13 1241
189 13 6
190 13 715
191 13 1165
192 13 3
193 13 1068
194 13 2
195 13 4
196 13 4
197 13 5
198 13 2300
199 13 1052
200 13 979
202 13 1847
203 13 1590
204 13 1539
206 13 1176
207 13 1456
208 13 1439
209 13 1161
210 13 719
211 13 5
212 13 786
213 13 2493
214 13 8
215 13 1206
216 13 6
217 13 3
218 13 883
219 13 94
220 13 8
221 13 67
222 13 877
223 13 1661
224 13 1192
226 13 2500
227 13 1239
228 13 7
229 13 5
230 13 1646
231 13 16
232 13 2017
233 13 3253
234 13 6
235 13 828
237 13 860
238 13 1001
239 13 27
240 13 1695
241 13 2573
242 13 1563
243 13 1666
244 13 2059
245 13 3
246 13 1974
247 13 286
248 13 1574
249 13 159
250 13 1063
251 13 5
252 13 1317
253 13 1182
254 13 1798
255 13 123
256 13 3
257 13 864
258 13 2025
260 13 1143
261 13 1685
262 13 23
263 13 1143
264 13 1525
265 13 24
267 13 1825
268 13 6
269 13 2029
270 13 891
271 13 1249
272 13 1822
274 13 97
276 13 2
277 13 800
278 13 25
279 13 1358
280 13 1160
281 13 5
282 13 389
283 13 2388
284 13 67
285 13 1749
286 13 1898
287 13 1804
288 13 3275
289 13 5
290 13 1613
291 13 147
292 13 1367
293 13 126
296 13 5
297 13 1131
298 13 7
299 13 670
302 13 8
304 13 1377
305 13 190
306 13 6
308 13 1230
310 13 34
313 13 1328
314 13 8
315 13 168
316 13 6
317 13 1706
318 13 529
319 13 6
320 13 8
321 13 1330
322 13 986
323 13 24
324 13 1130
325 13 6
326 13 693
327 13 5
328 13 999
329 13 1473
330 13 1413
332 13 10
333 13 771
335 13 1735
336 13 22
337 13 23
338 13 1790
339 13 1103
340 13 25
341 13 1245
342 13 7
343 13 26
344 13 4
345 13 29
346 13 9
347 13 2182
348 13 52
349 13 6
351 13 1918
353 13 7
354 13 1135
355 13 1108
356 13 664
358 13 1331
359 13 1213
360 13 922
361 13 1443
362 13 1666
363 13 1746
365 13 850
366 13 62
367 13 1146
368 13 1549
369 13 29
370 13 668
371 13 5
373 13 1299
374 13 1618
377 13 4
378 13 2673
379 13 1254
381 13 8
382 13 57
386 13 9
388 13 1127
389 13 4
390 13 27
391 13 632
392 13 1813
393 13 25
394 13 1264
396 13 1039
397 13 910
398 13 893
399 13 89
400 13 1927
403 13 1201
405 13 1793
407 13 7
410 13 1499
412 13 5
414 13 7
416 13 1164
418 13 11
419 13 2095
420 13 3
422 13 3061
423 13 24
424 13 1066
427 13 2627
428 13 1218
429 13 798
430 13 34
431 13 2460
432 13 1863
433 13 2734
434 13 1528
435 13 10
436 13 2021
437 13 1851
438 13 4
439 13 37
440 13 2301
441 13 9
442 13 1039
443 13 848
445 13 71
446 13 1011
447 13 4
448 13 2569
449 13 1178
450 13 1277
451 13 1742
452 13 2464
453 13 31
454 13 2217
456 13 1746
458 13 3
459 13 687
461 13 1072
462 13 86
463 13 2036
464 13 1118
465 13 1346
466 13 27
467 13 1482
468 13 466
470 13 6
471 13 5
472 13 1951
475 13 1380
476 13 26
477 13 1822
478 13 8
479 13 578
481 13 2942
482 13 1348
483 13 1216
484 13 1794
485 13 1910
487 13 121
488 13 1993
489 13 24
490 13 98
491 13 2383
492 13 2726
493 13 132
494 13 706
495 13 32
496 13 2551
497 13 891
498 13 189
1 14 4188
2 14 7615
3 14 3242
4 14 2
5 14 3
6 14 8
7 14 114
8 14 4540
9 14 8
10 14 12401
11 14 5697
12 14 36
13 14 19
14 14 2760
15 14 11424
16 14 6
18 14 7158
19 14 4
21 14 213
22 14 13294
23 14 7
24 14 21
25 14 9059
26 14 4987
27 14 20
28 14 8381
29 14 36
30 14 7310
31 14 5720
32 14 5610
33 14 1226
34 14 59
35 14 5
36 14 11333
37 14 6808
38 14 46
39 14 10625
40 14 5638
41 14 19
42 14 26
43 14 55
44 14 15
45 14 84
46 14 9427
47 14 443
48 14 6
49 14 4
51 14 7
52 14 17
53 14 7121
55 14 4846
56 14 8051
57 14 8682
58 14 194
59 14 7156
60 14 19
61 14 5086
62 14 5
64 14 56
65 14 6
66 14 71
67 14 10024
68 14 4137
69 14 8514
70 14 22
71 14 11469
72 14 8418
73 14 6476
74 14 9486
75 14 8091
76 14 18
77 14 7629
79 14 11000
80 14 10477
81 14 868
82 14 6969
83 14 4
84 14 5
85 14 463
86 14 2250
87 14 9092
89 14 13582
90 14 84
91 14 7397
92 14 10142
93 14 57
94 14 105
95 14 5
96 14 10131
97 14 10414
98 14 2576
99 14 1513
100 14 11344
101 14 159
102 14 58
103 14 7560
104 14 5947
105 14 29
106 14 12037
107 14 9605
108 14 6390
109 14 4131
110 14 10528
111 14 4
112 14 38
113 14 10781
114 14 7772
115 14 27
116 14 10139
117 14 59
118 14 2096
119 14 56
120 14 2794
121 14 6
122 14 26
123 14 22
124 14 75
125 14 419
126 14 5898
128 14 3298
129 14 184
130 14 8703
131 14 11487
132 14 8448
133 14 10
135 14 31
136 14 9
138 14 60
139 14 7038
140 14 13
141 14 4538
142 14 33
143 14 48
145 14 5578
146 14 9530
147 14 4272
148 14 17
149 14 7474
150 14 81
151 14 10
152 14 6751
153 14 5
154 14 60
155 14 5
156 14 7376
157 14 17
158 14 10991
159 14 1133
160 14 2
161 14 103
162 14 11
163 14 34
164 14 6940
165 14 10477
166 14 57
167 14 54
168 14 2825
169 14 7
170 14 12
171 14 12256
172 14 4803
173 14 10760
174 14 7
175 14 8391
176 14 3
177 14 309
178 14 30
179 14 8384
180 14 6834
181 14 9471
182 14 5876
183 14 4880
184 14 52
185 14 113
186 14 51
187 14 7855
188 14 42
189 14 11438
190 14 50
191 14 7
192 14 5432
193 14 143
194 14 6787
195 14 5610
196 14 10033
197 14 7758
198 14 53
199 14 45
200 14 29
201 14 4906
202 14 24
203 14 119
204 14 25
205 14 12822
206 14 34
207 14 17
208 14 4
209 14 29
210 14 16
211 14 4280
212 14 16
213 14 51
214 14 5051
215 14 4
216 14 10126
217 14 6436
219 14 6284
220 14 6781
221 14 7527
222 14 5
223 14 4
224 14 18
225 14 5996
226 14 18
227 14 7
228 14 2736
229 14 2230
231 14 5368
232 14 74
233 14 138
234 14 5567
235 14 6
236 14 9735
238 14 6
239 14 210
240 14 8
241 14 37
242 14 5
243 14 6
244 14 37
245 14 10855
247 14 5081
248 14 27
249 14 8505
250 14 80
251 14 14932
253 14 52
255 14 7410
256 14 6868
257 14 56
258 14 150
259 14 7853
260 14 16
261 14 81
262 14 8881
263 14 5
264 14 2389
265 14 8334
266 14 7306
267 14 21
268 14 9172
269 14 53
270 14 4
271 14 144
272 14 417
273 14 2630
274 14 60
275 14 9782
276 14 2761
277 14 56
278 14 4124
279 14 60
281 14 9193
282 14 65
283 14 7
284 14 6389
285 14 9
286 14 48
287 14 23
288 14 22
289 14 10288
290 14 4
291 14 6682
293 14 11149
294 14 8141
295 14 3734
296 14 5377
297 14 3
298 14 9005
299 14 29
300 14 9451
301 14 159
302 14 7461
303 14 2487
304 14 18
305 14 6799
306 14 5460
307 14 5452
308 14 6
309 14 6587
310 14 9163
311 14 12956
312 14 9020
314 14 2367
315 14 7395
316 14 7102
317 14 94
318 14 15
319 14 10033
320 14 10184
321 14 68
322 14 18
323 14 77
324 14 5
325 14 4957
326 14 44
327 14 8147
329 14 36
330 14 5
331 14 6858
332 14 7440
333 14 62
334 14 3623
335 14 6
336 14 6581
337 14 678
338 14 25
340 14 4045
341 14 3
342 14 3673
343 14 6964
344 14 7770
345 14 7211
346 14 6331
347 14 11
348 14 6167
349 14 11062
350 14 4714
351 14 56
352 14 5045
353 14 7882
354 14 6
355 14 42
356 14 28
357 14 7733
358 14 64
359 14 36
360 14 411
361 14 745
362 14 8
363 14 14
364 14 10342
365 14 11
366 14 5355
367 14 4
368 14 36
369 14 6959
370 14 15
371 14 6214
372 14 8728
373 14 58
374 14 3
375 14 6744
376 14 5103
377 14 4190
378 14 55
379 14 6
380 14 5392
381 14 9008
382 14 203
383 14 10086
384 14 6379
385 14 10398
386 14 9467
387 14 6921
389 14 9070
390 14 8097
391 14 28
392 14 6
393 14 9972
394 14 8
395 14 6140
396 14 13
397 14 3942
399 14 6240
400 14 2
401 14 5359
402 14 9770
403 14 32
404 14 4700
405 14 9
406 14 8265
407 14 6908
408 14 2263
409 14 7057
410 14 55
411 14 1609
412 14 128
413 14 7601
414 14 4769
415 14 8968
416 14 27
417 14 5252
418 14 10433
419 14 4
420 14 9016
421 14 4977
422 14 487
423 14 6622
425 14 7008
426 14 9865
427 14 9
428 14 7
429 14 17
430 14 8504
431 14 4
432 14 46
433 14 45
434 14 27
435 14 8574
436 14 31
437 14 16
438 14 8817
439 14 8781
440 14 42
441 14 6102
442 14 18
443 14 24
444 14 6274
445 14 5483
446 14 61
447 14 7639
448 14 98
449 14 24
450 14 18
453 14 211
455 14 13158
456 14 21
457 14 6659
458 14 1967
459 14 1
460 14 5091
461 14 16
462 14 6004
463 14 60
464 14 24
466 14 4129
467 14 11
468 14 49
469 14 7014
470 14 9524
471 14 7585
472 14 69
473 14 9193
474 14 9446
476 14 6915
477 14 41
478 14 14379
479 14 9
480 14 6499
481 14 2
484 14 89
486 14 10649
487 14 6028
488 14 211
489 14 9438
490 14 7717
492 14 67
493 14 11017
494 14 52
495 14 4083
496 14 29
498 14 9855
499 14 8406
500 14 10415
1 15 1456
2 15 2760
3 15 362
4 15 53
8 15 702
10 15 2577
11 15 1175
13 15 3
14 15 148
15 15 1599
18 15 1781
19 15 9
22 15 1869
25 15 2434
26 15 964
28 15 3068
29 15 7
30 15 1898
31 15 2474
32 15 796
33 15 64
34 15 26
36 15 1906
37 15 3056
39 15 2518
40 15 2026
43 15 4
46 15 3672
47 15 495
49 15 9
53 15 1820
55 15 749
56 15 2443
57 15 1968
58 15 564
59 15 2507
60 15 25
61 15 1937
67 15 2315
68 15 2032
69 15 2482
71 15 3094
72 15 2918
73 15 1225
74 15 2174
75 15 1553
77 15 2863
79 15 3337
80 15 1931
81 15 699
82 15 2869
85 15 66
86 15 7
87 15 3108
89 15 2401
91 15 1643
92 15 1346
94 15 5
96 15 1808
97 15 2639
98 15 281
99 15 98
100 15 3173
101 15 280
103 15 1629
104 15 1464
106 15 1744
107 15 1982
108 15 2419
109 15 702
110 15 3310
112 15 6
113 15 2941
114 15 2254
116 15 2201
118 15 65
120 15 96
121 15 9
126 15 3378
128 15 2876
130 15 2695
131 15 1851
132 15 3098
135 15 125
137 15 5
139 15 561
141 15 938
145 15 3754
146 15 3554
147 15 1145
148 15 5
149 15 2564
152 15 2467
156 15 2161
158 15 4418
159 15 122
164 15 2596
165 15 2066
166 15 54
168 15 236
171 15 4821
172 15 483
173 15 2233
175 15 2088
177 15 652
179 15 2741
180 15 2430
181 15 2943
182 15 398
183 15 1369
185 15 5
186 15 7
187 15 1541
189 15 2459
192 15 1480
193 15 24
194 15 3307
195 15 1604
196 15 1574
197 15 2499
201 15 552
205 15 2828
207 15 5
211 15 2171
214 15 1861
216 15 2099
217 15 2214
219 15 2655
220 15 1568
221 15 3568
225 15 2050
228 15 125
229 15 165
231 15 2485
233 15 219
234 15 1052
236 15 2831
239 15 8
241 15 86
245 15 2492
247 15 3632
249 15 1508
251 15 6351
253 15 8
254 15 4
255 15 3234
256 15 3365
258 15 183
259 15 1350
262 15 3424
264 15 2466
265 15 4635
266 15 2143
268 15 3003
271 15 218
272 15 1743
273 15 186
274 15 3
275 15 3925
276 15 129
278 15 2331
281 15 2118
284 15 1411
286 15 4
287 15 5
289 15 2163
290 15 8
291 15 2003
293 15 3307
294 15 2471
295 15 802
296 15 3072
298 15 2823
300 15 2593
302 15 1759
303 15 159
304 15 4
305 15 1446
306 15 2218
307 15 4270
309 15 1717
310 15 4487
311 15 1356
312 15 3391
314 15 116
315 15 2915
316 15 1588
319 15 2955
320 15 4427
325 15 1677
327 15 2061
331 15 3866
332 15 1768
334 15 874
336 15 1557
337 15 59
339 15 9
340 15 439
342 15 226
343 15 564
344 15 936
345 15 577
346 15 1494
348 15 2393
349 15 4194
350 15 919
352 15 1315
353 15 3617
357 15 1515
360 15 1016
361 15 1011
364 15 2532
366 15 1503
369 15 2227
371 15 3793
372 15 2918
375 15 3042
376 15 3861
377 15 1777
378 15 6
380 15 2957
381 15 2182
382 15 64
383 15 2385
384 15 1873
385 15 2751
386 15 2063
387 15 2090
389 15 2685
390 15 1135
391 15 6
393 15 2842
395 15 2923
397 15 3078
399 15 2282
401 15 2311
402 15 3930
404 15 1724
406 15 3417
407 15 2215
408 15 8
409 15 2837
411 15 29
413 15 3955
414 15 1501
415 15 5166
417 15 2840
418 15 2867
420 15 2548
421 15 1851
422 15 1722
423 15 1582
425 15 1362
426 15 3582
427 15 8
430 15 2091
431 15 5
433 15 6
435 15 2647
438 15 5071
439 15 3305
441 15 1530
444 15 3479
445 15 1231
447 15 3554
450 15 7
455 15 3821
457 15 1358
460 15 1627
462 15 2762
463 15 177
466 15 225
468 15 7
469 15 1571
470 15 3944
471 15 2281
473 15 2513
474 15 3349
476 15 3077
478 15 5432
480 15 1175
481 15 26
486 15 2252
487 15 2130
488 15 506
489 15 2271
490 15 2104
492 15 1
493 15 3304
495 15 1180
498 15 2279
499 15 1554
500 15 2690
1 16 91
2 16 2324
4 16 317
8 16 24
10 16 2801
11 16 272
13 16 666
14 16 4
15 16 2029
18 16 1160
22 16 1945
25 16 1219
26 16 83
28 16 2732
30 16 2254
31 16 2629
32 16 207
34 16 344
36 16 2846
37 16 3298
39 16 1777
40 16 1238
46 16 1017
47 16 520
49 16 5
51 16 11
53 16 1128
55 16 174
56 16 2106
57 16 1968
58 16 2694
59 16 3349
61 16 1194
62 16 20
67 16 1621
68 16 330
69 16 1964
71 16 1829
72 16 1985
73 16 52
74 16 1870
75 16 963
77 16 2586
79 16 2146
80 16 2111
81 16 1253
82 16 2736
87 16 1375
89 16 2028
91 16 277
92 16 3280
94 16 171
96 16 1384
97 16 1590
100 16 1736
101 16 1109
103 16 1648
104 16 2024
106 16 1585
107 16 1917
108 16 1493
109 16 164
110 16 1866
113 16 2207
114 16 1223
116 16 1816
123 16 200
126 16 2009
128 16 964
130 16 1050
131 16 2273
132 16 2714
135 16 407
139 16 107
141 16 397
145 16 3604
146 16 2169
147 16 151
149 16 1678
150 16 105
152 16 2534
156 16 858
158 16 2028
159 16 6
164 16 2581
165 16 1796
166 16 595
171 16 3224
172 16 227
173 16 863
174 16 7
175 16 1553
177 16 1449
179 16 1473
180 16 1825
181 16 2010
182 16 24
183 16 1750
187 16 1005
189 16 2958
192 16 383
194 16 2066
195 16 1670
196 16 2299
197 16 1988
201 16 210
205 16 1814
211 16 323
214 16 1522
216 16 1037
217 16 1188
219 16 1746
220 16 2914
221 16 2178
225 16 1728
231 16 1794
233 16 1183
234 16 216
236 16 2062
241 16 377
245 16 885
247 16 1744
249 16 2088
251 16 1556
255 16 2714
256 16 2043
258 16 539
259 16 1749
262 16 1852
264 16 1361
265 16 2886
266 16 873
268 16 1303
271 16 1130
272 16 1292
273 16 5
275 16 1819
278 16 729
281 16 614
284 16 227
289 16 1055
291 16 2566
293 16 3217
294 16 1910
295 16 1660
296 16 887
298 16 1989
300 16 1284
302 16 2022
305 16 771
306 16 2817
307 16 1951
309 16 3637
310 16 4373
311 16 1108
312 16 674
315 16 1019
316 16 2714
317 16 105
319 16 1962
320 16 1274
325 16 206
327 16 1785
331 16 2403
332 16 1985
334 16 173
336 16 2745
340 16 21
343 16 111
344 16 1842
345 16 353
346 16 2086
348 16 1108
349 16 2337
350 16 896
352 16 1540
353 16 1248
357 16 1665
360 16 1662
361 16 1450
364 16 1570
366 16 53
369 16 1844
371 16 1988
372 16 1679
375 16 1189
376 16 4456
377 16 65
380 16 1519
381 16 2422
383 16 1952
384 16 1554
385 16 2577
386 16 2863
387 16 2500
389 16 1742
390 16 1512
393 16 2096
395 16 931
397 16 1788
399 16 658
401 16 2463
402 16 1908
404 16 257
406 16 1463
407 16 677
409 16 1487
413 16 2003
414 16 2
415 16 2632
417 16 1338
418 16 2055
420 16 1253
421 16 1741
422 16 1215
423 16 2615
425 16 121
426 16 3307
430 16 2428
431 16 207
434 16 306
435 16 3736
438 16 898
439 16 1903
441 16 2008
444 16 2078
445 16 331
447 16 1514
448 16 157
452 16 4
455 16 2159
457 16 267
460 16 1679
462 16 3111
463 16 1031
466 16 6
469 16 917
470 16 2305
471 16 1998
473 16 763
474 16 1809
476 16 1394
478 16 1894
480 16 46
481 16 5
486 16 2564
487 16 581
488 16 3120
489 16 1057
490 16 1089
491 16 5
492 16 243
493 16 3161
495 16 87
496 16 4
498 16 638
499 16 1930
500 16 2750
2 17 2479
4 17 1867
10 17 1662
11 17 63
13 17 2133
15 17 3044
17 17 82
18 17 1902
22 17 3539
25 17 1047
28 17 3093
30 17 2871
31 17 2708
34 17 3146
35 17 116
36 17 4245
37 17 1482
39 17 4024
40 17 1683
46 17 1512
47 17 3074
49 17 487
53 17 1931
55 17 7
56 17 1566
57 17 1316
58 17 3169
59 17 2207
61 17 892
62 17 402
67 17 3069
69 17 1751
71 17 1742
72 17 1522
74 17 211
75 17 3414
77 17 2683
79 17 2614
80 17 1596
81 17 2185
82 17 3418
83 17 105
87 17 2409
89 17 2697
91 17 54
92 17 3922
94 17 226
96 17 1703
97 17 2155
100 17 1843
101 17 1739
103 17 2422
104 17 2415
106 17 2361
107 17 1878
108 17 287
110 17 215
113 17 2874
114 17 2109
116 17 2276
123 17 974
126 17 3294
128 17 3237
130 17 476
131 17 2135
132 17 3130
135 17 2398
138 17 7
141 17 83
144 17 9
145 17 2541
146 17 745
149 17 2869
150 17 581
152 17 4013
156 17 2317
158 17 2649
164 17 4095
165 17 4280
166 17 1056
171 17 2961
173 17 1577
175 17 640
177 17 1934
179 17 835
180 17 1209
181 17 1878
183 17 2888
187 17 509
189 17 1121
192 17 59
193 17 3
194 17 2585
195 17 1769
196 17 1973
197 17 1377
202 17 33
203 17 10
205 17 1730
208 17 6
211 17 180
214 17 451
216 17 3095
217 17 923
219 17 2842
220 17 1993
221 17 1126
223 17 54
225 17 4917
226 17 5
231 17 2412
233 17 3323
234 17 64
236 17 1369
241 17 2303
245 17 220
247 17 1957
249 17 2886
251 17 3369
253 17 111
254 17 108
255 17 2676
256 17 2664
258 17 1187
259 17 591
262 17 3548
264 17 2060
265 17 2034
266 17 2314
268 17 2572
271 17 1951
272 17 2728
275 17 2337
278 17 249
281 17 1005
284 17 22
289 17 3066
290 17 235
291 17 912
293 17 2511
294 17 838
295 17 1199
296 17 550
298 17 4518
300 17 2909
302 17 1527
305 17 2060
306 17 2290
307 17 2725
309 17 1085
310 17 4350
311 17 2144
312 17 1474
315 17 2599
316 17 2172
317 17 1662
319 17 602
320 17 1901
325 17 21
327 17 2369
331 17 1837
332 17 1526
336 17 3011
344 17 875
345 17 121
346 17 356
348 17 2432
349 17 3674
350 17 159
351 17 5
352 17 447
353 17 1132
357 17 1041
360 17 1867
361 17 1839
364 17 2253
369 17 4801
371 17 1080
372 17 2419
374 17 118
375 17 1213
376 17 2324
380 17 2697
381 17 3059
383 17 3111
384 17 2885
385 17 1821
386 17 3369
387 17 1995
389 17 2246
390 17 1758
393 17 2894
395 17 2023
397 17 2450
399 17 335
401 17 2633
402 17 2265
406 17 1274
409 17 3493
410 17 139
413 17 1905
415 17 2055
417 17 1386
418 17 2684
420 17 1185
421 17 428
422 17 1659
423 17 3056
426 17 2649
430 17 3173
431 17 1893
434 17 1031
435 17 1699
438 17 2524
439 17 3505
441 17 3425
444 17 1468
445 17 179
447 17 1028
448 17 1304
452 17 555
455 17 4604
457 17 4
460 17 1546
462 17 4621
463 17 3030
469 17 3611
470 17 2539
471 17 2005
473 17 103
474 17 3400
476 17 3515
478 17 2316
481 17 292
486 17 1235
487 17 2228
488 17 3041
489 17 2487
490 17 1240
491 17 219
492 17 1268
493 17 2557
496 17 91
498 17 2202
499 17 1859
500 17 2844
2 18 2893
4 18 921
10 18 266
13 18 968
15 18 852
17 18 538
18 18 1602
22 18 2214
25 18 609
28 18 1815
30 18 2576
31 18 3898
34 18 689
35 18 422
36 18 1101
37 18 1984
39 18 1909
40 18 314
46 18 1091
47 18 1220
49 18 452
53 18 1598
56 18 747
57 18 425
58 18 879
59 18 1268
61 18 114
62 18 822
67 18 1562
69 18 736
71 18 57
72 18 599
74 18 47
75 18 899
77 18 1541
79 18 563
80 18 290
81 18 341
82 18 317
83 18 384
87 18 1327
89 18 1326
92 18 1432
94 18 643
96 18 573
97 18 441
100 18 949
101 18 1436
103 18 1688
104 18 870
106 18 301
107 18 1485
108 18 137
113 18 1073
114 18 837
116 18 1047
122 18 71
123 18 989
126 18 583
128 18 1714
130 18 486
131 18 485
132 18 1901
135 18 517
138 18 6
144 18 27
145 18 1059
146 18 549
149 18 1531
150 18 1382
152 18 2738
156 18 862
158 18 870
164 18 2758
165 18 1143
166 18 684
170 18 28
171 18 1973
173 18 1169
175 18 188
177 18 838
179 18 1042
180 18 1022
181 18 1982
183 18 368
186 18 48
187 18 61
189 18 786
193 18 400
194 18 1201
195 18 765
196 18 1432
197 18 1494
202 18 285
203 18 134
205 18 791
208 18 181
214 18 65
216 18 1087
217 18 26
219 18 926
220 18 1092
221 18 1456
223 18 60
225 18 991
231 18 1565
233 18 1501
236 18 2065
241 18 516
245 18 22
247 18 1313
248 18 31
249 18 1009
251 18 1783
253 18 303
254 18 774
255 18 1823
256 18 1297
258 18 787
262 18 2647
264 18 760
265 18 2288
266 18 800
268 18 1364
271 18 1561
272 18 541
275 18 1069
278 18 25
281 18 1324
289 18 1171
290 18 643
291 18 780
293 18 1263
294 18 200
295 18 1368
296 18 7
298 18 936
300 18 893
302 18 1658
305 18 736
306 18 1079
307 18 1682
309 18 1297
310 18 1677
311 18 1851
312 18 284
315 18 1258
316 18 1653
317 18 1141
319 18 605
320 18 1220
327 18 787
331 18 2200
332 18 1616
336 18 1695
344 18 1162
348 18 1119
349 18 1524
350 18 6
351 18 163
352 18 29
353 18 232
357 18 356
360 18 705
361 18 1648
364 18 441
369 18 1877
371 18 791
372 18 753
374 18 725
375 18 582
376 18 960
380 18 1052
381 18 1044
383 18 517
384 18 1173
385 18 1698
386 18 1250
387 18 267
389 18 1118
390 18 1549
393 18 1063
395 18 491
397 18 1047
401 18 545
402 18 1099
406 18 2388
409 18 616
410 18 266
413 18 1713
415 18 1873
417 18 277
418 18 1746
420 18 610
422 18 1227
423 18 1711
426 18 1491
427 18 130
430 18 1117
431 18 487
434 18 1185
435 18 770
438 18 2916
439 18 2569
441 18 1251
444 18 503
447 18 959
448 18 1329
452 18 562
455 18 1924
460 18 1861
462 18 903
463 18 951
469 18 755
470 18 2345
471 18 1608
474 18 1624
476 18 1038
478 18 2040
481 18 1375
486 18 864
487 18 984
488 18 1352
489 18 2268
490 18 1627
491 18 787
492 18 1285
493 18 1255
496 18 1144
498 18 2138
499 18 278
500 18 766
2 19 2191
4 19 4284
10 19 621
13 19 2474
15 19 5415
17 19 1713
18 19 4458
22 19 4232
25 19 4741
28 19 4211
30 19 4415
31 19 2396
34 19 4317
35 19 2228
36 19 5693
37 19 5648
39 19 4183
40 19 45
45 19 157
46 19 4772
47 19 4101
49 19 3511
53 19 4506
56 19 5475
57 19 73
58 19 2092
59 19 5164
62 19 3849
64 19 43
66 19 5
67 19 5819
69 19 1317
71 19 3
72 19 4258
75 19 8270
77 19 5056
79 19 1644
80 19 2650
81 19 2167
82 19 145
83 19 3525
87 19 4019
89 19 3253
92 19 3822
94 19 3426
96 19 509
97 19 2218
100 19 2536
101 19 2761
102 19 179
103 19 2232
104 19 3501
106 19 213
107 19 3738
113 19 1860
114 19 4776
116 19 9178
122 19 87
123 19 3829
126 19 1830
128 19 3147
130 19 26
131 19 2856
132 19 4153
134 19 113
135 19 2924
136 19 7
138 19 644
144 19 556
145 19 1980
146 19 224
149 19 4042
150 19 1932
152 19 3889
156 19 4119
158 19 1162
164 19 4094
165 19 4499
166 19 2284
167 19 64
170 19 195
171 19 3370
173 19 5600
177 19 2470
179 19 3637
180 19 2953
181 19 2221
183 19 9
184 19 7
186 19 928
189 19 3541
193 19 2216
194 19 3091
195 19 3908
196 19 4663
197 19 3923
198 19 24
202 19 3609
203 19 747
205 19 1991
208 19 2073
216 19 5735
219 19 4710
220 19 3379
221 19 4848
223 19 1309
225 19 2883
231 19 906
233 19 3831
236 19 9639
241 19 2951
247 19 3861
248 19 36
249 19 3134
251 19 5978
253 19 1573
254 19 2707
255 19 4175
256 19 2991
258 19 3027
262 19 5114
264 19 3083
265 19 5842
266 19 4067
268 19 3993
271 19 4567
272 19 2127
275 19 1570
281 19 2873
287 19 3
289 19 5781
290 19 2104
291 19 3847
293 19 1056
294 19 19
295 19 3732
298 19 6156
300 19 3535
302 19 736
305 19 5015
306 19 4811
307 19 5340
309 19 3182
310 19 6667
311 19 3255
312 19 456
315 19 4133
316 19 3182
317 19 3823
319 19 427
320 19 4947
327 19 2095
331 19 5308
332 19 663
336 19 5504
344 19 243
348 19 2426
349 19 3677
351 19 1675
353 19 10
357 19 378
360 19 4229
361 19 4331
364 19 2205
369 19 3063
371 19 2489
372 19 4559
374 19 3715
375 19 4013
376 19 2231
380 19 263
381 19 5280
383 19 3341
384 19 258
385 19 6418
386 19 3641
387 19 179
389 19 4375
390 19 2576
393 19 2418
395 19 3507
397 19 2910
401 19 588
402 19 1631
406 19 4675
409 19 2356
410 19 2871
413 19 3375
415 19 2599
416 19 64
417 19 126
418 19 2556
420 19 4948
422 19 3124
423 19 5263
426 19 4292
427 19 472
429 19 694
430 19 5872
431 19 4042
432 19 59
434 19 3547
435 19 1167
437 19 195
438 19 4180
439 19 5246
440 19 141
441 19 4008
443 19 158
444 19 3706
447 19 2403
448 19 2264
449 19 64
452 19 2376
455 19 5736
460 19 4549
462 19 2276
463 19 4583
469 19 3965
470 19 9007
471 19 4059
474 19 2692
476 19 3745
478 19 3943
481 19 2750
486 19 4918
487 19 2728
488 19 3350
489 19 3630
490 19 6105
491 19 1738
492 19 5052
493 19 1092
496 19 2350
498 19 3117
499 19 172
500 19 3337
2 20 2848
4 20 4905
10 20 118
13 20 4093
15 20 4297
17 20 2532
18 20 5085
22 20 5054
25 20 2216
28 20 2579
30 20 3754
31 20 3510
34 20 2400
35 20 3324
36 20 4258
37 20 8813
39 20 2483
45 20 1584
46 20 4844
47 20 3128
49 20 2602
53 20 5094
56 20 4642
58 20 5204
59 20 4453
62 20 7113
64 20 1920
66 20 30
67 20 3477
69 20 917
72 20 3926
75 20 9109
77 20 4432
79 20 701
80 20 2417
81 20 3603
83 20 2580
87 20 3206
89 20 5186
92 20 5160
94 20 4854
96 20 29
97 20 3615
100 20 1969
101 20 5581
102 20 1269
103 20 2376
104 20 3658
107 20 3169
113 20 175
114 20 4223
116 20 2444
122 20 1346
123 20 3902
126 20 1208
128 20 6550
131 20 3900
132 20 2565
134 20 1078
135 20 3104
136 20 23
138 20 3505
144 20 2260
145 20 4324
149 20 4753
150 20 3318
152 20 6889
156 20 4582
158 20 5216
164 20 7077
165 20 4845
166 20 2321
167 20 645
170 20 1666
171 20 5414
173 20 5007
176 20 56
177 20 2154
179 20 3314
180 20 6024
181 20 4343
184 20 25
186 20 2839
189 20 4258
193 20 4717
194 20 2811
195 20 4382
196 20 4056
197 20 5188
198 20 41
202 20 3022
203 20 2940
204 20 23
205 20 1140
208 20 2716
216 20 4786
219 20 6470
220 20 4170
221 20 5363
223 20 3155
225 20 4046
231 20 121
232 20 6
233 20 2878
236 20 7938
240 20 5
241 20 2946
247 20 3159
248 20 247
249 20 3114
251 20 2917
253 20 3884
254 20 2396
255 20 6806
256 20 2802
258 20 5160
262 20 5906
264 20 7847
265 20 3331
266 20 4499
268 20 3169
269 20 53
271 20 4438
272 20 2754
275 20 8
279 20 6
281 20 6028
287 20 81
289 20 4797
290 20 3132
291 20 3572
293 20 2362
295 20 6554
298 20 4259
300 20 4053
302 20 218
305 20 6344
306 20 6370
307 20 4740
309 20 5401
310 20 9632
311 20 2058
312 20 28
315 20 5304
316 20 3693
317 20 3726
319 20 19
320 20 5464
327 20 2641
331 20 3041
332 20 223
336 20 4770
344 20 6
348 20 3302
349 20 2652
351 20 2051
360 20 5338
361 20 5551
362 20 60
364 20 3466
368 20 7
369 20 4242
371 20 828
372 20 3337
374 20 4001
375 20 5066
376 20 3282
381 20 4853
383 20 4021
385 20 6784
386 20 3416
389 20 1995
390 20 4685
393 20 4503
395 20 4027
397 20 5105
401 20 169
402 20 8
406 20 747
409 20 2410
410 20 5028
413 20 5262
415 20 4655
416 20 558
417 20 8
418 20 1193
420 20 2218
422 20 2090
423 20 4847
426 20 3877
427 20 2232
429 20 1648
430 20 1326
431 20 4961
432 20 144
434 20 4375
435 20 153
437 20 843
438 20 6807
439 20 5853
440 20 425
441 20 4901
443 20 1350
444 20 5019
447 20 806
448 20 4319
449 20 559
452 20 3059
455 20 4489
460 20 5078
462 20 4686
463 20 4786
467 20 62
469 20 5161
470 20 6852
471 20 6329
472 20 10
474 20 360
475 20 27
476 20 1430
478 20 3099
481 20 4837
482 20 23
486 20 4291
487 20 3135
488 20 4187
489 20 2721
490 20 3657
491 20 4889
492 20 5854
493 20 2301
496 20 3754
498 20 3091
500 20 3686
1 21 2016
2 21 4107
3 21 3858
7 21 1377
8 21 3529
10 21 4115
11 21 2889
12 21 6
14 21 2219
15 21 3259
18 21 2104
21 21 2425
22 21 3557
25 21 4497
26 21 2723
28 21 3500
30 21 1839
31 21 5118
32 21 2617
33 21 2875
36 21 3478
37 21 3138
39 21 2939
40 21 3039
46 21 4467
53 21 2116
55 21 3789
56 21 1554
57 21 3346
59 21 2578
61 21 2488
63 21 90
66 21 6
67 21 1917
68 21 2932
69 21 3176
71 21 2853
72 21 2926
73 21 3981
74 21 1954
75 21 4651
77 21 191
79 21 4475
80 21 2308
82 21 4310
85 21 1966
86 21 2424
87 21 3933
89 21 2950
91 21 2402
92 21 1776
96 21 1892
97 21 2432
98 21 1967
99 21 2022
100 21 4203
103 21 3474
104 21 3941
106 21 3160
107 21 2901
108 21 2823
109 21 3305
110 21 3616
113 21 2461
114 21 6045
116 21 4776
118 21 3913
120 21 3014
124 21 81
125 21 2323
126 21 1912
128 21 29
129 21 87
130 21 1617
131 21 1817
132 21 3612
139 21 2556
141 21 3305
145 21 4002
146 21 3483
147 21 4835
148 21 70
149 21 3507
152 21 5268
154 21 840
156 21 3253
158 21 1551
159 21 2801
164 21 5289
165 21 2403
168 21 922
171 21 9086
172 21 2772
173 21 5043
175 21 2498
177 21 4
179 21 3544
180 21 3046
181 21 2429
182 21 3032
183 21 3771
184 21 9
185 21 310
187 21 2514
189 21 3131
192 21 2077
194 21 3147
195 21 2243
196 21 2235
197 21 3099
201 21 2709
205 21 3980
211 21 3955
214 21 1918
216 21 4372
217 21 7440
219 21 3593
220 21 2186
221 21 2637
225 21 2281
228 21 1917
229 21 2546
231 21 3320
234 21 3382
236 21 3680
239 21 2777
245 21 2154
247 21 163
249 21 143
251 21 3854
255 21 1912
256 21 3113
259 21 2506
262 21 2322
264 21 9
265 21 4156
266 21 3209
268 21 3924
272 21 7
273 21 2448
274 21 1158
275 21 3063
276 21 1944
278 21 3172
279 21 6
281 21 2908
282 21 4
284 21 1393
289 21 4498
291 21 2272
293 21 612
294 21 2841
295 21 3979
296 21 3618
298 21 3723
300 21 2919
301 21 873
302 21 5136
303 21 3378
305 21 2825
306 21 3072
307 21 2525
309 21 2084
310 21 2965
311 21 2452
312 21 3689
314 21 2088
315 21 551
316 21 1710
318 21 7
319 21 1836
320 21 2620
323 21 810
325 21 1816
327 21 3636
331 21 3421
332 21 4983
334 21 1923
336 21 3757
337 21 2073
340 21 3429
342 21 1599
343 21 2468
344 21 3413
345 21 3201
346 21 3305
348 21 1758
349 21 4781
350 21 1906
352 21 2443
353 21 1894
356 21 7
357 21 3071
364 21 2444
366 21 2769
369 21 6337
371 21 4029
372 21 2116
375 21 3778
376 21 2949
377 21 4220
380 21 4675
381 21 2857
382 21 2932
383 21 4920
384 21 5077
385 21 4379
386 21 1704
387 21 3558
389 21 3275
390 21 3450
393 21 5142
395 21 1295
397 21 108
399 21 2327
401 21 2826
402 21 3098
404 21 2545
406 21 5359
407 21 2676
408 21 2475
409 21 3622
411 21 2788
412 21 2244
413 21 3694
414 21 2664
415 21 3780
417 21 3038
418 21 3423
420 21 4710
421 21 3399
423 21 3653
425 21 2577
426 21 2935
430 21 5262
435 21 2855
438 21 4072
439 21 2499
441 21 4174
444 21 3084
445 21 3334
447 21 2159
453 21 2016
455 21 3786
457 21 2186
458 21 859
460 21 3769
462 21 2597
466 21 1740
469 21 2054
470 21 5779
471 21 4592
473 21 3123
474 21 3686
476 21 2081
478 21 4891
479 21 5
480 21 3970
486 21 3024
487 21 480
489 21 3456
490 21 2108
493 21 624
495 21 2600
498 21 313
499 21 3861
500 21 4639
1 22 1692
2 22 2325
3 22 1066
4 22 1835
5 22 2177
6 22 1677
7 22 1228
8 22 2334
9 22 1120
10 22 3111
11 22 2989
12 22 2249
13 22 1238
14 22 2547
15 22 3888
16 22 1948
17 22 1611
18 22 2639
19 22 1309
20 22 2310
21 22 1496
22 22 2907
23 22 1478
24 22 2653
25 22 1572
26 22 648
27 22 718
28 22 2052
29 22 2452
30 22 2514
31 22 2570
32 22 1442
33 22 1699
34 22 3648
35 22 1583
36 22 2435
37 22 2031
38 22 1180
39 22 1402
40 22 1538
41 22 2722
42 22 1763
43 22 2165
44 22 1772
45 22 1314
46 22 1578
47 22 2666
48 22 1629
49 22 1879
50 22 1078
51 22 1271
52 22 1092
53 22 2783
54 22 850
55 22 1500
56 22 1288
57 22 1527
58 22 2068
59 22 1361
60 22 1169
61 22 2439
62 22 1032
63 22 1937
64 22 1264
65 22 2165
66 22 1874
67 22 2261
68 22 1392
69 22 4131
70 22 1083
71 22 3487
72 22 2265
73 22 1931
74 22 1554
75 22 2023
76 22 1563
77 22 1550
78 22 1766
79 22 2443
80 22 2206
81 22 2302
82 22 1447
83 22 1808
84 22 1338
85 22 2475
86 22 3011
87 22 2550
88 22 1702
89 22 2303
90 22 1723
91 22 1692
92 22 3201
93 22 1577
94 22 1798
95 22 1677
96 22 2291
97 22 2134
98 22 2537
99 22 1815
100 22 1811
101 22 1471
102 22 2685
103 22 2912
104 22 2276
105 22 779
106 22 2801
107 22 4052
108 22 2281
109 22 1236
110 22 2517
111 22 2330
112 22 1807
113 22 2139
114 22 2595
115 22 2549
116 22 2502
117 22 735
118 22 1139
119 22 1331
120 22 1039
121 22 1242
122 22 2366
123 22 2133
124 22 2430
125 22 2200
126 22 1515
127 22 598
128 22 2354
129 22 1855
130 22 2323
131 22 2276
132 22 2012
133 22 930
134 22 1224
135 22 2743
136 22 1964
137 22 1013
138 22 2065
139 22 1002
140 22 266
141 22 1255
142 22 778
143 22 1255
144 22 2919
145 22 1195
146 22 2830
147 22 1984
148 22 2178
149 22 3082
150 22 966
151 22 2151
152 22 1173
153 22 911
154 22 2138
155 22 2782
156 22 1771
157 22 695
158 22 1800
159 22 2762
160 22 1200
161 22 1533
162 22 250
163 22 1462
164 22 1240
165 22 3052
166 22 2082
167 22 1782
168 22 1535
169 22 1695
170 22 1537
171 22 1496
172 22 1104
173 22 2043
174 22 2207
175 22 3551
176 22 1350
177 22 2217
178 22 2179
179 22 1673
180 22 2028
181 22 1176
182 22 1937
183 22 2680
184 22 1981
185 22 2250
186 22 1843
187 22 1903
188 22 1381
189 22 2340
190 22 1072
191 22 1834
192 22 1299
193 22 2225
194 22 2697
195 22 1749
196 22 1378
197 22 1362
198 22 2808
199 22 1406
200 22 3381
201 22 1149
202 22 1533
203 22 3094
204 22 878
205 22 1804
206 22 1043
207 22 2205
208 22 2389
209 22 1069
210 22 875
211 22 2909
212 22 622
213 22 2919
214 22 1431
215 22 1884
216 22 1949
217 22 1844
218 22 1980
219 22 2424
220 22 2301
221 22 2545
222 22 1156
223 22 2045
224 22 2062
225 22 2201
226 22 1225
227 22 1761
228 22 2113
229 22 3158
230 22 1943
231 22 3186
232 22 1375
233 22 1387
234 22 2139
235 22 2403
236 22 3485
237 22 1363
238 22 742
239 22 2788
240 22 1517
241 22 2648
242 22 2905
243 22 2452
244 22 877
245 22 1540
246 22 1867
247 22 1599
248 22 1532
249 22 1952
250 22 1562
251 22 1972
252 22 790
253 22 1730
254 22 1608
255 22 1504
256 22 2703
257 22 1246
258 22 1637
259 22 1578
260 22 1757
261 22 3276
262 22 1673
263 22 943
264 22 2095
265 22 3213
266 22 1783
267 22 1409
268 22 2601
269 22 1431
270 22 970
271 22 2115
272 22 2731
273 22 1612
274 22 1485
275 22 2732
276 22 2223
277 22 783
278 22 2087
279 22 1152
280 22 1770
281 22 2884
282 22 1186
283 22 1223
284 22 3124
285 22 1296
286 22 1822
287 22 1345
288 22 2478
289 22 1872
290 22 1651
291 22 2422
292 22 1013
293 22 2397
294 22 2710
295 22 3517
296 22 2143
297 22 2270
298 22 2650
299 22 1364
300 22 2310
301 22 2932
302 22 3086
303 22 1183
304 22 2113
305 22 2309
306 22 1725
307 22 4394
308 22 2050
309 22 1902
310 22 3148
311 22 2850
312 22 3879
313 22 774
314 22 1512
315 22 1441
316 22 2578
317 22 2708
318 22 1067
319 22 1515
320 22 2692
321 22 1559
322 22 784
323 22 2117
324 22 921
325 22 1512
326 22 1110
327 22 2382
328 22 1118
329 22 1645
330 22 1636
331 22 2455
332 22 3132
333 22 791
334 22 1850
335 22 1311
336 22 3277
337 22 1007
338 22 1376
339 22 2107
340 22 1682
341 22 1769
342 22 1085
343 22 990
344 22 2534
345 22 2185
346 22 2868
347 22 1861
348 22 3893
349 22 3596
350 22 2621
351 22 1733
352 22 2339
353 22 1263
354 22 902
355 22 1448
356 22 1231
357 22 3226
358 22 1536
359 22 1070
360 22 2191
361 22 2290
362 22 1173
363 22 1148
364 22 2128
365 22 258
366 22 2078
367 22 901
368 22 2081
369 22 1096
370 22 1411
371 22 2023
372 22 2821
373 22 799
374 22 2123
375 22 1121
376 22 3645
377 22 2300
378 22 2624
379 22 1699
380 22 2313
381 22 2511
382 22 2679
383 22 1992
384 22 1446
385 22 2863
386 22 1168
387 22 1754
388 22 875
389 22 1335
390 22 2398
391 22 2651
392 22 1917
393 22 1881
394 22 586
395 22 2946
396 22 797
397 22 1819
398 22 1626
399 22 1890
400 22 1819
401 22 2352
402 22 2787
403 22 1023
404 22 1782
405 22 1054
406 22 3842
407 22 1677
408 22 2886
409 22 2015
410 22 1520
411 22 866
412 22 2782
413 22 2812
414 22 1967
415 22 3223
416 22 1900
417 22 2188
418 22 3279
419 22 3116
420 22 1562
421 22 1627
422 22 526
423 22 3235
424 22 1826
425 22 2138
426 22 1681
427 22 2341
428 22 1893
429 22 1501
430 22 2473
431 22 2414
432 22 2207
433 22 954
434 22 2981
435 22 3092
436 22 1610
437 22 1426
438 22 2271
439 22 1708
440 22 2453
441 22 3613
442 22 766
443 22 1042
444 22 2591
445 22 1110
446 22 2252
447 22 1726
448 22 1877
449 22 1874
450 22 1612
451 22 606
452 22 1308
453 22 1425
454 22 872
455 22 1122
456 22 686
457 22 2339
458 22 1541
459 22 1043
460 22 2920
461 22 893
462 22 3094
463 22 2783
464 22 1182
465 22 1553
466 22 1949
467 22 1879
468 22 2248
469 22 2639
470 22 2470
471 22 1479
472 22 1345
473 22 1553
474 22 1586
475 22 2387
476 22 2478
477 22 721
478 22 3299
479 22 1998
480 22 1818
481 22 2630
482 22 1710
483 22 867
484 22 1390
485 22 866
486 22 1526
487 22 2613
488 22 1517
489 22 1645
490 22 3623
491 22 1910
492 22 1642
493 22 2479
494 22 1276
495 22 2341
496 22 1773
497 22 1980
498 22 2414
499 22 1693
500 22 2938
1 23 5085
2 23 6800
3 23 8033
7 23 1595
8 23 7038
10 23 6645
11 23 6086
12 23 34
14 23 3201
15 23 13202
18 23 3146
21 23 3841
22 23 11632
25 23 8566
26 23 5390
28 23 7439
30 23 5524
31 23 9420
32 23 7757
33 23 9294
34 23 7
36 23 8882
37 23 3576
39 23 7467
40 23 7150
46 23 11994
47 23 24
53 23 3084
55 23 6974
56 23 3917
57 23 6888
58 23 27
59 23 9887
61 23 6327
63 23 106
67 23 6312
68 23 5282
69 23 14826
71 23 6309
72 23 7988
73 23 5346
74 23 7033
75 23 12361
77 23 264
79 23 5852
80 23 3940
82 23 5572
85 23 3986
86 23 3169
87 23 6383
89 23 11195
91 23 4723
92 23 5820
96 23 4491
97 23 7449
98 23 6984
99 23 2954
100 23 8101
103 23 7714
104 23 5618
106 23 6691
107 23 7233
108 23 7256
109 23 7434
110 23 13593
113 23 5665
114 23 8601
116 23 9591
118 23 6398
120 23 6307
124 23 119
125 23 4632
126 23 8525
128 23 61
129 23 153
130 23 7273
131 23 3113
132 23 7453
134 23 9
139 23 6377
141 23 6288
145 23 6661
146 23 5538
147 23 7003
148 23 41
149 23 6179
152 23 9811
154 23 1345
156 23 5160
158 23 6030
159 23 10232
160 23 8
164 23 10188
165 23 7749
168 23 3876
171 23 10551
172 23 8800
173 23 11167
175 23 10875
179 23 9166
180 23 8450
181 23 7322
182 23 6241
183 23 7246
185 23 1825
187 23 5492
189 23 5855
192 23 9834
194 23 10494
195 23 8206
196 23 5778
197 23 8034
200 23 10
201 23 8858
205 23 6676
211 23 5064
214 23 5363
216 23 6673
217 23 10429
219 23 6721
220 23 9540
221 23 8482
225 23 6811
228 23 3539
229 23 7745
231 23 7296
234 23 4407
236 23 8562
239 23 7400
240 23 5
245 23 8269
247 23 1073
249 23 397
251 23 5468
255 23 7434
256 23 10573
259 23 6395
262 23 10468
264 23 130
265 23 10564
266 23 5223
268 23 6384
272 23 24
273 23 8344
274 23 1095
275 23 8058
276 23 3473
278 23 5079
281 23 4796
282 23 28
284 23 6719
289 23 6863
291 23 5320
293 23 4442
294 23 8084
295 23 5888
296 23 4288
298 23 9522
300 23 9736
301 23 2348
302 23 8242
303 23 3143
305 23 3522
306 23 6043
307 23 9015
309 23 7511
310 23 9187
311 23 8049
312 23 7741
314 23 9409
315 23 1161
316 23 4889
319 23 6518
320 23 7136
323 23 1257
325 23 6023
327 23 5385
331 23 9404
332 23 8358
334 23 6534
336 23 8153
337 23 8321
340 23 5992
342 23 4204
343 23 6430
344 23 5900
345 23 8474
346 23 5800
348 23 6062
349 23 9069
350 23 9662
352 23 5620
353 23 4326
356 23 7
357 23 8361
360 23 5
361 23 4
364 23 7384
366 23 5308
369 23 6212
371 23 5730
372 23 9228
375 23 12755
376 23 8087
377 23 6501
380 23 5129
381 23 7729
382 23 3390
383 23 10840
384 23 7511
385 23 9977
386 23 6791
387 23 6441
389 23 6315
390 23 6353
393 23 10937
395 23 10588
397 23 206
399 23 7784
401 23 7067
402 23 8085
404 23 8068
406 23 8730
407 23 4796
408 23 3059
409 23 7023
411 23 3682
412 23 2887
413 23 6590
414 23 6010
415 23 8025
417 23 6514
418 23 9707
420 23 8657
421 23 5441
423 23 8317
425 23 6821
426 23 7434
430 23 10957
435 23 6816
438 23 10131
439 23 10390
441 23 4196
444 23 7924
445 23 6935
447 23 6047
453 23 3184
455 23 6977
457 23 6886
458 23 2645
460 23 3009
462 23 8547
466 23 5120
469 23 12482
470 23 8395
471 23 9966
473 23 4949
474 23 8683
476 23 5341
478 23 9520
480 23 5494
486 23 6855
487 23 2119
489 23 10469
490 23 5797
493 23 4592
495 23 10218
498 23 1562
499 23 8209
500 23 7691
1 24 724
2 24 2398
3 24 1835
4 24 2468
5 24 518
6 24 1165
7 24 1284
8 24 835
9 24 1530
10 24 1802
11 24 1632
12 24 1259
13 24 1979
14 24 1996
15 24 3220
16 24 1786
17 24 1361
18 24 1161
19 24 880
20 24 1591
21 24 1562
22 24 3428
23 24 1048
24 24 1498
25 24 1925
26 24 2163
27 24 442
28 24 1431
29 24 1387
30 24 2496
31 24 1255
32 24 1442
33 24 742
34 24 2027
35 24 1033
36 24 2594
37 24 1066
38 24 750
39 24 1750
40 24 936
41 24 1518
42 24 1365
43 24 1472
44 24 2291
45 24 1051
46 24 846
47 24 2394
48 24 1180
49 24 1490
50 24 901
51 24 1032
52 24 492
53 24 1186
54 24 1379
55 24 1130
56 24 1253
57 24 1505
58 24 1886
59 24 1825
60 24 1433
61 24 1885
62 24 1779
63 24 366
64 24 2177
65 24 482
66 24 1255
67 24 1101
68 24 1337
69 24 2108
70 24 821
71 24 2859
72 24 2444
73 24 1808
74 24 1893
75 24 2512
76 24 568
77 24 1357
78 24 903
79 24 1337
80 24 1741
81 24 2287
82 24 1914
83 24 1586
84 24 766
85 24 2170
86 24 1890
87 24 2374
88 24 1405
89 24 2210
90 24 605
91 24 1497
92 24 1486
93 24 1780
94 24 1408
95 24 1169
96 24 1341
97 24 1128
98 24 2548
99 24 1148
100 24 1687
101 24 1931
102 24 2421
103 24 2705
104 24 1394
105 24 406
106 24 2450
107 24 2345
108 24 1804
109 24 1585
110 24 973
111 24 1303
112 24 620
113 24 2234
114 24 1229
115 24 1730
116 24 1370
117 24 1425
118 24 1875
119 24 537
120 24 1056
121 24 886
122 24 934
123 24 1282
124 24 354
125 24 1387
126 24 2196
127 24 631
128 24 1251
129 24 718
130 24 2128
131 24 1959
132 24 1444
133 24 528
134 24 1385
135 24 1312
136 24 1267
137 24 1146
138 24 1111
139 24 1307
140 24 903
141 24 1512
142 24 432
143 24 813
144 24 1353
145 24 2206
146 24 1381
147 24 1662
148 24 785
149 24 2370
150 24 1330
151 24 615
152 24 1653
153 24 519
154 24 993
155 24 1332
156 24 2710
157 24 832
158 24 610
159 24 1592
160 24 1162
161 24 872
162 24 918
163 24 1112
164 24 1597
165 24 2303
166 24 720
167 24 1199
168 24 624
169 24 1151
170 24 1600
171 24 2288
172 24 1991
173 24 1811
174 24 2588
175 24 1977
176 24 1458
177 24 964
178 24 698
179 24 1111
180 24 1318
181 24 1320
182 24 1105
183 24 363
184 24 1235
185 24 1626
186 24 1754
187 24 2286
188 24 1968
189 24 1765
190 24 847
191 24 700
192 24 2361
193 24 3103
194 24 2072
195 24 764
196 24 2977
197 24 1390
198 24 1671
199 24 1490
200 24 237
201 24 1893
202 24 950
203 24 1668
204 24 1091
205 24 1696
206 24 1221
207 24 963
208 24 840
209 24 1228
210 24 581
211 24 1295
212 24 704
213 24 1134
214 24 1471
215 24 1900
216 24 1492
217 24 1304
218 24 855
219 24 1829
220 24 3730
221 24 2187
222 24 1506
223 24 1441
224 24 862
225 24 865
226 24 1300
227 24 1153
228 24 1723
229 24 645
230 24 1500
231 24 678
232 24 840
233 24 2523
234 24 2391
235 24 422
236 24 1588
237 24 823
238 24 1261
239 24 2543
240 24 951
241 24 1302
242 24 811
243 24 1444
244 24 2035
245 24 1463
246 24 1137
247 24 1598
248 24 2264
249 24 1940
250 24 922
251 24 3046
252 24 682
253 24 1603
254 24 2096
255 24 802
256 24 2151
257 24 262
258 24 1271
259 24 1026
260 24 927
261 24 1685
262 24 1199
263 24 1169
264 24 2534
265 24 2940
266 24 2712
267 24 854
268 24 2320
269 24 1077
270 24 1494
271 24 1025
272 24 1285
273 24 1993
274 24 1266
275 24 1378
276 24 1603
277 24 1433
278 24 1095
279 24 1201
280 24 1363
281 24 2400
282 24 1223
283 24 208
284 24 1612
285 24 1086
286 24 804
287 24 674
288 24 1688
289 24 1557
290 24 1196
291 24 2781
292 24 1056
293 24 1430
294 24 2596
295 24 592
296 24 1458
297 24 1202
298 24 2041
299 24 1038
300 24 1828
301 24 1767
302 24 778
303 24 1597
304 24 1003
305 24 2026
306 24 1780
307 24 1825
308 24 507
309 24 707
310 24 2928
311 24 1944
312 24 1947
313 24 621
314 24 1940
315 24 1249
316 24 2262
317 24 1862
318 24 1042
319 24 2036
320 24 3841
321 24 1165
322 24 919
323 24 1038
324 24 1159
325 24 1266
326 24 884
327 24 1401
328 24 924
329 24 1064
330 24 1312
331 24 1844
332 24 729
333 24 1447
334 24 1615
335 24 1425
336 24 2012
337 24 1286
338 24 1381
339 24 939
340 24 1514
341 24 1182
342 24 1130
343 24 1242
344 24 1597
345 24 920
346 24 1611
347 24 213
348 24 3206
349 24 1011
350 24 1496
351 24 2601
352 24 1638
353 24 2156
354 24 1248
355 24 1529
356 24 121
357 24 3108
358 24 1442
359 24 1281
360 24 1575
361 24 1999
362 24 1299
363 24 1112
364 24 1027
365 24 868
366 24 1659
367 24 1204
368 24 1781
369 24 669
370 24 701
371 24 3070
372 24 2950
373 24 772
374 24 1987
375 24 1968
376 24 1725
377 24 1252
378 24 1791
379 24 1180
380 24 2784
381 24 1785
382 24 1400
383 24 1842
384 24 1486
385 24 2471
386 24 2658
387 24 1611
388 24 1304
389 24 2745
390 24 1431
391 24 175
392 24 864
393 24 867
394 24 1779
395 24 1202
396 24 932
397 24 2627
398 24 856
399 24 750
400 24 1717
401 24 1729
402 24 1319
403 24 1227
404 24 1930
405 24 675
406 24 2263
407 24 1590
408 24 1936
409 24 1163
410 24 1764
411 24 1404
412 24 809
413 24 1737
414 24 2227
415 24 2786
416 24 1440
417 24 2035
418 24 2185
419 24 703
420 24 1910
421 24 1742
422 24 1185
423 24 1939
424 24 476
425 24 829
426 24 2625
427 24 1618
428 24 661
429 24 1627
430 24 893
431 24 1183
432 24 1435
433 24 911
434 24 1521
435 24 1898
436 24 1245
437 24 645
438 24 1362
439 24 1267
440 24 1615
441 24 1418
442 24 921
443 24 1600
444 24 2199
445 24 624
446 24 725
447 24 1391
448 24 2343
449 24 1443
450 24 1991
451 24 703
452 24 1528
453 24 1004
454 24 584
455 24 1461
456 24 808
457 24 1391
458 24 1536
459 24 1238
460 24 2042
461 24 1305
462 24 3863
463 24 1287
464 24 1425
465 24 1488
466 24 1298
467 24 1002
468 24 856
469 24 1356
470 24 2460
471 24 2915
472 24 856
473 24 1655
474 24 1539
475 24 1444
476 24 704
477 24 1369
478 24 1620
479 24 280
480 24 1703
481 24 1246
482 24 1699
483 24 1434
484 24 1032
485 24 1626
486 24 2089
487 24 2540
488 24 1911
489 24 2323
490 24 1697
491 24 1175
492 24 1642
493 24 1387
494 24 849
495 24 945
496 24 1868
497 24 1127
498 24 1677
499 24 2063
500 24 1038
1 25 8625
2 25 10415
3 25 9453
7 25 4203
8 25 10552
10 25 9340
11 25 12226
12 25 54
14 25 6519
15 25 37262
18 25 5707
19 25 5
20 25 7
21 25 4700
22 25 17202
25 25 13596
26 25 7561
28 25 8635
30 25 10964
31 25 8636
32 25 8505
33 25 9188
36 25 9562
37 25 6277
39 25 23010
40 25 8149
46 25 15569
47 25 5
53 25 5735
54 25 10
55 25 11508
56 25 8713
57 25 9730
59 25 8737
61 25 8313
63 25 148
67 25 14535
68 25 7842
69 25 13689
71 25 10630
72 25 17873
73 25 14159
74 25 11649
75 25 10995
77 25 463
79 25 13931
80 25 6931
81 25 29
82 25 10951
83 25 6
85 25 6781
86 25 11171
87 25 10688
89 25 8097
91 25 15276
92 25 18902
96 25 10826
97 25 7966
98 25 8157
99 25 5923
100 25 14318
103 25 11511
104 25 16818
106 25 13101
107 25 13676
108 25 9486
109 25 12842
110 25 11633
113 25 8769
114 25 12562
116 25 8657
118 25 7445
120 25 13737
124 25 911
125 25 6516
126 25 16277
128 25 173
129 25 207
130 25 13018
131 25 5273
132 25 8640
133 25 5
139 25 13974
141 25 8298
144 25 4
145 25 14571
146 25 12528
147 25 6737
148 25 102
149 25 9493
152 25 10055
153 25 5
154 25 1202
156 25 12160
158 25 6822
159 25 9694
164 25 10200
165 25 8753
168 25 6739
171 25 20025
172 25 9795
173 25 12867
175 25 10187
177 25 32
179 25 7965
180 25 8067
181 25 14520
182 25 6608
183 25 8326
185 25 2427
187 25 7250
189 25 13819
192 25 6979
194 25 18273
195 25 14206
196 25 12315
197 25 8433
201 25 9791
205 25 8496
211 25 11323
214 25 12080
216 25 9193
217 25 8891
219 25 15653
220 25 8152
221 25 10355
225 25 11300
228 25 7441
229 25 10265
231 25 17721
234 25 9421
236 25 10825
239 25 7312
245 25 10782
247 25 1826
249 25 1050
251 25 11572
255 25 12460
256 25 18093
257 25 7
259 25 18029
262 25 8085
264 25 117
265 25 15094
266 25 12024
268 25 10536
269 25 3
272 25 146
273 25 14930
274 25 3533
275 25 9518
276 25 7537
278 25 6722
281 25 14503
282 25 208
284 25 5380
289 25 9532
291 25 10358
293 25 5264
294 25 9653
295 25 12336
296 25 8637
298 25 18854
300 25 10964
301 25 2984
302 25 10694
303 25 6970
305 25 7651
306 25 6633
307 25 9236
308 25 4
309 25 16468
310 25 18011
311 25 6915
312 25 9263
314 25 7503
315 25 3104
316 25 9120
319 25 8139
320 25 15407
323 25 1239
325 25 9380
327 25 12833
331 25 8260
332 25 10677
334 25 7810
336 25 18917
337 25 5622
340 25 9045
342 25 5874
343 25 13892
344 25 10272
345 25 10755
346 25 8236
348 25 6739
349 25 10513
350 25 9981
351 25 5
352 25 10519
353 25 6990
356 25 81
357 25 8751
361 25 77
364 25 8060
366 25 23294
369 25 15630
371 25 6475
372 25 11074
375 25 11287
376 25 18193
377 25 11207
380 25 7378
381 25 8046
382 25 6429
383 25 8982
384 25 10399
385 25 21458
386 25 5920
387 25 10889
388 25 7
389 25 9003
390 25 13720
391 25 6
393 25 18610
395 25 9004
397 25 119
399 25 6320
401 25 9564
402 25 9753
404 25 6317
406 25 9124
407 25 10337
408 25 11059
409 25 6301
411 25 8609
412 25 4496
413 25 13969
414 25 14321
415 25 15640
417 25 11029
418 25 12090
420 25 13514
421 25 12030
422 25 3
423 25 18943
425 25 10403
426 25 12472
427 25 9
430 25 13580
435 25 6540
438 25 11063
439 25 7974
441 25 10312
444 25 13664
445 25 8576
446 25 7
447 25 11611
453 25 4574
455 25 12027
457 25 6386
458 25 4885
460 25 8924
462 25 10989
466 25 13607
469 25 13327
470 25 18975
471 25 6813
473 25 10919
474 25 11999
476 25 5817
478 25 8537
479 25 73
480 25 14325
483 25 5
485 25 14
486 25 10616
487 25 1267
489 25 13099
490 25 7036
493 25 5351
495 25 9301
497 25 28
498 25 2491
499 25 11679
500 25 14064
4 26 12802
5 26 3710
6 26 4897
7 26 110
9 26 4286
12 26 2345
13 26 8412
16 26 6187
17 26 5826
19 26 5719
20 26 5906
21 26 30
23 26 2379
24 26 3739
26 26 10
27 26 3090
29 26 4590
32 26 6
33 26 17
34 26 4284
35 26 7331
37 26 8
38 26 4472
41 26 3716
42 26 3121
43 26 6834
44 26 6430
45 26 5722
47 26 6295
48 26 4791
49 26 5512
50 26 3546
51 26 3684
52 26 2478
54 26 4193
55 26 4
58 26 8600
60 26 4983
62 26 8086
63 26 752
64 26 6960
65 26 3682
66 26 8132
70 26 4176
72 26 2
76 26 3628
77 26 175
78 26 5078
80 26 2
81 26 5389
83 26 4919
84 26 3159
88 26 3528
90 26 6380
93 26 6241
94 26 4188
95 26 4944
98 26 22
99 26 7
101 26 6787
102 26 8528
104 26 4
105 26 3059
111 26 3679
112 26 4424
115 26 6668
116 26 10
117 26 4581
119 26 5044
121 26 5463
122 26 8852
123 26 5637
124 26 258
127 26 4185
128 26 1995
129 26 699
131 26 21
133 26 4323
134 26 6665
135 26 3482
136 26 6072
137 26 6827
138 26 5010
140 26 2115
142 26 3101
143 26 4683
144 26 6749
148 26 2191
150 26 5501
151 26 9702
153 26 4249
154 26 248
155 26 6522
157 26 8478
158 26 7
160 26 3941
161 26 3486
162 26 2169
163 26 3632
166 26 5346
167 26 6107
168 26 8
169 26 4868
170 26 3859
174 26 5124
176 26 5681
177 26 5448
178 26 6029
184 26 8132
185 26 79
186 26 9214
188 26 4440
190 26 4282
191 26 3550
193 26 4336
197 26 5
198 26 4229
199 26 4999
200 26 2564
202 26 4965
203 26 5518
204 26 4278
206 26 3713
207 26 5610
208 26 11784
209 26 3683
210 26 7564
212 26 5562
213 26 7403
215 26 4108
218 26 9543
220 26 7
222 26 3286
223 26 5096
224 26 3405
226 26 10394
227 26 5075
228 26 24
230 26 3566
232 26 3838
233 26 6339
235 26 4338
237 26 2125
238 26 7905
240 26 7892
241 26 3378
242 26 5806
243 26 8487
244 26 3860
245 26 6
246 26 10987
247 26 198
248 26 9093
249 26 161
250 26 6325
252 26 2234
253 26 6963
254 26 6089
255 26 12
257 26 3700
258 26 8637
260 26 9300
261 26 5536
263 26 2421
264 26 5364
267 26 4787
269 26 4453
270 26 10988
271 26 5043
272 26 4603
274 26 22
276 26 17
277 26 4557
279 26 5029
280 26 3699
282 26 1570
283 26 7952
285 26 7954
286 26 4715
287 26 4725
288 26 6508
290 26 5327
292 26 7567
293 26 33
294 26 22
295 26 1
297 26 3904
299 26 5118
304 26 5724
308 26 6424
311 26 20
312 26 4
313 26 2331
315 26 61
317 26 5032
318 26 3871
321 26 6950
322 26 2956
323 26 221
324 26 2290
326 26 4166
328 26 3747
329 26 5076
330 26 5480
331 26 8
333 26 4637
335 26 4097
338 26 7925
339 26 4523
341 26 5011
344 26 9
347 26 3691
351 26 11958
354 26 2540
355 26 5017
356 26 4953
358 26 4627
359 26 3775
360 26 3561
361 26 2893
362 26 5349
363 26 6292
365 26 2165
367 26 2421
368 26 7235
370 26 3608
373 26 4287
374 26 6535
376 26 5
378 26 8239
379 26 4944
382 26 56
384 26 8
388 26 4153
389 26 4
391 26 4603
392 26 6915
394 26 4369
396 26 2995
397 26 1851
398 26 3629
400 26 5912
401 26 8
403 26 3787
405 26 12069
410 26 4861
412 26 157
416 26 4427
419 26 8141
421 26 2
422 26 4974
424 26 3041
427 26 6619
428 26 5195
429 26 4557
431 26 5621
432 26 7542
433 26 7209
434 26 9563
436 26 4697
437 26 4754
438 26 11
440 26 4795
442 26 2973
443 26 13540
446 26 4619
448 26 6689
449 26 4413
450 26 4328
451 26 4250
452 26 7964
453 26 30
454 26 2523
456 26 8239
459 26 5281
461 26 4676
463 26 7578
464 26 4981
465 26 12562
467 26 4921
468 26 6651
472 26 3870
475 26 3980
477 26 9327
479 26 2615
481 26 6843
482 26 6089
483 26 4047
484 26 4351
485 26 3283
487 26 6
488 26 5578
490 26 35
491 26 9875
492 26 6620
493 26 27
494 26 10280
496 26 5479
497 26 7104
498 26 7
1 27 1125
2 27 796
3 27 1612
7 27 1078
8 27 1476
10 27 1634
11 27 1562
12 27 249
14 27 1765
15 27 2201
18 27 1772
21 27 2673
22 27 2842
25 27 3014
26 27 1638
28 27 1985
30 27 2631
31 27 1615
32 27 2106
33 27 1029
36 27 1996
37 27 2352
39 27 2073
40 27 2527
46 27 2389
53 27 1835
55 27 2147
56 27 1520
57 27 2544
59 27 2622
61 27 2117
63 27 1165
67 27 2850
68 27 1974
69 27 2142
71 27 2264
72 27 1780
73 27 2308
74 27 1912
75 27 3351
77 27 1298
79 27 1373
80 27 1366
82 27 1369
83 27 7
85 27 986
86 27 1175
87 27 1317
89 27 2246
91 27 1803
92 27 2609
96 27 1233
97 27 2007
98 27 1545
99 27 788
100 27 1914
103 27 1039
104 27 1455
106 27 2706
107 27 1927
108 27 1760
109 27 2210
110 27 2270
113 27 3161
114 27 753
116 27 3711
118 27 2841
120 27 1891
124 27 641
125 27 1461
126 27 1549
128 27 175
129 27 914
130 27 4015
131 27 1704
132 27 2002
139 27 1123
141 27 1161
145 27 2319
146 27 2371
147 27 2071
148 27 354
149 27 594
152 27 3464
154 27 1826
156 27 591
158 27 1421
159 27 1661
164 27 3551
165 27 1677
168 27 2386
170 27 5
171 27 2042
172 27 3248
173 27 1699
175 27 2528
177 27 6
179 27 1239
180 27 2434
181 27 2072
182 27 1927
183 27 2745
185 27 1641
187 27 1434
189 27 1727
192 27 2380
194 27 1777
195 27 3612
196 27 1522
197 27 1639
201 27 3250
205 27 2559
211 27 2458
214 27 1680
216 27 2148
217 27 2966
219 27 3047
220 27 4005
221 27 1381
225 27 1110
228 27 2755
229 27 1811
231 27 2181
234 27 940
235 27 65
236 27 1451
239 27 2288
245 27 1862
247 27 649
249 27 1080
251 27 2466
255 27 2552
256 27 1807
257 27 23
259 27 1990
262 27 1537
264 27 7
265 27 2592
266 27 597
268 27 1226
273 27 2104
274 27 919
275 27 2956
276 27 2722
278 27 2395
281 27 2367
282 27 227
284 27 2382
289 27 2096
291 27 2115
293 27 1256
294 27 3264
295 27 3042
296 27 3428
298 27 3088
299 27 5
300 27 1694
301 27 1890
302 27 3736
303 27 2719
305 27 1555
306 27 1562
307 27 1811
309 27 2124
310 27 3041
311 27 1702
312 27 2085
314 27 2224
315 27 1793
316 27 1621
319 27 2399
320 27 2784
323 27 1749
325 27 2115
327 27 1891
331 27 1963
332 27 3642
334 27 1703
336 27 1549
337 27 1470
340 27 1347
342 27 1768
343 27 1128
344 27 1454
345 27 2081
346 27 2028
348 27 1273
349 27 2157
350 27 2358
352 27 1305
353 27 955
356 27 97
357 27 3407
364 27 2027
366 27 2052
369 27 1796
371 27 1968
372 27 783
375 27 3234
376 27 1818
377 27 1249
380 27 2391
381 27 1962
382 27 1814
383 27 4146
384 27 4847
385 27 3249
386 27 2616
387 27 1464
389 27 1514
390 27 2109
393 27 2698
395 27 2276
397 27 254
399 27 1929
401 27 2165
402 27 2900
404 27 2299
406 27 1607
407 27 1585
408 27 1160
409 27 2102
411 27 1178
412 27 1833
413 27 1997
414 27 3611
415 27 1897
417 27 2384
418 27 3789
420 27 2963
421 27 3577
422 27 7
423 27 1474
425 27 2269
426 27 1316
430 27 1652
435 27 1751
438 27 1925
439 27 1528
441 27 1780
444 27 1816
445 27 2283
447 27 2739
453 27 1453
455 27 3127
457 27 1747
458 27 2372
460 27 1298
462 27 2229
466 27 1597
469 27 2927
470 27 3935
471 27 2083
473 27 2786
474 27 1918
476 27 2327
478 27 3274
479 27 134
480 27 2211
486 27 879
487 27 3002
489 27 1172
490 27 3307
493 27 1286
495 27 2336
498 27 1491
499 27 2315
500 27 4239
1 28 25
2 28 11
3 28 5
4 28 1126
5 28 1030
6 28 1134
7 28 151
8 28 26
9 28 2120
11 28 21
12 28 1697
13 28 1837
14 28 24
16 28 1508
17 28 1651
18 28 25
19 28 1154
20 28 1992
21 28 115
23 28 1165
24 28 1171
27 28 630
28 28 81
29 28 1950
30 28 23
31 28 1
32 28 26
33 28 98
34 28 2672
35 28 777
36 28 16
37 28 57
38 28 592
39 28 6
40 28 8
41 28 1256
42 28 1256
43 28 2787
44 28 911
45 28 1689
46 28 6
47 28 1381
48 28 1148
49 28 2369
50 28 774
51 28 1013
52 28 918
53 28 21
54 28 755
55 28 8
56 28 156
57 28 62
58 28 2519
59 28 60
60 28 1385
61 28 5
62 28 846
63 28 881
64 28 1031
65 28 921
66 28 1769
67 28 26
68 28 79
69 28 6
70 28 1360
71 28 9
72 28 26
74 28 122
75 28 90
76 28 883
77 28 484
78 28 1785
79 28 70
80 28 198
81 28 1976
82 28 7
83 28 2024
84 28 1440
85 28 72
86 28 31
87 28 168
88 28 1544
89 28 85
90 28 1782
93 28 2360
94 28 1370
95 28 1091
96 28 20
97 28 102
98 28 5
99 28 28
100 28 47
101 28 2546
102 28 1662
103 28 7
104 28 63
105 28 618
106 28 1
110 28 5
111 28 1216
112 28 1472
113 28 127
114 28 143
115 28 636
116 28 3
117 28 875
118 28 30
119 28 1896
120 28 4
121 28 1089
122 28 1271
123 28 1495
124 28 541
125 28 91
126 28 1
127 28 1531
128 28 1044
129 28 1009
130 28 5
131 28 216
132 28 68
133 28 1091
134 28 3007
135 28 2167
136 28 1828
137 28 1081
138 28 1853
139 28 22
140 28 833
141 28 56
142 28 649
143 28 617
144 28 1099
145 28 8
146 28 1
147 28 24
148 28 640
150 28 2264
151 28 1425
153 28 1042
154 28 206
155 28 1529
156 28 5
157 28 837
159 28 115
160 28 2024
161 28 1986
162 28 793
163 28 869
165 28 6
166 28 1333
167 28 2140
168 28 120
169 28 1137
170 28 971
174 28 1910
176 28 932
177 28 2826
178 28 1859
179 28 26
180 28 52
181 28 48
182 28 34
183 28 117
184 28 1760
185 28 191
186 28 1674
187 28 140
188 28 1464
189 28 4
190 28 1226
191 28 1054
192 28 95
193 28 959
194 28 24
195 28 27
196 28 56
198 28 1007
199 28 1643
200 28 1486
202 28 2372
203 28 2205
204 28 1787
205 28 4
206 28 812
207 28 1749
208 28 2082
209 28 751
210 28 443
211 28 25
212 28 649
213 28 2259
214 28 7
215 28 1890
216 28 19
218 28 1382
220 28 4
221 28 10
222 28 974
223 28 1770
224 28 2009
225 28 7
226 28 1778
227 28 1213
228 28 7
229 28 37
230 28 2373
231 28 21
232 28 1252
233 28 1098
234 28 19
235 28 2138
236 28 32
237 28 769
238 28 2313
239 28 3
240 28 978
241 28 2064
242 28 2110
243 28 1453
244 28 1054
245 28 7
246 28 2183
247 28 1297
248 28 1728
249 28 736
250 28 1141
251 28 114
252 28 850
253 28 2061
254 28 2068
255 28 18
256 28 17
257 28 2405
258 28 1192
260 28 1281
261 28 2122
262 28 24
263 28 853
264 28 1540
265 28 28
266 28 3
267 28 1656
268 28 114
269 28 1815
270 28 832
271 28 1787
272 28 2914
273 28 4
274 28 168
275 28 4
276 28 5
277 28 865
278 28 1
279 28 1440
280 28 1553
281 28 5
282 28 548
283 28 1444
284 28 103
285 28 1153
286 28 1054
287 28 1219
288 28 663
289 28 28
290 28 1716
291 28 70
292 28 1398
293 28 268
294 28 6
297 28 678
298 28 80
299 28 1348
300 28 54
301 28 159
302 28 4
304 28 1650
305 28 27
306 28 108
307 28 21
308 28 2232
309 28 21
311 28 46
312 28 28
313 28 931
314 28 4
315 28 551
316 28 122
317 28 1260
318 28 1711
319 28 24
320 28 23
321 28 1427
322 28 375
323 28 236
324 28 830
325 28 5
326 28 1237
328 28 770
329 28 1391
330 28 1963
331 28 10
332 28 6
333 28 884
334 28 60
335 28 2199
336 28 3
337 28 25
338 28 1200
339 28 1318
340 28 10
341 28 1206
342 28 113
343 28 30
345 28 6
346 28 5
347 28 3280
348 28 135
349 28 30
350 28 56
351 28 3128
353 28 28
354 28 854
355 28 1678
356 28 1719
357 28 2
358 28 1648
359 28 764
360 28 1890
361 28 1902
362 28 956
363 28 1267
364 28 103
365 28 826
367 28 885
368 28 904
369 28 31
370 28 1865
371 28 5
372 28 7
373 28 1559
374 28 1554
375 28 150
377 28 6
378 28 2327
379 28 1133
380 28 28
381 28 1
382 28 87
383 28 117
385 28 4
386 28 65
387 28 10
388 28 746
389 28 4
390 28 75
391 28 1388
392 28 1087
393 28 7
394 28 1257
396 28 371
397 28 1413
398 28 1812
399 28 86
400 28 2771
401 28 28
402 28 6
403 28 837
405 28 1512
406 28 121
407 28 5
408 28 26
409 28 7
410 28 2360
411 28 67
412 28 116
413 28 5
414 28 25
415 28 22
416 28 1544
417 28 3
418 28 5
419 28 1602
421 28 31
422 28 1490
423 28 6
424 28 846
426 28 3
427 28 1622
428 28 1005
429 28 1890
430 28 67
431 28 2065
432 28 1247
433 28 1364
434 28 1770
436 28 1452
437 28 2320
438 28 11
439 28 24
440 28 2036
441 28 12
442 28 354
443 28 1958
444 28 24
446 28 1297
447 28 85
448 28 1433
449 28 1489
450 28 1419
451 28 1464
452 28 1594
453 28 157
454 28 1670
455 28 23
456 28 888
457 28 84
458 28 108
459 28 1732
460 28 97
461 28 994
463 28 783
464 28 1035
465 28 2376
467 28 723
468 28 2001
469 28 12
470 28 85
472 28 1281
473 28 5
474 28 5
475 28 1209
476 28 24
477 28 1192
478 28 1
479 28 3053
481 28 1020
482 28 541
483 28 747
484 28 1398
485 28 1190
487 28 505
488 28 1325
489 28 64
490 28 76
491 28 1927
492 28 1545
493 28 302
494 28 911
495 28 31
496 28 2690
497 28 1795
498 28 760
499 28 62
500 28 3
1 29 750
2 29 1744
3 29 1799
6 29 2
7 29 1530
8 29 1075
10 29 981
11 29 1613
12 29 369
14 29 1633
15 29 1038
16 29 79
17 29 27
18 29 1336
21 29 1642
22 29 1872
23 29 8
24 29 2
25 29 937
26 29 1094
27 29 25
28 29 1064
29 29 20
30 29 2709
31 29 1131
32 29 1852
33 29 1604
36 29 2040
37 29 761
38 29 34
39 29 830
40 29 1551
41 29 7
43 29 42
44 29 87
46 29 1560
47 29 30
48 29 2
49 29 6
53 29 1316
55 29 1007
56 29 758
57 29 1853
59 29 776
61 29 1309
63 29 577
64 29 84
67 29 1516
68 29 696
69 29 2317
70 29 3
71 29 1953
72 29 1331
73 29 1301
74 29 1017
75 29 754
77 29 302
78 29 6
79 29 2095
80 29 1447
81 29 65
82 29 1352
83 29 58
84 29 8
85 29 1734
86 29 1446
87 29 1359
88 29 89
89 29 2378
90 29 4
91 29 1349
92 29 1029
95 29 3
96 29 547
97 29 705
98 29 2319
99 29 170
100 29 1885
101 29 6
102 29 7
103 29 1920
104 29 2023
105 29 19
106 29 1818
107 29 885
108 29 2347
109 29 1584
110 29 1379
113 29 2195
114 29 946
116 29 2404
117 29 2
118 29 1545
119 29 4
120 29 1048
124 29 743
125 29 796
126 29 1181
127 29 45
128 29 195
129 29 608
130 29 1531
131 29 1076
132 29 1098
133 29 7
134 29 6
139 29 1021
141 29 1045
142 29 24
143 29 29
145 29 1592
146 29 2310
147 29 878
148 29 663
149 29 888
152 29 3492
153 29 6
154 29 500
156 29 1117
158 29 1878
159 29 1056
161 29 23
164 29 3546
165 29 1089
168 29 1035
169 29 8
170 29 136
171 29 3842
172 29 1139
173 29 2323
174 29 6
175 29 1508
177 29 149
179 29 3531
180 29 1790
181 29 1213
182 29 1231
183 29 1482
185 29 976
187 29 1621
189 29 1805
190 29 76
192 29 997
194 29 1302
195 29 2052
196 29 851
197 29 2185
200 29 142
201 29 1149
203 29 120
204 29 40
205 29 1583
206 29 6
208 29 8
209 29 7
211 29 1380
212 29 10
214 29 1494
215 29 3
216 29 1773
217 29 784
219 29 2317
220 29 1306
221 29 694
222 29 24
223 29 7
225 29 849
226 29 7
227 29 5
228 29 1143
229 29 952
230 29 86
231 29 1036
232 29 9
234 29 1813
235 29 199
236 29 1254
238 29 15
239 29 1106
240 29 10
243 29 28
244 29 5
245 29 1608
247 29 350
249 29 435
250 29 27
251 29 2383
252 29 7
253 29 105
254 29 16
255 29 1856
256 29 1309
257 29 151
258 29 88
259 29 587
261 29 9
262 29 1516
264 29 217
265 29 2756
266 29 1171
267 29 5
268 29 1361
269 29 9
270 29 16
272 29 235
273 29 1463
274 29 808
275 29 1603
276 29 1146
277 29 8
278 29 1479
279 29 89
280 29 68
281 29 1415
282 29 791
284 29 1999
285 29 50
286 29 4
289 29 1638
291 29 440
293 29 329
294 29 1377
295 29 1568
296 29 1395
297 29 21
298 29 1132
300 29 782
301 29 1134
302 29 1676
303 29 1331
305 29 918
306 29 2137
307 29 1277
308 29 107
309 29 739
310 29 1801
311 29 885
312 29 1442
313 29 5
314 29 1852
315 29 445
316 29 2011
317 29 60
318 29 14
319 29 1627
320 29 1212
321 29 24
322 29 4
323 29 479
325 29 622
326 29 53
327 29 576
329 29 43
330 29 7
331 29 1175
332 29 1703
333 29 3
334 29 1101
336 29 1312
337 29 1567
338 29 10
339 29 9
340 29 1168
341 29 7
342 29 702
343 29 987
344 29 2024
345 29 2030
346 29 1745
347 29 98
348 29 1788
349 29 1091
350 29 782
351 29 21
352 29 928
353 29 1813
356 29 170
357 29 821
359 29 3
360 29 21
361 29 203
364 29 722
366 29 1353
369 29 997
371 29 1394
372 29 1688
374 29 29
375 29 951
376 29 819
377 29 728
379 29 2
380 29 914
381 29 1289
382 29 1126
383 29 2298
384 29 2978
385 29 1320
386 29 907
387 29 1388
389 29 878
390 29 774
391 29 132
393 29 1974
394 29 4
395 29 2172
396 29 4
397 29 262
399 29 1572
401 29 797
402 29 1745
403 29 4
404 29 1481
406 29 1536
407 29 890
408 29 1358
409 29 1026
410 29 9
411 29 1560
412 29 977
413 29 1272
414 29 1039
415 29 908
417 29 1306
418 29 2663
420 29 924
421 29 766
422 29 149
423 29 1235
425 29 2871
426 29 2067
427 29 5
428 29 53
429 29 8
430 29 1558
431 29 3
434 29 3
435 29 2033
436 29 25
438 29 1155
439 29 1587
441 29 1739
442 29 6
444 29 1258
445 29 795
447 29 621
448 29 21
451 29 56
453 29 1247
455 29 2180
457 29 2491
458 29 1722
460 29 375
461 29 6
462 29 1604
464 29 12
465 29 40
466 29 562
467 29 12
469 29 1409
470 29 1573
471 29 2156
472 29 9
473 29 1610
474 29 1460
476 29 1113
478 29 1894
479 29 201
480 29 1328
481 29 4
482 29 30
484 29 35
485 29 4
486 29 2564
487 29 484
488 29 5
489 29 1648
490 29 1178
491 29 104
492 29 6
493 29 303
494 29 2
495 29 1876
496 29 8
497 29 22
498 29 1478
499 29 1741
500 29 1809
2 30 6
4 30 4350
5 30 4411
6 30 1995
7 30 81
9 30 8341
12 30 2337
13 30 7960
14 30 7
16 30 3720
17 30 5395
18 30 23
19 30 6014
20 30 4025
21 30 86
23 30 2779
24 30 4336
26 30 44
27 30 4903
29 30 4453
30 30 6
34 30 5998
35 30 3026
36 30 1
38 30 2029
40 30 4
41 30 4419
42 30 3247
43 30 4439
44 30 4709
45 30 2928
47 30 5089
48 30 2080
49 30 6630
50 30 3501
51 30 5884
52 30 4619
53 30 27
54 30 2981
56 30 3
57 30 27
58 30 4543
60 30 5908
62 30 4891
63 30 1530
64 30 6571
65 30 4539
66 30 5712
70 30 7505
74 30 9
75 30 93
76 30 4131
77 30 385
78 30 6182
81 30 3970
83 30 6945
84 30 5777
85 30 4
88 30 3391
90 30 4975
93 30 4317
94 30 4353
95 30 1991
99 30 66
101 30 3598
102 30 5401
103 30 9
104 30 6
105 30 4684
108 30 7
109 30 7
110 30 4
111 30 5749
112 30 3086
113 30 3
115 30 3950
117 30 2892
118 30 8
119 30 5503
121 30 3302
122 30 6275
123 30 5790
124 30 598
127 30 4825
128 30 2628
129 30 1919
130 30 6
133 30 2510
134 30 12869
135 30 3917
136 30 3252
137 30 4095
138 30 4352
140 30 3152
142 30 4765
143 30 2068
144 30 7434
148 30 3164
149 30 9
150 30 6296
151 30 3843
153 30 2534
154 30 291
155 30 5151
156 30 26
157 30 3331
160 30 9809
161 30 1949
162 30 3318
163 30 5038
165 30 2
166 30 4377
167 30 5375
168 30 5
169 30 1918
170 30 5210
172 30 8
174 30 5623
175 30 5
176 30 5179
177 30 3869
178 30 5815
181 30 6
182 30 4
184 30 5798
185 30 47
186 30 6191
187 30 5
188 30 3866
190 30 3115
191 30 3369
193 30 5050
196 30 6
198 30 5238
199 30 5824
200 30 5427
201 30 5
202 30 4727
203 30 4519
204 30 4894
206 30 2664
207 30 3901
208 30 3640
209 30 2602
210 30 5377
212 30 1689
213 30 4339
214 30 6
215 30 5689
216 30 3
218 30 2654
219 30 7
221 30 4
222 30 4439
223 30 5631
224 30 4252
226 30 3268
227 30 2039
229 30 3
230 30 10292
232 30 3756
233 30 3859
234 30 31
235 30 4415
237 30 2786
238 30 5086
239 30 8
240 30 4047
241 30 3897
242 30 4080
243 30 5019
244 30 3781
245 30 27
246 30 3877
247 30 607
248 30 4351
249 30 508
250 30 4996
252 30 3389
253 30 6834
254 30 3868
255 30 1
257 30 5912
258 30 4287
260 30 4803
261 30 6950
263 30 2221
264 30 4749
266 30 22
267 30 3943
269 30 5962
270 30 2656
271 30 8555
272 30 5418
274 30 160
277 30 2928
279 30 7476
280 30 3381
281 30 17
282 30 1632
283 30 3785
284 30 9
285 30 3997
286 30 4024
287 30 3018
288 30 3850
289 30 3
290 30 4321
292 30 4750
293 30 32
297 30 1918
299 30 6620
301 30 52
302 30 27
304 30 3922
305 30 5
308 30 4463
311 30 101
312 30 5
313 30 3368
314 30 4
315 30 98
316 30 4
317 30 5548
318 30 7569
320 30 11
321 30 3565
322 30 5049
323 30 264
324 30 2302
326 30 3188
328 30 3588
329 30 3041
330 30 5201
332 30 28
333 30 2967
335 30 3299
338 30 6439
339 30 3556
341 30 2039
342 30 4
347 30 4969
351 30 5039
352 30 7
353 30 2
354 30 2390
355 30 5778
356 30 4108
357 30 5
358 30 5366
359 30 2628
360 30 5277
361 30 4703
362 30 4304
363 30 6315
365 30 3210
367 30 2410
368 30 3877
369 30 4
370 30 4217
371 30 7
373 30 3680
374 30 3713
375 30 4
377 30 9
378 30 5991
379 30 2100
383 30 3
385 30 9
386 30 24
388 30 2840
391 30 4354
392 30 5581
394 30 7008
396 30 5247
397 30 1851
398 30 3026
399 30 6
400 30 6538
403 30 2619
404 30 7
405 30 5854
406 30 7
409 30 6
410 30 6612
412 30 166
414 30 11
416 30 5439
418 30 4
419 30 4418
422 30 2976
424 30 3465
425 30 7
427 30 4683
428 30 4283
429 30 3422
431 30 3618
432 30 3480
433 30 3175
434 30 6485
436 30 6269
437 30 5578
440 30 3457
441 30 7
442 30 5191
443 30 5129
445 30 2
446 30 3179
447 30 6
448 30 4589
449 30 5479
450 30 5606
451 30 4696
452 30 6098
453 30 48
454 30 3824
456 30 3174
458 30 7
459 30 2700
461 30 2457
463 30 7030
464 30 2911
465 30 6343
466 30 2
467 30 4751
468 30 4713
470 30 4
472 30 3695
473 30 7
475 30 3978
476 30 7
477 30 3602
479 30 3803
481 30 4834
482 30 4470
483 30 2925
484 30 3824
485 30 2915
487 30 301
488 30 8107
489 30 7
490 30 18
491 30 5396
492 30 6648
493 30 28
494 30 3831
495 30 8
496 30 5899
497 30 3902
498 30 159
499 30 4
500 30 25
1 31 3204
3 31 2943
5 31 906
6 31 382
7 31 2029
8 31 3042
9 31 754
11 31 3409
12 31 1172
14 31 2869
15 31 30
16 31 826
17 31 61
19 31 870
20 31 898
21 31 2052
23 31 1658
24 31 1039
25 31 9
26 31 6089
27 31 527
29 31 686
30 31 25
32 31 3429
33 31 2221
35 31 86
38 31 310
39 31 5
40 31 100
41 31 1039
42 31 387
43 31 741
44 31 644
45 31 726
48 31 367
50 31 167
51 31 856
52 31 1057
54 31 1058
55 31 3823
57 31 5
59 31 4
60 31 1398
61 31 339
63 31 2177
64 31 1422
65 31 880
66 31 535
68 31 2938
70 31 406
71 31 596
72 31 17
73 31 2992
74 31 1306
76 31 777
77 31 3
78 31 737
84 31 589
85 31 4710
86 31 3639
88 31 1105
89 31 28
90 31 1558
91 31 3866
93 31 1246
95 31 402
98 31 3244
99 31 2897
102 31 254
103 31 6
105 31 507
106 31 2
107 31 6
108 31 221
109 31 3646
110 31 2821
111 31 1360
112 31 598
114 31 6
115 31 839
116 31 3
117 31 752
118 31 4811
119 31 1823
120 31 5101
121 31 566
122 31 363
123 31 3
124 31 963
125 31 2346
127 31 882
129 31 868
130 31 187
131 31 1
133 31 254
134 31 1408
136 31 664
137 31 411
138 31 297
139 31 4347
140 31 410
141 31 4134
142 31 474
143 31 291
144 31 470
146 31 159
147 31 3835
148 31 318
149 31 62
151 31 1739
153 31 274
154 31 1850
155 31 594
156 31 113
157 31 795
158 31 8
159 31 2804
160 31 906
161 31 1141
162 31 391
163 31 424
165 31 7
167 31 505
168 31 4460
169 31 359
170 31 340
171 31 5
172 31 3086
173 31 62
174 31 951
175 31 120
176 31 880
178 31 2171
182 31 3823
183 31 6
184 31 505
185 31 3154
186 31 213
187 31 488
188 31 697
190 31 1175
191 31 962
192 31 4124
193 31 29
198 31 873
199 31 1014
200 31 1182
201 31 3168
202 31 46
203 31 99
204 31 1091
206 31 570
207 31 311
208 31 162
209 31 561
210 31 503
211 31 3612
212 31 641
213 31 1396
214 31 2482
215 31 967
217 31 786
218 31 708
221 31 24
222 31 704
223 31 158
224 31 1407
226 31 677
227 31 377
228 31 3208
229 31 4182
230 31 991
231 31 31
232 31 999
234 31 3243
235 31 1392
237 31 285
238 31 619
239 31 5247
240 31 1262
242 31 1462
243 31 443
244 31 740
245 31 1808
246 31 1212
247 31 1
248 31 776
250 31 1030
251 31 5
252 31 861
257 31 729
259 31 1761
260 31 922
261 31 1518
263 31 510
266 31 120
267 31 803
269 31 345
270 31 1003
273 31 3430
274 31 3585
276 31 3286
277 31 747
278 31 2606
279 31 438
280 31 1060
281 31 5
282 31 879
283 31 634
284 31 3588
285 31 961
286 31 957
287 31 714
288 31 814
291 31 63
292 31 929
293 31 18
294 31 405
296 31 2826
297 31 782
298 31 4
299 31 1099
301 31 2476
302 31 6
303 31 3159
304 31 337
306 31 6
308 31 1349
310 31 8
311 31 23
313 31 919
314 31 3163
316 31 3
318 31 760
319 31 8
320 31 32
321 31 725
322 31 646
323 31 1844
324 31 505
325 31 3599
326 31 1189
327 31 7
328 31 195
329 31 604
330 31 1047
332 31 1
333 31 799
334 31 6070
335 31 867
337 31 2430
338 31 909
339 31 552
340 31 4373
341 31 421
342 31 4310
343 31 4409
345 31 3697
346 31 2974
347 31 1469
350 31 2131
351 31 86
352 31 536
353 31 228
354 31 505
355 31 990
356 31 600
357 31 40
358 31 1209
359 31 541
361 31 2
362 31 1108
363 31 833
365 31 393
366 31 3884
367 31 502
368 31 817
370 31 712
372 31 30
373 31 702
374 31 5
375 31 5
377 31 3102
378 31 1772
379 31 378
380 31 3
382 31 2122
383 31 16
384 31 27
386 31 1
387 31 136
388 31 993
390 31 7
391 31 824
392 31 1214
394 31 252
396 31 676
398 31 240
399 31 2706
400 31 1018
403 31 612
404 31 2937
405 31 479
407 31 3936
408 31 3637
410 31 5
411 31 2882
412 31 3239
414 31 2161
415 31 5
416 31 1156
417 31 109
418 31 5
419 31 1350
420 31 1
421 31 1448
423 31 7
424 31 617
425 31 3691
426 31 8
427 31 147
428 31 1423
429 31 482
430 31 8
432 31 1280
433 31 766
436 31 927
437 31 1585
438 31 25
440 31 681
441 31 32
442 31 635
443 31 1059
444 31 4
445 31 2887
446 31 556
449 31 1176
450 31 761
451 31 839
452 31 33
453 31 3270
454 31 779
455 31 5
456 31 780
457 31 3353
458 31 3190
459 31 722
461 31 870
462 31 6
464 31 1346
465 31 929
466 31 3005
467 31 876
468 31 617
469 31 6
470 31 3
471 31 26
472 31 1070
473 31 4703
474 31 7
475 31 981
477 31 1781
479 31 1363
480 31 2749
481 31 6
482 31 575
483 31 1053
484 31 986
485 31 1545
491 31 31
493 31 31
494 31 624
495 31 2989
496 31 18
497 31 749
499 31 64
500 31 29
4 32 3921
5 32 2155
6 32 2382
7 32 129
9 32 3579
12 32 1480
13 32 3638
14 32 27
15 32 5
16 32 3162
17 32 2612
18 32 153
19 32 3763
20 32 2635
21 32 150
22 32 9
23 32 2270
24 32 4909
27 32 1990
29 32 3663
30 32 3
34 32 3441
35 32 3048
38 32 2264
40 32 5
41 32 4982
42 32 1430
43 32 3354
44 32 4633
45 32 2681
47 32 3631
48 32 2447
49 32 4926
50 32 1566
51 32 1704
52 32 2163
53 32 136
54 32 3711
56 32 123
58 32 4290
59 32 12
60 32 3091
62 32 5121
63 32 2740
64 32 3592
65 32 2073
66 32 3369
70 32 2714
76 32 2839
77 32 2773
78 32 3351
80 32 10
81 32 4908
83 32 3772
84 32 2166
85 32 24
86 32 3
88 32 3395
90 32 3894
93 32 6006
94 32 2415
95 32 2453
98 32 21
99 32 93
101 32 3680
102 32 2076
105 32 2057
108 32 10
111 32 4525
112 32 3621
113 32 4
115 32 3431
117 32 2770
118 32 36
119 32 5057
121 32 3077
122 32 3626
123 32 4875
124 32 1245
125 32 3
127 32 2590
128 32 3784
129 32 4131
131 32 5
133 32 2083
134 32 3225
135 32 3279
136 32 2507
137 32 3719
138 32 3373
140 32 1618
142 32 2041
143 32 2301
144 32 5247
145 32 7
146 32 2
148 32 3546
150 32 5325
151 32 2678
153 32 2068
154 32 406
155 32 3538
157 32 3828
160 32 3892
161 32 5122
162 32 1607
163 32 3035
166 32 4611
167 32 3238
168 32 6
169 32 2369
170 32 3634
174 32 4043
176 32 3223
177 32 3857
178 32 4030
180 32 2
181 32 7
183 32 4
184 32 3348
185 32 165
186 32 3332
188 32 2560
190 32 1678
191 32 1651
193 32 3681
195 32 7
198 32 3113
199 32 2024
200 32 4087
202 32 5112
203 32 3898
204 32 3523
206 32 1765
207 32 3437
208 32 2659
209 32 1765
210 32 2249
212 32 1698
213 32 3920
215 32 3378
218 32 3236
222 32 2651
223 32 5157
224 32 3568
226 32 3410
227 32 2567
228 32 24
230 32 5786
232 32 3354
233 32 2808
235 32 2798
237 32 2538
238 32 3385
239 32 31
240 32 2834
241 32 3464
242 32 4544
243 32 3957
244 32 1463
246 32 4169
247 32 730
248 32 3447
249 32 2256
250 32 3953
251 32 4
252 32 2944
253 32 4685
254 32 5013
257 32 3832
258 32 3926
259 32 9
260 32 2759
261 32 4835
263 32 2831
264 32 3907
267 32 1282
269 32 6492
270 32 2221
271 32 4125
272 32 4341
274 32 272
276 32 36
277 32 2892
278 32 4
279 32 1476
280 32 3471
282 32 2398
283 32 3416
285 32 3301
286 32 4102
287 32 3909
288 32 3471
290 32 2188
292 32 1892
293 32 164
295 32 26
297 32 2831
298 32 8
299 32 4752
301 32 20
304 32 3412
305 32 21
308 32 3127
311 32 25
313 32 2864
315 32 250
317 32 5299
318 32 1920
321 32 4604
322 32 1725
323 32 428
324 32 2820
326 32 1651
328 32 1618
329 32 3027
330 32 2861
333 32 2869
334 32 4
335 32 3075
336 32 9
337 32 2
338 32 2873
339 32 2139
341 32 2581
347 32 2382
348 32 29
351 32 3622
352 32 6
354 32 2903
355 32 2155
356 32 3489
358 32 2907
359 32 1715
360 32 3123
361 32 3823
362 32 2779
363 32 3006
365 32 1600
367 32 2771
368 32 2698
370 32 3308
373 32 2507
374 32 3704
378 32 4338
379 32 2510
382 32 40
388 32 3718
391 32 4174
392 32 3530
394 32 3116
396 32 1711
397 32 4825
398 32 1880
400 32 4654
403 32 1798
405 32 3907
406 32 6
408 32 6
410 32 4619
412 32 193
416 32 2474
419 32 2681
422 32 4011
423 32 3
424 32 1489
425 32 26
427 32 4536
428 32 2792
429 32 3564
431 32 3356
432 32 3502
433 32 3004
434 32 5080
436 32 3650
437 32 2169
440 32 4547
442 32 1788
443 32 2024
446 32 3016
448 32 4167
449 32 2585
450 32 4081
451 32 2534
452 32 3395
453 32 76
454 32 3204
456 32 3820
458 32 3
459 32 4310
461 32 1934
463 32 6023
464 32 2300
465 32 4032
466 32 4
467 32 3531
468 32 3041
472 32 3390
474 32 2
475 32 3288
477 32 3898
479 32 3510
481 32 4860
482 32 2835
483 32 3560
484 32 4256
485 32 4153
486 32 3
487 32 757
488 32 2650
490 32 7
491 32 3124
492 32 3959
493 32 146
494 32 1567
496 32 2208
497 32 2620
498 32 685
499 32 4
1 33 2545
2 33 4185
3 33 8608
4 33 26
6 33 7
7 33 3478
8 33 3883
10 33 4943
11 33 7169
12 33 657
13 33 6
14 33 4442
15 33 7622
16 33 60
17 33 106
18 33 5149
19 33 50
20 33 5
21 33 2504
22 33 5751
23 33 16
25 33 6581
26 33 5289
27 33 56
28 33 5111
29 33 9
30 33 4680
31 33 7788
32 33 4936
33 33 4531
36 33 7269
37 33 4794
38 33 24
39 33 5639
40 33 6866
42 33 13
43 33 33
44 33 131
45 33 66
46 33 8724
47 33 366
48 33 4
49 33 5
50 33 5
51 33 16
52 33 8
53 33 5232
54 33 8
55 33 3599
56 33 5459
57 33 5629
58 33 205
59 33 5128
60 33 3
61 33 4880
63 33 1013
64 33 27
66 33 6
67 33 7773
68 33 7676
69 33 3226
70 33 81
71 33 5198
72 33 6995
73 33 4815
74 33 4867
75 33 7208
76 33 4
77 33 5252
78 33 25
79 33 3768
80 33 5228
81 33 279
82 33 5380
83 33 56
84 33 6
85 33 3926
86 33 7238
87 33 7133
88 33 56
89 33 5796
91 33 8076
92 33 5798
93 33 3
95 33 4
96 33 5754
97 33 4210
98 33 6319
99 33 3181
100 33 5252
101 33 94
102 33 62
103 33 4545
104 33 4768
105 33 57
106 33 4342
107 33 4188
108 33 4078
109 33 6270
110 33 5248
113 33 4593
114 33 6529
116 33 8450
117 33 2
118 33 4245
119 33 7
120 33 7457
121 33 6
122 33 6
123 33 21
124 33 2334
125 33 3732
126 33 6332
127 33 56
128 33 2269
129 33 2413
130 33 5462
131 33 10369
132 33 5109
133 33 45
134 33 109
135 33 49
136 33 4
138 33 3
139 33 4191
140 33 13
141 33 6477
142 33 57
143 33 23
145 33 6384
146 33 6570
147 33 3582
148 33 1386
149 33 4386
152 33 7392
153 33 28
154 33 2765
156 33 6048
158 33 4461
159 33 5082
160 33 4
161 33 32
162 33 12
164 33 7462
165 33 6298
166 33 37
167 33 60
168 33 3070
169 33 4
170 33 185
171 33 6021
172 33 5399
173 33 4670
174 33 35
175 33 3862
176 33 6
177 33 358
178 33 31
179 33 6379
180 33 4061
181 33 6106
182 33 8037
183 33 5110
184 33 7
185 33 4106
187 33 8007
188 33 61
189 33 5057
190 33 43
192 33 6915
193 33 4
194 33 8289
195 33 5054
196 33 4561
197 33 7094
199 33 25
200 33 197
201 33 5268
203 33 67
204 33 58
205 33 6775
206 33 25
209 33 30
211 33 3312
212 33 14
214 33 5401
215 33 29
216 33 3614
217 33 8116
219 33 4978
220 33 4347
221 33 3619
225 33 4392
226 33 5
227 33 11
228 33 6672
229 33 4471
230 33 210
231 33 4974
232 33 5
233 33 63
234 33 7490
235 33 885
236 33 11522
237 33 6
238 33 6
239 33 4604
240 33 78
241 33 63
244 33 57
245 33 5750
247 33 4405
249 33 2370
251 33 3814
253 33 172
254 33 115
255 33 6071
256 33 8432
257 33 127
258 33 155
259 33 4386
260 33 8
262 33 7367
264 33 656
265 33 7422
266 33 6054
267 33 39
268 33 7167
269 33 27
270 33 17
271 33 32
272 33 904
273 33 2650
274 33 4503
275 33 4559
276 33 6712
277 33 5
278 33 4558
279 33 155
280 33 63
281 33 6862
282 33 1686
283 33 6
284 33 5626
285 33 82
286 33 7
289 33 3645
291 33 7580
293 33 2743
294 33 4174
295 33 6741
296 33 4538
297 33 70
298 33 8698
299 33 100
300 33 4577
301 33 3841
302 33 10603
303 33 5584
305 33 4953
306 33 5481
307 33 5450
308 33 197
309 33 4721
310 33 9805
311 33 2903
312 33 7407
314 33 4532
315 33 6679
316 33 5471
317 33 216
318 33 88
319 33 4629
320 33 11489
321 33 50
322 33 18
323 33 2915
325 33 4803
326 33 48
327 33 5159
328 33 4
329 33 88
331 33 5052
332 33 10642
333 33 7
334 33 5451
336 33 5508
337 33 2982
338 33 65
339 33 79
340 33 3827
341 33 7
342 33 3586
343 33 4129
344 33 5523
345 33 4760
346 33 3007
347 33 66
348 33 4312
349 33 6419
350 33 5768
351 33 57
352 33 4447
353 33 3992
355 33 23
356 33 866
357 33 7034
358 33 29
359 33 35
360 33 191
361 33 2201
363 33 20
364 33 4294
365 33 11
366 33 3906
368 33 5
369 33 6800
370 33 46
371 33 4675
372 33 5654
373 33 4
374 33 21
375 33 5819
376 33 8282
377 33 4041
379 33 8
380 33 5722
381 33 5909
382 33 5383
383 33 5398
384 33 4157
385 33 6665
386 33 5567
387 33 7776
388 33 5
389 33 5881
390 33 6367
391 33 149
393 33 5858
394 33 2
395 33 9403
396 33 16
397 33 2601
399 33 3490
401 33 7462
402 33 4638
403 33 38
404 33 3854
406 33 7022
407 33 8776
408 33 7233
409 33 5437
410 33 4
411 33 6319
412 33 2356
413 33 8944
414 33 4748
415 33 6112
416 33 28
417 33 5674
418 33 8543
419 33 22
420 33 6352
421 33 7647
422 33 238
423 33 5423
424 33 21
425 33 6144
426 33 4336
427 33 7
428 33 198
429 33 42
430 33 5788
432 33 7
434 33 55
435 33 7315
436 33 32
437 33 6
438 33 6466
439 33 7215
440 33 20
441 33 5039
442 33 11
444 33 4255
445 33 4531
447 33 5212
448 33 18
449 33 16
450 33 6
451 33 57
452 33 6
453 33 4428
455 33 9207
457 33 5987
458 33 5714
460 33 9168
462 33 4877
463 33 7
465 33 145
466 33 4580
469 33 5102
470 33 8676
471 33 5881
472 33 7
473 33 6082
474 33 5639
475 33 7
476 33 6402
478 33 5018
479 33 258
480 33 4955
481 33 4
482 33 9
483 33 4
484 33 34
486 33 5910
487 33 4226
488 33 109
489 33 5421
490 33 5356
491 33 30
493 33 2817
494 33 8
495 33 5394
497 33 20
498 33 5220
499 33 6167
500 33 8438
1 34 938
2 34 192
3 34 1107
4 34 3093
5 34 1905
6 34 3200
7 34 3677
8 34 2686
9 34 1535
10 34 24
11 34 272
12 34 4827
13 34 2723
14 34 2479
15 34 292
16 34 3084
17 34 4166
18 34 288
19 34 3056
20 34 3441
21 34 2772
22 34 421
23 34 1976
24 34 2669
25 34 219
26 34 1006
27 34 1288
28 34 269
29 34 3662
30 34 109
31 34 767
32 34 908
33 34 2830
34 34 3813
35 34 3232
36 34 238
37 34 657
38 34 1368
39 34 21
40 34 585
41 34 2832
42 34 2523
43 34 3853
44 34 2912
45 34 4058
46 34 243
47 34 1302
48 34 3137
49 34 2150
50 34 1154
51 34 2341
52 34 2654
53 34 335
54 34 2357
55 34 361
56 34 172
57 34 121
58 34 2939
59 34 103
60 34 4080
61 34 174
62 34 1581
63 34 2416
64 34 3956
65 34 1963
66 34 4393
67 34 413
68 34 292
69 34 79
70 34 3994
71 34 470
72 34 59
73 34 933
74 34 131
75 34 623
76 34 1921
77 34 1121
78 34 4654
79 34 412
80 34 100
81 34 4006
82 34 559
83 34 2521
84 34 1978
85 34 2753
86 34 3193
87 34 82
88 34 1972
89 34 592
90 34 3211
91 34 318
92 34 50
93 34 2881
94 34 1969
95 34 3037
96 34 232
97 34 98
98 34 2463
99 34 3176
101 34 3308
102 34 2643
103 34 287
104 34 259
105 34 1265
106 34 6
107 34 183
108 34 232
109 34 609
110 34 304
111 34 2612
112 34 1839
113 34 231
114 34 159
115 34 3039
116 34 143
117 34 1629
118 34 2287
119 34 3243
120 34 2789
121 34 1637
122 34 2712
123 34 1153
124 34 3689
125 34 3078
126 34 91
127 34 1670
128 34 3145
129 34 2482
130 34 201
131 34 767
132 34 299
133 34 1452
134 34 2940
135 34 5223
136 34 1997
137 34 2522
138 34 3632
139 34 307
140 34 1190
141 34 1600
142 34 1270
143 34 1473
144 34 2729
145 34 146
146 34 356
147 34 490
148 34 3082
149 34 618
150 34 1778
151 34 3259
152 34 392
153 34 1431
154 34 3652
155 34 2505
156 34 126
157 34 3075
158 34 181
159 34 2410
160 34 1823
161 34 3254
162 34 1089
163 34 2592
164 34 338
165 34 36
166 34 2785
167 34 2432
168 34 1605
169 34 3098
170 34 3984
172 34 115
173 34 11
174 34 1811
175 34 255
176 34 1670
177 34 2352
178 34 2563
179 34 250
180 34 337
181 34 462
182 34 1751
183 34 129
184 34 4439
185 34 2137
186 34 3031
187 34 323
188 34 2660
189 34 447
190 34 1245
191 34 1433
192 34 242
193 34 2412
194 34 137
195 34 414
196 34 227
197 34 341
198 34 1886
199 34 1843
200 34 3572
201 34 131
202 34 2763
203 34 4118
204 34 2621
206 34 1773
207 34 2131
208 34 2820
209 34 1690
210 34 2526
211 34 406
212 34 1660
213 34 2006
215 34 1605
216 34 211
217 34 246
218 34 1684
219 34 1473
220 34 424
221 34 137
222 34 1622
223 34 2830
224 34 2070
225 34 681
226 34 3269
227 34 3266
228 34 2512
229 34 2294
230 34 2292
231 34 406
232 34 2986
233 34 4434
234 34 325
235 34 4548
236 34 29
237 34 1507
238 34 2098
239 34 3510
240 34 1765
241 34 5043
242 34 3382
243 34 3024
244 34 2769
245 34 172
246 34 2341
247 34 1916
248 34 3950
249 34 1431
250 34 4959
251 34 150
252 34 1504
253 34 2287
254 34 3449
255 34 1467
256 34 115
257 34 2811
258 34 5050
259 34 576
260 34 2483
261 34 3143
262 34 198
263 34 2075
264 34 2558
265 34 400
266 34 113
267 34 3309
268 34 57
269 34 2371
270 34 1903
271 34 2653
272 34 2064
273 34 2951
274 34 4150
275 34 626
276 34 2560
277 34 1692
278 34 193
279 34 2435
280 34 1915
281 34 154
282 34 2602
283 34 3199
284 34 584
285 34 2132
286 34 3231
287 34 2328
288 34 2921
289 34 221
290 34 2904
291 34 389
292 34 1233
293 34 176
294 34 290
295 34 2593
296 34 180
297 34 2234
298 34 10
299 34 2322
300 34 211
301 34 2790
302 34 211
303 34 1431
304 34 2164
305 34 1489
306 34 560
307 34 734
308 34 4305
309 34 118
310 34 441
311 34 177
312 34 55
313 34 1608
314 34 2690
315 34 336
316 34 271
317 34 2897
318 34 2238
319 34 119
320 34 1382
321 34 3415
322 34 1775
323 34 3711
324 34 2152
325 34 295
326 34 1299
327 34 8
328 34 1149
329 34 2390
330 34 3023
331 34 314
332 34 237
333 34 1636
334 34 1223
335 34 2747
336 34 386
337 34 1821
338 34 4535
339 34 3786
340 34 926
341 34 3144
342 34 2683
343 34 290
344 34 384
345 34 273
346 34 195
347 34 3984
348 34 377
349 34 5
350 34 209
351 34 3766
352 34 125
353 34 213
354 34 2133
355 34 1851
356 34 2617
357 34 256
358 34 2114
359 34 1617
360 34 3162
361 34 3856
362 34 2043
363 34 2319
364 34 91
365 34 1172
366 34 362
367 34 2157
368 34 2393
369 34 292
370 34 2902
371 34 290
372 34 3
373 34 2159
374 34 2123
375 34 215
376 34 237
377 34 443
378 34 2710
379 34 3194
380 34 627
381 34 479
382 34 1251
383 34 164
384 34 7
385 34 242
386 34 358
387 34 196
388 34 2433
389 34 662
390 34 321
391 34 3350
392 34 3291
393 34 305
394 34 2056
395 34 28
396 34 1637
397 34 2155
398 34 2208
399 34 600
400 34 2843
401 34 329
402 34 623
403 34 1720
404 34 552
405 34 2171
406 34 196
407 34 426
408 34 3323
409 34 358
410 34 3259
411 34 1990
412 34 4366
413 34 488
414 34 1622
415 34 220
416 34 3080
417 34 167
418 34 456
419 34 2780
420 34 227
421 34 191
422 34 4031
423 34 396
424 34 1067
425 34 1079
426 34 173
427 34 3421
428 34 2568
429 34 3879
430 34 398
431 34 3373
432 34 4004
433 34 2345
434 34 4010
435 34 70
436 34 3677
437 34 2831
438 34 265
439 34 181
440 34 2087
441 34 203
442 34 1735
443 34 3109
444 34 281
445 34 1835
446 34 2389
447 34 139
448 34 2538
449 34 3022
450 34 2537
451 34 1689
452 34 2618
453 34 3485
454 34 2070
456 34 3119
457 34 462
458 34 1613
459 34 2730
460 34 519
461 34 1951
462 34 1079
463 34 4454
464 34 3096
465 34 3071
466 34 1700
467 34 2768
468 34 2143
469 34 25
470 34 870
471 34 8
472 34 3082
473 34 152
474 34 332
475 34 3552
476 34 652
477 34 2525
478 34 265
479 34 2691
480 34 918
481 34 2938
482 34 2965
483 34 2449
484 34 2054
485 34 2335
486 34 147
487 34 281
488 34 4141
490 34 1250
491 34 2038
492 34 3323
493 34 159
494 34 639
495 34 1568
496 34 2734
497 34 2316
498 34 231
499 34 157
500 34 313
1 35 2
3 35 202
4 35 3813
5 35 2238
6 35 2232
7 35 2355
8 35 224
9 35 3386
11 35 5
12 35 3324
13 35 4485
14 35 531
16 35 2413
17 35 3488
19 35 2109
20 35 2939
21 35 3305
23 35 2036
24 35 3529
26 35 19
27 35 841
29 35 3252
33 35 565
34 35 4020
35 35 2592
38 35 1024
41 35 3597
42 35 1925
43 35 2511
44 35 3380
45 35 2268
47 35 3062
48 35 2232
49 35 4220
50 35 1033
51 35 3244
52 35 1691
54 35 2538
55 35 7
58 35 4446
60 35 1381
62 35 5105
63 35 3083
64 35 3038
65 35 2290
66 35 3086
67 35 4
70 35 3167
71 35 22
73 35 27
76 35 3899
77 35 5
78 35 4028
81 35 4214
83 35 3681
84 35 1942
85 35 788
86 35 678
88 35 3883
89 35 1
90 35 3462
93 35 3034
94 35 2615
95 35 2315
98 35 360
99 35 2084
101 35 3685
102 35 4161
104 35 6
105 35 856
109 35 4
111 35 3469
112 35 1745
115 35 3001
117 35 2132
118 35 727
119 35 3264
120 35 360
121 35 2143
122 35 3823
123 35 1957
124 35 3079
125 35 2068
127 35 1439
128 35 397
129 35 5505
130 35 1
131 35 4
133 35 1226
134 35 2499
135 35 2156
136 35 2867
137 35 3708
138 35 2296
139 35 15
140 35 1682
141 35 32
142 35 905
143 35 1114
144 35 3370
146 35 7
148 35 2538
150 35 2166
151 35 2916
153 35 1155
154 35 2886
155 35 2523
157 35 3503
159 35 778
160 35 2882
161 35 1193
162 35 1626
163 35 2334
166 35 2214
167 35 4427
168 35 227
169 35 2321
170 35 4330
174 35 4277
176 35 2831
177 35 4008
178 35 2315
182 35 89
184 35 3089
185 35 2982
186 35 2448
188 35 1699
189 35 5
190 35 1407
191 35 1712
193 35 2717
198 35 2319
199 35 3105
200 35 4282
202 35 4686
203 35 3021
204 35 3007
206 35 1790
207 35 3495
208 35 2184
209 35 1705
210 35 1517
212 35 755
213 35 3432
215 35 2182
216 35 6
218 35 2291
219 35 18
220 35 8
222 35 1710
223 35 3892
224 35 1860
226 35 2837
227 35 2350
228 35 388
229 35 292
230 35 3463
232 35 2677
233 35 4174
235 35 3033
237 35 1529
238 35 2911
239 35 2981
240 35 4154
241 35 2187
242 35 3414
243 35 2836
244 35 1845
246 35 3236
247 35 183
248 35 1194
249 35 49
250 35 2207
252 35 1501
253 35 2918
254 35 2615
257 35 2000
258 35 4313
260 35 2104
261 35 3296
263 35 1596
264 35 491
265 35 5
267 35 3606
269 35 3306
270 35 1253
271 35 2370
272 35 1945
273 35 441
274 35 2928
275 35 25
276 35 357
277 35 2037
279 35 3104
280 35 3948
282 35 3292
283 35 2018
285 35 2556
286 35 2025
287 35 2204
288 35 3059
289 35 4
290 35 4491
292 35 1861
295 35 300
297 35 3982
299 35 2196
301 35 3970
303 35 186
304 35 3442
305 35 62
307 35 2
308 35 2698
309 35 2
311 35 2
313 35 1500
314 35 416
317 35 4148
318 35 2179
320 35 7
321 35 4786
322 35 2268
323 35 2685
324 35 1668
326 35 1410
328 35 1025
329 35 1634
330 35 2646
331 35 8
333 35 2012
334 35 57
335 35 1977
337 35 1140
338 35 2592
339 35 1815
340 35 196
341 35 2368
342 35 175
343 35 24
345 35 5
346 35 4
347 35 3924
350 35 5
351 35 3897
354 35 1672
355 35 3150
356 35 3509
357 35 9
358 35 2944
359 35 1782
360 35 2240
361 35 2255
362 35 1317
363 35 4136
365 35 1715
367 35 1674
368 35 2823
370 35 1678
373 35 3737
374 35 2408
377 35 5
378 35 2444
379 35 2391
380 35 2
382 35 2163
388 35 2479
389 35 4
391 35 2823
392 35 3309
394 35 1493
396 35 2272
397 35 382
398 35 1435
399 35 2
400 35 2441
402 35 28
403 35 1737
405 35 2828
408 35 639
410 35 3126
411 35 616
412 35 4319
414 35 33
416 35 2313
417 35 6
419 35 2939
422 35 4101
424 35 1047
425 35 8
427 35 3602
428 35 3010
429 35 2028
431 35 3107
432 35 2710
433 35 5027
434 35 2705
436 35 2816
437 35 3347
440 35 3616
442 35 2289
443 35 2208
444 35 9
445 35 54
446 35 2770
448 35 3217
449 35 2369
450 35 1868
451 35 1493
452 35 3645
453 35 3784
454 35 1960
456 35 3562
457 35 16
458 35 698
459 35 3206
460 35 20
461 35 1863
462 35 9
463 35 4280
464 35 2118
465 35 3478
466 35 18
467 35 2505
468 35 1923
470 35 1
472 35 2624
475 35 2408
477 35 3480
478 35 4
479 35 3292
480 35 25
481 35 3568
482 35 3000
483 35 2477
484 35 3085
485 35 3443
488 35 2678
491 35 2499
492 35 3291
494 35 2528
495 35 159
496 35 2262
497 35 3152
1 36 7541
2 36 5950
3 36 6539
6 36 8
7 36 292
8 36 6483
10 36 9557
11 36 5801
14 36 5956
15 36 9024
18 36 5700
21 36 185
22 36 13107
25 36 13560
26 36 7701
28 36 6045
30 36 9676
31 36 6160
32 36 10939
33 36 6542
36 36 6898
37 36 9617
39 36 10178
40 36 9659
46 36 13597
47 36 296
48 36 4
53 36 5717
55 36 6800
56 36 11143
57 36 7371
58 36 244
59 36 13038
61 36 7511
63 36 1
64 36 7
66 36 11
67 36 8704
68 36 7529
69 36 11270
71 36 6012
72 36 6347
73 36 7085
74 36 6048
75 36 8778
77 36 9466
79 36 8420
80 36 7781
81 36 271
82 36 7781
85 36 2815
86 36 6446
87 36 7683
89 36 8294
91 36 8446
92 36 6642
95 36 3
96 36 5757
97 36 10043
98 36 7385
99 36 4715
100 36 7641
101 36 124
102 36 7
103 36 7094
104 36 7196
106 36 7426
107 36 5737
108 36 8268
109 36 4460
110 36 9213
113 36 10105
114 36 10695
116 36 14216
118 36 3858
120 36 6343
125 36 4058
126 36 7529
128 36 6743
130 36 8081
131 36 6321
132 36 6116
138 36 2
139 36 8825
141 36 5527
145 36 11625
146 36 7190
147 36 5242
148 36 6
149 36 6127
152 36 12385
156 36 8636
158 36 7961
159 36 8780
164 36 12588
165 36 9853
168 36 5563
169 36 6
171 36 12927
172 36 9329
173 36 10083
175 36 8049
177 36 755
179 36 9382
180 36 5948
181 36 9430
182 36 12416
183 36 6379
184 36 4
185 36 108
187 36 9382
189 36 11049
191 36 6
192 36 6480
193 36 5
194 36 14677
195 36 11864
196 36 5679
197 36 10237
201 36 9055
205 36 11476
211 36 6702
214 36 5803
216 36 6724
217 36 4796
219 36 8120
220 36 10143
221 36 10779
225 36 11668
227 36 6
228 36 5084
229 36 8510
231 36 6423
233 36 60
234 36 3881
235 36 22
236 36 6844
239 36 1004
240 36 7
243 36 25
245 36 7772
246 36 4
247 36 9154
249 36 6129
251 36 13397
252 36 4
255 36 9777
256 36 14515
258 36 23
259 36 8273
262 36 8556
264 36 6150
265 36 10364
266 36 8529
268 36 7790
271 36 23
272 36 2833
273 36 10094
274 36 25
275 36 11521
276 36 5023
278 36 5948
281 36 9578
284 36 9415
289 36 6724
291 36 14557
293 36 7784
294 36 16875
295 36 8448
296 36 7389
298 36 8674
299 36 5
300 36 13397
301 36 1338
302 36 9952
303 36 5535
305 36 4967
306 36 6321
307 36 7036
309 36 8894
310 36 12271
311 36 21895
312 36 9063
313 36 8
314 36 5925
315 36 7254
316 36 15779
319 36 3764
320 36 10627
325 36 7853
327 36 9251
330 36 5
331 36 9408
332 36 9623
334 36 9823
336 36 6890
337 36 1971
340 36 7045
341 36 4
342 36 7808
343 36 8641
344 36 13474
345 36 8848
346 36 6526
348 36 9106
349 36 10821
350 36 7529
352 36 8351
353 36 7201
357 36 8004
360 36 551
361 36 586
362 36 3
364 36 10062
366 36 8145
368 36 4
369 36 6240
371 36 9607
372 36 13042
375 36 7371
376 36 8494
377 36 8552
379 36 4
380 36 11376
381 36 10873
382 36 1785
383 36 9411
384 36 7792
385 36 7928
386 36 12662
387 36 8450
389 36 11891
390 36 11125
393 36 7272
395 36 12803
397 36 7289
399 36 8218
401 36 11374
402 36 11379
404 36 6188
406 36 9733
407 36 7127
408 36 6528
409 36 7157
410 36 4
411 36 6320
412 36 140
413 36 10613
414 36 10759
415 36 6887
416 36 7
417 36 7557
418 36 8912
420 36 13668
421 36 5258
422 36 623
423 36 6901
425 36 7519
426 36 12635
427 36 24
428 36 12
430 36 10184
431 36 2
435 36 8219
438 36 7429
439 36 8570
441 36 10712
444 36 7169
445 36 8474
447 36 8071
449 36 5
453 36 903
455 36 8063
457 36 7323
458 36 7486
460 36 9515
462 36 12568
466 36 6025
469 36 10434
470 36 11872
471 36 10749
473 36 9052
474 36 14920
476 36 6070
478 36 13605
480 36 7049
486 36 7223
487 36 8549
488 36 94
489 36 6267
490 36 10419
493 36 7583
495 36 9763
497 36 7
498 36 7301
499 36 8787
500 36 13915
1 37 2544
2 37 1505
3 37 1206
4 37 74
7 37 1175
8 37 1575
9 37 7
10 37 2359
11 37 1585
12 37 7
13 37 3
14 37 2493
15 37 2279
17 37 3
18 37 2505
19 37 22
20 37 9
21 37 489
22 37 2465
23 37 16
25 37 1797
26 37 1260
27 37 5
28 37 2017
30 37 2470
31 37 3110
32 37 2054
33 37 1805
34 37 94
36 37 1915
37 37 2046
39 37 1356
40 37 2207
44 37 3
46 37 3392
47 37 348
49 37 7
51 37 9
52 37 11
53 37 2546
54 37 7
55 37 2564
56 37 3107
57 37 2069
58 37 98
59 37 1795
60 37 2
61 37 3584
66 37 9
67 37 3513
68 37 2511
69 37 2242
71 37 1561
72 37 2758
73 37 2531
74 37 3068
75 37 3063
76 37 5
77 37 2430
78 37 7
79 37 2623
80 37 2251
81 37 455
82 37 1816
84 37 35
85 37 3309
86 37 3159
87 37 3011
88 37 5
89 37 2860
90 37 24
91 37 1269
92 37 2101
94 37 19
96 37 2643
97 37 3029
98 37 2497
99 37 1956
100 37 2375
101 37 318
102 37 8
103 37 2376
104 37 1397
105 37 6
106 37 1603
107 37 1633
108 37 2504
109 37 1583
110 37 3156
111 37 14
113 37 3569
114 37 1485
115 37 6
116 37 5091
118 37 2112
119 37 4
120 37 2513
121 37 9
122 37 46
123 37 8
124 37 53
125 37 2456
126 37 2570
128 37 3119
129 37 126
130 37 2746
131 37 2256
132 37 2055
136 37 8
137 37 4
139 37 2074
141 37 1153
142 37 6
144 37 3
145 37 2838
146 37 3222
147 37 2559
148 37 123
149 37 3660
150 37 4
152 37 2257
154 37 98
156 37 3059
157 37 5
158 37 2544
159 37 1793
160 37 26
164 37 2336
165 37 2875
167 37 7
168 37 1981
170 37 8
171 37 2393
172 37 2485
173 37 2064
175 37 2444
177 37 486
178 37 79
179 37 1772
180 37 3304
181 37 3971
182 37 3234
183 37 1872
184 37 9
185 37 688
186 37 20
187 37 2125
189 37 1582
190 37 7
192 37 2716
193 37 80
194 37 2837
195 37 1883
196 37 3321
197 37 1959
199 37 33
201 37 2491
202 37 5
205 37 3504
207 37 21
211 37 2961
212 37 11
214 37 2145
215 37 6
216 37 2831
217 37 3972
219 37 3765
220 37 2176
221 37 2711
222 37 7
223 37 3
225 37 4616
226 37 11
228 37 2018
229 37 2149
231 37 2520
233 37 114
234 37 1799
235 37 54
236 37 2773
237 37 11
238 37 9
239 37 1477
242 37 8
243 37 4
244 37 13
245 37 1638
247 37 1669
248 37 5
249 37 1435
251 37 2183
254 37 26
255 37 3353
256 37 2872
258 37 23
259 37 1717
260 37 3
261 37 7
262 37 3225
264 37 3308
265 37 2198
266 37 3068
268 37 3042
269 37 45
270 37 5
271 37 133
272 37 1432
273 37 2239
274 37 176
275 37 1908
276 37 2111
278 37 1711
279 37 2
280 37 4
281 37 4768
282 37 19
283 37 6
284 37 1736
285 37 7
288 37 7
289 37 2692
290 37 3
291 37 2401
292 37 2
293 37 2394
294 37 1324
295 37 3182
296 37 2068
298 37 1769
299 37 7
300 37 2608
301 37 1530
302 37 3392
303 37 1616
304 37 20
305 37 2997
306 37 3569
307 37 1397
309 37 3716
310 37 2389
311 37 1953
312 37 4058
314 37 2513
315 37 1996
316 37 1552
317 37 2
319 37 2775
320 37 3305
321 37 9
323 37 106
325 37 2852
326 37 4
327 37 2113
330 37 2
331 37 3223
332 37 3458
334 37 1688
336 37 2372
337 37 2613
340 37 2283
342 37 1713
343 37 2114
344 37 2554
345 37 2041
346 37 3143
348 37 2659
349 37 3656
350 37 2379
352 37 2451
353 37 2461
355 37 52
357 37 1907
358 37 7
360 37 673
361 37 464
362 37 22
364 37 3135
366 37 2134
368 37 9
369 37 2224
371 37 1799
372 37 2362
373 37 21
375 37 2440
376 37 2363
377 37 3537
378 37 7
380 37 3558
381 37 2914
382 37 1378
383 37 1905
384 37 2708
385 37 2250
386 37 2493
387 37 3511
388 37 5
389 37 1512
390 37 2923
392 37 23
393 37 2072
395 37 2107
397 37 2753
398 37 7
399 37 1669
400 37 4
401 37 2996
402 37 1948
404 37 3124
406 37 4422
407 37 3593
408 37 3140
409 37 2236
410 37 24
411 37 2501
412 37 729
413 37 3178
414 37 1794
415 37 2633
416 37 7
417 37 3037
418 37 2376
420 37 1867
421 37 2638
422 37 590
423 37 2294
424 37 6
425 37 2024
426 37 3906
428 37 23
430 37 2513
432 37 24
433 37 9
435 37 2542
436 37 4
438 37 1999
439 37 3224
441 37 3310
444 37 2239
445 37 3867
446 37 22
447 37 1474
449 37 7
450 37 5
452 37 30
453 37 1072
454 37 9
455 37 1606
456 37 4
457 37 1457
458 37 2642
460 37 2676
462 37 1153
463 37 24
465 37 7
466 37 2452
468 37 26
469 37 2348
470 37 4138
471 37 3282
473 37 3538
474 37 3818
475 37 43
476 37 2262
477 37 23
478 37 1345
479 37 5
480 37 2469
483 37 1
484 37 4
486 37 2337
487 37 1905
488 37 11
489 37 4565
490 37 2234
492 37 5
493 37 2470
494 37 8
495 37 2821
496 37 25
497 37 22
498 37 2038
499 37 1999
500 37 2267
1 38 49
2 38 115
4 38 3245
5 38 2512
6 38 2186
7 38 62
8 38 6
9 38 3067
10 38 216
11 38 175
12 38 2107
13 38 3643
14 38 147
15 38 21
16 38 3794
17 38 4795
18 38 2240
19 38 3664
20 38 3450
21 38 115
22 38 77
23 38 2707
24 38 2777
25 38 262
26 38 22
27 38 1473
28 38 180
29 38 4004
30 38 459
31 38 103
32 38 23
33 38 157
34 38 7246
35 38 3239
36 38 178
37 38 1269
38 38 1885
39 38 124
40 38 122
41 38 2664
42 38 1566
43 38 6920
44 38 4981
45 38 4626
46 38 8
47 38 3838
48 38 2267
49 38 7192
50 38 1949
51 38 3420
52 38 2594
53 38 2096
54 38 3128
55 38 49
56 38 3460
57 38 153
58 38 4050
59 38 1534
60 38 1826
61 38 183
62 38 4391
63 38 423
64 38 3717
65 38 2486
66 38 1513
67 38 10
68 38 93
69 38 72
70 38 5131
71 38 57
72 38 67
73 38 18
74 38 119
76 38 2034
77 38 4225
78 38 3090
79 38 285
80 38 1422
81 38 4910
82 38 69
83 38 4937
84 38 3108
85 38 223
86 38 476
87 38 156
88 38 5542
89 38 82
90 38 2882
91 38 31
92 38 366
93 38 2756
94 38 5114
95 38 2312
96 38 33
97 38 560
98 38 187
99 38 262
100 38 223
101 38 5344
102 38 2447
103 38 175
104 38 55
105 38 1443
106 38 69
107 38 75
108 38 124
109 38 4
110 38 178
111 38 3097
112 38 2038
113 38 164
114 38 27
115 38 5103
116 38 31
117 38 1872
118 38 62
119 38 2513
120 38 97
121 38 2355
122 38 2084
123 38 4119
124 38 458
125 38 193
126 38 55
127 38 2874
128 38 4821
129 38 772
130 38 96
131 38 1370
132 38 228
133 38 3547
134 38 3778
135 38 7989
136 38 2946
137 38 3130
138 38 2473
139 38 50
140 38 2650
141 38 189
142 38 1517
143 38 1893
144 38 4524
145 38 28
146 38 25
147 38 55
148 38 542
149 38 185
150 38 2862
151 38 3458
152 38 125
153 38 3447
154 38 374
155 38 6443
156 38 21
157 38 3353
158 38 596
159 38 115
160 38 2761
161 38 2420
162 38 2701
163 38 2204
164 38 136
165 38 110
166 38 3039
167 38 5818
168 38 61
169 38 2319
170 38 5061
171 38 148
172 38 188
173 38 193
174 38 1980
175 38 112
176 38 2074
177 38 5742
178 38 3041
179 38 18
180 38 197
181 38 374
183 38 58
184 38 1529
185 38 157
186 38 3702
187 38 111
188 38 4619
190 38 2439
191 38 1563
192 38 111
193 38 3057
194 38 227
195 38 147
196 38 352
197 38 223
198 38 2158
199 38 3376
200 38 2105
201 38 177
202 38 3052
203 38 3938
204 38 3834
205 38 240
206 38 6001
207 38 2978
208 38 3054
209 38 5903
210 38 1833
211 38 231
212 38 1917
213 38 3267
214 38 54
215 38 4593
216 38 27
217 38 105
218 38 2680
219 38 1729
220 38 28
221 38 213
222 38 3578
223 38 2299
224 38 3684
225 38 79
226 38 2106
227 38 2370
228 38 133
229 38 63
230 38 4034
231 38 27
232 38 3713
233 38 2832
234 38 35
235 38 2239
236 38 371
237 38 3283
238 38 4806
239 38 169
240 38 2910
241 38 8037
242 38 3890
243 38 5013
244 38 3978
245 38 60
246 38 2799
247 38 4059
248 38 5398
249 38 3828
250 38 2968
251 38 165
252 38 2895
253 38 3952
254 38 3770
255 38 267
256 38 221
257 38 2745
258 38 2375
259 38 77
260 38 6185
261 38 4182
262 38 29
263 38 3404
264 38 4129
266 38 29
267 38 3264
268 38 138
269 38 3903
270 38 3383
271 38 6612
272 38 4339
273 38 25
274 38 208
275 38 59
276 38 140
277 38 1890
278 38 7
279 38 1828
280 38 5676
281 38 31
282 38 390
283 38 1476
284 38 153
285 38 3891
286 38 3485
287 38 3449
288 38 5111
289 38 23
290 38 3259
291 38 121
292 38 2042
293 38 1736
294 38 98
295 38 1892
296 38 207
297 38 2300
298 38 115
299 38 3012
300 38 626
301 38 329
302 38 73
303 38 60
304 38 2996
305 38 150
306 38 215
307 38 79
308 38 2342
309 38 126
310 38 26
311 38 1156
312 38 100
313 38 2821
314 38 144
315 38 3406
316 38 346
317 38 3440
318 38 3139
319 38 94
320 38 242
321 38 3317
322 38 2154
323 38 410
324 38 3401
325 38 21
326 38 2453
327 38 1430
328 38 2126
329 38 2729
330 38 3332
331 38 130
332 38 59
333 38 1917
334 38 110
335 38 3607
336 38 21
337 38 81
338 38 5399
339 38 2640
340 38 29
341 38 2297
342 38 353
343 38 40
344 38 61
345 38 213
346 38 238
347 38 3044
348 38 2165
349 38 25
350 38 21
351 38 5699
352 38 7
353 38 192
354 38 3415
355 38 3406
356 38 957
357 38 8
358 38 2557
359 38 5811
360 38 4396
361 38 5615
362 38 3622
363 38 2825
364 38 586
365 38 2656
366 38 96
367 38 3490
368 38 1639
369 38 31
370 38 3629
371 38 273
372 38 29
373 38 3275
374 38 2417
375 38 118
376 38 266
377 38 66
378 38 6490
379 38 2300
380 38 172
381 38 22
382 38 126
383 38 26
384 38 165
385 38 155
386 38 4
387 38 29
388 38 3242
389 38 194
390 38 144
391 38 1171
392 38 2836
393 38 392
394 38 3162
395 38 100
396 38 2270
397 38 4376
398 38 3003
399 38 131
400 38 3766
401 38 6
402 38 63
403 38 5799
404 38 24
405 38 3350
407 38 121
408 38 496
409 38 26
410 38 3319
411 38 142
412 38 60
413 38 208
414 38 6
415 38 133
416 38 3214
417 38 126
418 38 119
419 38 2281
420 38 253
421 38 56
422 38 3215
423 38 28
424 38 1218
425 38 57
426 38 69
427 38 4568
428 38 2610
429 38 3114
430 38 125
431 38 5235
432 38 3482
433 38 3997
434 38 4203
435 38 25
436 38 3364
437 38 2517
438 38 162
439 38 23
440 38 4762
441 38 227
442 38 2201
443 38 1984
444 38 26
445 38 245
446 38 2532
447 38 307
448 38 8300
449 38 3230
450 38 3718
451 38 2886
452 38 4090
453 38 227
454 38 3719
455 38 225
456 38 3331
457 38 152
458 38 179
459 38 2285
460 38 25
461 38 2566
462 38 368
463 38 4712
464 38 4782
465 38 3532
466 38 50
467 38 2937
468 38 2359
469 38 228
470 38 367
471 38 16
472 38 3734
473 38 4
474 38 394
475 38 4530
476 38 132
477 38 4163
478 38 157
479 38 870
480 38 35
481 38 3550
482 38 9350
483 38 3117
484 38 2708
485 38 3979
486 38 127
487 38 3361
488 38 5882
489 38 7
490 38 353
491 38 3602
492 38 4013
493 38 1755
494 38 1656
495 38 127
496 38 4227
497 38 3091
498 38 2903
499 38 104
500 38 424
4 39 2166
5 39 1129
6 39 641
9 39 1021
11 39 22
12 39 289
13 39 1596
14 39 29
16 39 1726
17 39 1340
18 39 116
19 39 1163
20 39 2500
23 39 1151
24 39 863
27 39 1037
28 39 2
29 39 1535
30 39 52
31 39 23
34 39 1983
35 39 632
37 39 179
38 39 836
41 39 876
42 39 1036
43 39 1402
44 39 1049
45 39 1946
47 39 1718
48 39 652
49 39 1427
50 39 1267
51 39 956
52 39 841
53 39 125
54 39 506
55 39 5
56 39 601
58 39 1070
59 39 133
60 39 1223
62 39 2949
63 39 161
64 39 1411
65 39 1119
66 39 1370
70 39 1575
72 39 5
76 39 1135
77 39 1265
78 39 659
79 39 6
80 39 757
81 39 3365
83 39 451
84 39 1118
86 39 9
88 39 2046
90 39 1691
92 39 3
93 39 2122
94 39 1447
95 39 612
97 39 96
98 39 7
100 39 3
101 39 2722
102 39 1688
103 39 78
105 39 986
110 39 27
111 39 1289
112 39 1010
113 39 9
115 39 2205
116 39 29
117 39 768
119 39 1061
121 39 1296
122 39 1676
123 39 1207
124 39 67
127 39 761
128 39 1161
129 39 82
131 39 188
132 39 3
133 39 1122
134 39 900
135 39 1630
136 39 2443
137 39 1120
138 39 2350
140 39 809
141 39 4
142 39 1043
143 39 855
144 39 1533
145 39 4
148 39 16
150 39 1617
151 39 975
153 39 1097
154 39 134
155 39 1687
157 39 1294
158 39 323
160 39 1568
161 39 1219
162 39 829
163 39 1375
166 39 1568
167 39 1601
168 39 1
169 39 626
170 39 2075
172 39 64
174 39 1404
176 39 2102
177 39 3630
178 39 426
180 39 138
181 39 55
184 39 1483
185 39 28
186 39 1401
188 39 1616
190 39 1386
191 39 946
192 39 5
193 39 1714
194 39 4
196 39 83
198 39 1633
199 39 1487
200 39 266
201 39 54
202 39 775
203 39 1319
204 39 898
205 39 8
206 39 525
207 39 776
208 39 812
209 39 616
210 39 1228
211 39 84
212 39 780
213 39 723
215 39 1440
218 39 897
219 39 278
220 39 4
222 39 1215
223 39 2110
224 39 804
226 39 1809
227 39 628
229 39 21
230 39 1367
232 39 1434
233 39 1919
235 39 166
236 39 8
237 39 1001
238 39 1183
240 39 1534
241 39 1687
242 39 2248
243 39 943
244 39 1580
246 39 1546
247 39 1200
248 39 1272
249 39 1205
250 39 1421
251 39 23
252 39 1272
253 39 869
254 39 1179
255 39 3
256 39 6
257 39 668
258 39 2558
260 39 1736
261 39 1313
263 39 724
264 39 1210
267 39 1415
269 39 2499
270 39 833
271 39 1237
272 39 1826
277 39 836
279 39 1518
280 39 2035
282 39 149
283 39 315
285 39 1054
286 39 973
287 39 2732
288 39 2322
290 39 505
292 39 1525
293 39 821
295 39 488
296 39 4
297 39 644
298 39 3
299 39 789
300 39 183
304 39 706
306 39 2
308 39 409
311 39 180
313 39 1215
315 39 1620
316 39 53
317 39 1136
318 39 1372
321 39 2024
322 39 956
323 39 138
324 39 737
326 39 1406
327 39 129
328 39 1248
329 39 1813
330 39 1364
333 39 820
334 39 8
335 39 1407
338 39 1696
339 39 1136
341 39 633
342 39 3
347 39 469
348 39 374
351 39 2334
354 39 754
355 39 1413
358 39 1425
359 39 560
360 39 1488
361 39 2845
362 39 724
363 39 1849
364 39 111
365 39 744
366 39 6
367 39 717
368 39 945
370 39 946
371 39 21
373 39 883
374 39 2744
378 39 1280
379 39 641
388 39 490
389 39 8
390 39 7
391 39 124
392 39 1010
393 39 4
394 39 1082
396 39 932
397 39 1896
398 39 1330
400 39 603
403 39 560
405 39 1028
408 39 6
410 39 1659
413 39 8
416 39 939
419 39 712
422 39 1946
424 39 1056
427 39 971
428 39 665
429 39 1092
431 39 1744
432 39 1645
433 39 837
434 39 2090
436 39 1274
437 39 1046
440 39 3426
441 39 9
442 39 911
443 39 1497
446 39 1078
447 39 1
448 39 2214
449 39 1014
450 39 721
451 39 751
452 39 2568
453 39 31
454 39 1385
456 39 1165
457 39 57
458 39 7
459 39 1714
460 39 2
461 39 804
462 39 2
463 39 1298
464 39 1126
465 39 1235
466 39 6
467 39 1994
468 39 968
471 39 4
472 39 1333
474 39 107
475 39 1677
477 39 1801
479 39 176
481 39 1614
482 39 384
483 39 490
484 39 1753
485 39 1632
486 39 8
487 39 1485
488 39 1521
490 39 6
491 39 1042
492 39 1601
493 39 864
494 39 578
496 39 2774
497 39 1392
498 39 1299
4 40 850
5 40 658
6 40 834
9 40 1310
11 40 4
12 40 97
13 40 362
16 40 594
17 40 801
18 40 689
19 40 405
20 40 1504
23 40 730
24 40 964
27 40 427
28 40 8
29 40 357
30 40 63
34 40 1729
35 40 1217
37 40 143
38 40 575
41 40 899
42 40 565
43 40 1092
44 40 877
45 40 1370
47 40 917
48 40 836
49 40 1285
50 40 465
51 40 630
52 40 746
53 40 741
54 40 739
56 40 967
58 40 965
59 40 240
60 40 730
62 40 808
64 40 1204
65 40 622
66 40 1136
70 40 880
76 40 843
77 40 1673
78 40 462
80 40 556
81 40 1163
83 40 479
84 40 426
86 40 34
88 40 500
90 40 778
92 40 25
93 40 794
94 40 1139
95 40 826
97 40 97
98 40 4
101 40 1005
102 40 1037
105 40 472
111 40 815
112 40 808
115 40 516
117 40 413
119 40 457
121 40 802
122 40 889
123 40 1749
127 40 793
128 40 750
129 40 120
131 40 336
132 40 7
133 40 772
134 40 1902
135 40 700
136 40 1270
137 40 668
138 40 745
140 40 583
142 40 410
143 40 600
144 40 737
148 40 5
150 40 796
151 40 1090
153 40 736
154 40 80
155 40 1339
157 40 807
158 40 234
160 40 819
161 40 441
162 40 555
163 40 793
166 40 2111
167 40 897
169 40 832
170 40 1111
174 40 997
176 40 356
177 40 1811
178 40 1052
180 40 62
181 40 69
184 40 1102
186 40 599
188 40 488
190 40 452
191 40 841
192 40 19
193 40 1714
196 40 5
198 40 1180
199 40 437
200 40 162
202 40 1084
203 40 866
204 40 481
206 40 818
207 40 659
208 40 847
209 40 834
210 40 783
212 40 415
213 40 568
215 40 498
218 40 777
219 40 130
222 40 229
223 40 1534
224 40 930
226 40 772
227 40 896
230 40 723
232 40 644
233 40 376
235 40 264
237 40 682
238 40 762
240 40 1644
241 40 663
242 40 1152
243 40 1365
244 40 914
246 40 747
247 40 1057
248 40 838
249 40 1333
250 40 905
252 40 158
253 40 727
254 40 464
257 40 587
258 40 344
260 40 804
261 40 923
263 40 563
264 40 407
267 40 882
269 40 381
270 40 575
271 40 825
272 40 1027
277 40 393
279 40 485
280 40 506
282 40 43
283 40 571
285 40 712
286 40 542
287 40 903
288 40 533
290 40 1276
292 40 399
293 40 945
295 40 274
297 40 685
299 40 1171
300 40 287
301 40 6
304 40 679
308 40 341
311 40 258
313 40 179
315 40 1486
316 40 81
317 40 726
318 40 778
321 40 273
322 40 883
323 40 77
324 40 592
326 40 470
327 40 282
328 40 468
329 40 570
330 40 1583
333 40 421
335 40 411
338 40 1072
339 40 673
341 40 846
347 40 690
348 40 331
351 40 884
353 40 2
354 40 565
355 40 504
356 40 22
358 40 1450
359 40 826
360 40 872
361 40 886
362 40 766
363 40 407
364 40 93
365 40 579
367 40 587
368 40 851
370 40 1285
373 40 502
374 40 1341
375 40 10
378 40 1433
379 40 845
386 40 6
388 40 661
391 40 234
392 40 1207
394 40 452
396 40 836
397 40 681
398 40 274
400 40 581
403 40 879
405 40 610
408 40 27
410 40 888
416 40 1340
419 40 270
422 40 618
424 40 288
427 40 1032
428 40 400
429 40 400
431 40 984
432 40 781
433 40 797
434 40 680
436 40 1212
437 40 686
440 40 1076
442 40 859
443 40 938
446 40 805
448 40 928
449 40 1326
450 40 867
451 40 786
452 40 1522
454 40 669
456 40 792
459 40 470
461 40 873
463 40 661
464 40 402
465 40 505
467 40 966
468 40 437
472 40 599
475 40 591
477 40 305
479 40 63
481 40 970
482 40 1273
483 40 665
484 40 736
485 40 1167
487 40 1703
488 40 867
491 40 994
492 40 1509
493 40 917
494 40 609
496 40 1032
497 40 929
498 40 1138
1 41 1401
2 41 2504
3 41 1999
4 41 2122
5 41 1489
6 41 917
7 41 1274
8 41 1297
9 41 2460
10 41 2555
11 41 2858
12 41 2758
13 41 1567
14 41 1779
15 41 3085
16 41 1920
17 41 792
18 41 1985
19 41 1688
20 41 2687
21 41 2276
22 41 3242
23 41 1060
24 41 1796
25 41 3566
26 41 1374
27 41 507
28 41 2634
29 41 1598
30 41 1864
31 41 1468
32 41 2130
33 41 1414
34 41 1372
35 41 1532
36 41 1857
37 41 2362
38 41 2161
39 41 2114
40 41 2371
41 41 1772
42 41 1324
43 41 1827
44 41 1078
45 41 2183
46 41 4515
47 41 2065
48 41 957
49 41 3198
50 41 943
51 41 1330
52 41 814
53 41 2119
54 41 1437
55 41 1454
56 41 3000
57 41 3245
58 41 3273
59 41 1516
60 41 1737
61 41 913
62 41 2390
63 41 1932
64 41 1971
65 41 1501
66 41 1364
67 41 1568
68 41 1961
69 41 2420
70 41 1510
71 41 2559
72 41 1959
73 41 3144
74 41 2455
75 41 2817
76 41 1156
77 41 2323
78 41 1092
79 41 2744
80 41 978
81 41 2245
82 41 2636
83 41 1756
84 41 1432
85 41 3397
86 41 2925
87 41 2112
88 41 1198
89 41 4584
90 41 3168
91 41 2205
92 41 1891
93 41 1641
94 41 2813
95 41 961
96 41 2760
97 41 1048
98 41 2645
99 41 2087
100 41 1349
101 41 2341
102 41 2020
103 41 1354
104 41 842
105 41 541
106 41 1883
107 41 1942
108 41 2521
109 41 1868
110 41 2814
111 41 1043
112 41 1783
113 41 2304
114 41 2111
115 41 1206
116 41 4374
117 41 309
118 41 1971
119 41 1197
120 41 2118
121 41 1022
122 41 817
123 41 1382
124 41 2057
125 41 1894
126 41 1322
127 41 1714
128 41 2814
129 41 1363
130 41 2982
131 41 2858
132 41 2755
133 41 1390
134 41 2932
135 41 1185
136 41 1179
137 41 1146
138 41 1226
139 41 3701
140 41 654
141 41 1428
142 41 544
143 41 2205
144 41 2143
145 41 2429
146 41 2485
147 41 2526
148 41 1923
149 41 898
150 41 1154
151 41 2411
152 41 2515
153 41 1471
154 41 725
155 41 1964
156 41 2545
157 41 1312
158 41 1231
159 41 2069
160 41 973
161 41 1774
162 41 702
163 41 1639
164 41 2524
165 41 3503
166 41 2947
167 41 1518
168 41 2145
169 41 911
170 41 3981
171 41 2281
172 41 1718
173 41 2868
174 41 1837
175 41 2845
176 41 1196
177 41 2778
178 41 1367
179 41 1301
180 41 2470
181 41 1984
182 41 1837
183 41 1620
184 41 1434
185 41 2283
186 41 1158
187 41 2519
188 41 2125
189 41 2767
190 41 1853
191 41 688
192 41 1395
193 41 2044
194 41 2133
195 41 1275
196 41 3074
197 41 2137
198 41 2582
199 41 2205
200 41 2549
201 41 1644
202 41 1427
203 41 1195
204 41 1870
205 41 3254
206 41 1239
207 41 1054
208 41 2484
209 41 1268
210 41 874
211 41 3477
212 41 571
213 41 1108
214 41 2521
215 41 1311
216 41 1500
217 41 1092
218 41 921
219 41 3277
220 41 3255
221 41 4286
222 41 1473
223 41 1761
224 41 1479
225 41 4543
226 41 1969
227 41 1010
228 41 2593
229 41 2000
230 41 2730
231 41 1788
232 41 1479
233 41 1785
234 41 1173
235 41 2528
236 41 2193
237 41 860
238 41 1734
239 41 1799
240 41 1266
241 41 1254
242 41 1637
243 41 2381
244 41 1336
245 41 2906
246 41 2474
247 41 3741
248 41 2599
249 41 1499
250 41 2045
251 41 2325
252 41 914
253 41 1620
254 41 677
255 41 2591
256 41 2072
257 41 2759
258 41 2274
259 41 1997
260 41 1285
261 41 1461
262 41 3562
263 41 564
264 41 3255
265 41 2106
266 41 2631
267 41 2206
268 41 2067
269 41 1813
270 41 718
271 41 2270
272 41 2189
273 41 1655
274 41 1688
275 41 2746
276 41 2580
277 41 324
278 41 1988
279 41 1117
280 41 1212
281 41 1771
282 41 1472
283 41 1938
284 41 2267
285 41 1709
286 41 1100
287 41 1395
288 41 1282
289 41 1559
290 41 1781
291 41 2312
292 41 672
293 41 2604
294 41 1879
295 41 2130
296 41 2107
297 41 908
298 41 2556
299 41 1778
300 41 2670
301 41 2840
302 41 2311
303 41 1649
304 41 1037
305 41 2467
306 41 2834
307 41 2125
308 41 2449
309 41 2808
310 41 4284
311 41 2729
312 41 2687
313 41 930
314 41 2184
315 41 2956
316 41 1597
317 41 2720
318 41 797
319 41 2292
320 41 2898
321 41 1725
322 41 827
323 41 779
324 41 630
325 41 2758
326 41 1835
327 41 1819
328 41 1006
329 41 1499
330 41 961
331 41 1586
332 41 2277
333 41 335
334 41 2261
335 41 2074
336 41 1569
337 41 1978
338 41 1751
339 41 887
340 41 2277
341 41 940
342 41 2250
343 41 3633
344 41 1756
345 41 2123
346 41 2458
347 41 1352
348 41 1852
349 41 4533
350 41 1784
351 41 924
352 41 2130
353 41 2340
354 41 650
355 41 2157
356 41 3086
357 41 1391
358 41 1391
359 41 1233
360 41 2708
361 41 1554
362 41 1018
363 41 1032
364 41 1032
365 41 708
366 41 1635
367 41 708
368 41 1496
369 41 1847
370 41 1521
371 41 2604
372 41 2196
373 41 1589
374 41 1168
375 41 3610
376 41 1473
377 41 998
378 41 1261
379 41 927
380 41 2875
381 41 1575
382 41 2542
383 41 4727
384 41 2606
385 41 3285
386 41 2132
387 41 2002
388 41 1562
389 41 3443
390 41 3283
391 41 1764
392 41 2365
393 41 3815
394 41 1462
395 41 2229
396 41 883
397 41 2575
398 41 2134
399 41 1884
400 41 1547
401 41 1107
402 41 2716
403 41 1235
404 41 1526
405 41 1175
406 41 2858
407 41 2455
408 41 2875
409 41 3565
410 41 1299
411 41 1598
412 41 1725
413 41 2011
414 41 1176
415 41 1716
416 41 1391
417 41 1847
418 41 2627
419 41 1966
420 41 3381
421 41 1961
422 41 1177
423 41 1619
424 41 680
425 41 1256
426 41 2518
427 41 1366
428 41 2436
429 41 1581
430 41 4675
431 41 1986
432 41 1371
433 41 2158
434 41 2144
435 41 2164
436 41 804
437 41 940
438 41 1949
439 41 3634
440 41 1752
441 41 1823
442 41 889
443 41 3387
444 41 3226
445 41 2035
446 41 930
447 41 2034
448 41 3141
449 41 1302
450 41 963
451 41 1743
452 41 1284
453 41 1951
454 41 1618
455 41 1060
456 41 1326
457 41 2805
458 41 1399
459 41 1758
460 41 1886
461 41 1579
462 41 3136
463 41 1512
464 41 701
465 41 2797
466 41 2675
467 41 885
468 41 905
469 41 1607
470 41 2084
471 41 2508
472 41 1440
473 41 2536
474 41 1933
475 41 1561
476 41 2856
477 41 1328
478 41 2120
479 41 2220
480 41 3294
481 41 1051
482 41 1409
483 41 1454
484 41 1034
485 41 2390
486 41 762
487 41 3262
488 41 1740
489 41 1698
490 41 2530
491 41 948
492 41 428
493 41 2632
494 41 1513
495 41 2544
496 41 1863
497 41 1536
498 41 1114
499 41 1528
500 41 2707
1 42 323
2 42 435
3 42 320
4 42 226
5 42 71
6 42 83
7 42 66
8 42 446
9 42 59
10 42 179
11 42 142
12 42 134
13 42 110
14 42 302
15 42 380
16 42 83
17 42 35
18 42 46
19 42 26
20 42 152
21 42 364
22 42 445
23 42 65
24 42 95
25 42 627
26 42 190
27 42 143
28 42 132
29 42 229
30 42 161
31 42 499
32 42 227
33 42 265
34 42 246
35 42 119
36 42 219
37 42 163
38 42 78
39 42 228
40 42 274
41 42 83
42 42 59
43 42 115
44 42 69
45 42 132
46 42 277
48 42 84
49 42 63
50 42 48
51 42 80
52 42 63
53 42 52
54 42 85
55 42 124
56 42 174
57 42 420
58 42 102
59 42 294
60 42 20
61 42 640
62 42 105
63 42 470
64 42 78
65 42 65
66 42 38
67 42 325
68 42 225
69 42 310
70 42 256
71 42 51
72 42 279
73 42 145
74 42 152
75 42 509
76 42 85
77 42 214
78 42 170
79 42 340
80 42 230
81 42 87
82 42 226
83 42 10
84 42 82
85 42 258
86 42 269
87 42 256
88 42 65
89 42 270
90 42 186
91 42 216
92 42 19
93 42 129
94 42 196
95 42 69
96 42 245
97 42 283
98 42 396
99 42 690
100 42 133
101 42 163
102 42 59
103 42 151
104 42 157
105 42 125
106 42 232
107 42 292
108 42 207
109 42 150
110 42 217
111 42 23
112 42 81
113 42 326
114 42 208
115 42 171
116 42 275
117 42 102
118 42 295
119 42 242
120 42 672
121 42 86
123 42 19
124 42 89
125 42 249
126 42 316
127 42 6
128 42 99
129 42 206
130 42 273
131 42 214
132 42 126
133 42 123
134 42 94
135 42 130
136 42 42
137 42 68
138 42 97
139 42 138
140 42 110
141 42 147
142 42 141
143 42 84
144 42 144
145 42 205
146 42 284
147 42 165
148 42 108
149 42 394
150 42 51
151 42 229
152 42 273
153 42 84
154 42 100
155 42 227
156 42 255
157 42 84
158 42 355
159 42 129
160 42 89
161 42 37
162 42 95
163 42 84
164 42 270
165 42 6
166 42 132
167 42 46
168 42 1497
169 42 65
170 42 159
171 42 526
172 42 694
173 42 426
174 42 131
175 42 224
176 42 68
177 42 117
178 42 76
179 42 226
180 42 563
181 42 448
182 42 194
183 42 433
184 42 41
185 42 141
186 42 43
187 42 548
188 42 51
189 42 524
190 42 85
191 42 52
192 42 693
193 42 265
194 42 164
195 42 568
196 42 11
197 42 329
198 42 139
199 42 97
200 42 259
201 42 732
202 42 161
203 42 146
204 42 68
205 42 294
206 42 38
207 42 144
208 42 6
209 42 54
210 42 108
211 42 463
212 42 37
213 42 152
214 42 241
215 42 91
216 42 232
217 42 159
218 42 97
219 42 133
220 42 107
221 42 151
222 42 127
223 42 134
224 42 21
225 42 172
226 42 65
227 42 65
228 42 157
229 42 193
230 42 273
231 42 284
232 42 43
233 42 230
234 42 297
235 42 208
236 42 287
237 42 276
238 42 17
239 42 235
240 42 199
241 42 134
242 42 253
243 42 127
244 42 68
245 42 209
246 42 76
247 42 187
248 42 106
249 42 149
250 42 218
251 42 263
252 42 70
253 42 169
254 42 57
255 42 242
256 42 161
257 42 141
258 42 195
259 42 267
260 42 93
261 42 212
262 42 304
263 42 62
264 42 90
265 42 400
266 42 309
267 42 126
268 42 280
269 42 233
270 42 53
271 42 91
272 42 136
273 42 143
274 42 287
275 42 216
276 42 178
277 42 131
278 42 324
279 42 129
280 42 70
281 42 395
282 42 204
283 42 111
284 42 335
285 42 151
286 42 51
287 42 11
288 42 191
289 42 243
290 42 71
291 42 124
292 42 175
293 42 435
294 42 292
295 42 4
296 42 259
297 42 94
298 42 200
299 42 112
300 42 26
301 42 210
302 42 289
303 42 184
304 42 153
305 42 87
306 42 235
307 42 508
308 42 181
309 42 134
310 42 686
311 42 116
312 42 409
313 42 71
314 42 126
315 42 151
316 42 346
317 42 110
318 42 15
319 42 272
320 42 562
321 42 55
322 42 70
323 42 89
324 42 73
325 42 277
326 42 84
327 42 80
328 42 50
329 42 114
330 42 497
331 42 404
332 42 288
333 42 125
334 42 240
335 42 16
336 42 193
337 42 187
338 42 60
339 42 103
340 42 175
341 42 64
342 42 137
343 42 147
344 42 310
345 42 120
346 42 180
347 42 154
348 42 27
349 42 282
350 42 218
351 42 153
352 42 57
353 42 126
354 42 68
355 42 101
356 42 192
357 42 424
358 42 86
359 42 58
360 42 169
361 42 15
362 42 66
363 42 97
364 42 270
365 42 80
366 42 235
367 42 93
368 42 87
369 42 407
370 42 60
371 42 227
372 42 692
373 42 176
374 42 52
375 42 265
376 42 430
377 42 667
378 42 70
379 42 67
380 42 764
381 42 115
382 42 259
383 42 104
384 42 158
385 42 238
386 42 115
387 42 415
388 42 93
389 42 92
390 42 301
391 42 35
392 42 133
393 42 121
394 42 38
395 42 360
396 42 58
397 42 196
398 42 54
399 42 217
400 42 73
401 42 416
402 42 186
403 42 56
404 42 86
405 42 114
406 42 22
407 42 260
408 42 258
409 42 268
411 42 302
412 42 380
413 42 305
414 42 299
415 42 240
416 42 30
417 42 1026
418 42 544
419 42 429
420 42 609
421 42 350
422 42 90
423 42 183
424 42 61
425 42 218
426 42 335
427 42 125
428 42 198
429 42 38
430 42 289
431 42 163
432 42 95
433 42 194
434 42 93
435 42 268
436 42 88
437 42 106
438 42 218
439 42 355
441 42 154
442 42 64
443 42 137
444 42 340
445 42 291
446 42 57
447 42 1456
448 42 121
449 42 41
450 42 34
451 42 3
452 42 198
453 42 205
454 42 114
455 42 251
456 42 68
457 42 124
458 42 142
459 42 88
460 42 244
461 42 74
462 42 320
463 42 59
464 42 83
465 42 87
466 42 562
467 42 95
468 42 169
469 42 240
470 42 359
471 42 265
472 42 41
473 42 118
474 42 490
475 42 205
476 42 304
477 42 28
478 42 319
479 42 409
480 42 140
481 42 189
482 42 79
483 42 97
484 42 113
485 42 84
486 42 114
487 42 165
488 42 22
489 42 250
490 42 468
491 42 63
492 42 128
493 42 444
494 42 67
495 42 691
496 42 132
497 42 82
498 42 19
499 42 231
500 42 188
3 43 6
6 43 8
11 43 27
15 43 6
16 43 7
17 43 11
19 43 25
22 43 8
27 43 5
28 43 11
30 43 4
37 43 31
40 43 5
46 43 12
48 43 2
54 43 6
62 43 4
73 43 4
78 43 2
93 43 10
95 43 2
97 43 7
100 43 1
105 43 2
126 43 8
129 43 6
132 43 4
135 43 1
138 43 5
142 43 6
144 43 7
147 43 7
158 43 9
163 43 9
169 43 3
180 43 7
187 43 4
189 43 6
190 43 7
195 43 98
198 43 21
210 43 16
213 43 11
227 43 6
237 43 3
241 43 2
242 43 7
249 43 4
251 43 7
261 43 6
263 43 4
279 43 5
283 43 6
288 43 3
290 43 26
293 43 3
296 43 2
297 43 8
303 43 3
307 43 6
310 43 4
315 43 11
316 43 5
324 43 4
326 43 7
331 43 5
340 43 7
341 43 7
347 43 5
349 43 5
353 43 9
354 43 7
364 43 7
367 43 4
368 43 8
379 43 7
381 43 3
388 43 5
395 43 9
399 43 2
404 43 14
409 43 2
415 43 8
418 43 7
422 43 8
426 43 3
452 43 5
454 43 2
462 43 7
469 43 2
475 43 6
476 43 5
478 43 5
480 43 5
483 43 7
493 43 7
497 43 6
1 44 877
2 44 1731
3 44 828
4 44 1584
5 44 1185
6 44 821
7 44 1630
8 44 885
9 44 1515
10 44 1764
11 44 1223
12 44 1168
13 44 1479
14 44 1547
15 44 640
16 44 1483
17 44 1188
18 44 1755
19 44 710
20 44 989
21 44 580
22 44 2491
23 44 622
24 44 1554
25 44 1132
26 44 744
27 44 396
28 44 1045
29 44 1396
30 44 1623
31 44 791
32 44 1544
33 44 1011
34 44 1424
35 44 1072
36 44 753
37 44 1172
38 44 759
39 44 1405
40 44 1961
41 44 1501
42 44 801
43 44 487
44 44 962
45 44 1687
46 44 1161
47 44 1734
48 44 913
49 44 2217
50 44 349
51 44 384
52 44 697
53 44 1891
54 44 1100
55 44 1131
56 44 1908
57 44 1528
58 44 2054
59 44 2077
60 44 1276
61 44 840
62 44 1161
63 44 782
64 44 1910
65 44 1197
66 44 1461
67 44 956
68 44 1298
69 44 1163
70 44 1102
71 44 1611
72 44 1732
73 44 2575
74 44 2050
75 44 1422
76 44 740
77 44 1206
78 44 1584
79 44 2185
80 44 455
81 44 1475
82 44 1412
83 44 2087
84 44 587
85 44 1614
86 44 752
87 44 762
88 44 754
89 44 2306
90 44 1108
91 44 916
92 44 1464
93 44 965
94 44 459
95 44 907
96 44 2065
97 44 2715
98 44 1322
99 44 1284
100 44 873
101 44 1811
102 44 1292
103 44 2111
104 44 1074
105 44 436
106 44 2644
107 44 2076
108 44 1085
109 44 1625
110 44 1001
111 44 917
112 44 618
113 44 732
114 44 898
115 44 654
116 44 1675
117 44 879
118 44 2390
119 44 831
120 44 1560
121 44 897
122 44 2857
123 44 2044
124 44 1280
125 44 1029
126 44 1326
127 44 921
128 44 1317
129 44 1543
130 44 1611
131 44 1252
132 44 1014
133 44 1040
134 44 1467
135 44 1582
136 44 477
137 44 527
138 44 946
139 44 1883
140 44 588
141 44 1159
142 44 429
143 44 774
144 44 1365
145 44 2891
146 44 900
147 44 1704
148 44 870
149 44 1149
150 44 1063
151 44 1567
152 44 3045
153 44 1011
154 44 1023
155 44 1511
156 44 2070
157 44 1008
158 44 365
159 44 2585
160 44 823
161 44 940
162 44 615
163 44 871
164 44 3005
165 44 2202
166 44 861
167 44 1110
168 44 707
169 44 904
170 44 1295
171 44 1501
172 44 798
173 44 1487
174 44 907
175 44 1047
176 44 1774
177 44 1489
178 44 1410
179 44 1249
180 44 1060
181 44 1540
182 44 2160
183 44 1870
184 44 1475
185 44 1158
186 44 2076
187 44 1021
188 44 985
189 44 1868
190 44 248
191 44 981
192 44 945
193 44 1055
194 44 1924
195 44 1598
196 44 1293
197 44 1165
198 44 1093
199 44 2776
200 44 1802
201 44 812
202 44 1500
203 44 619
204 44 1617
205 44 2379
206 44 1143
207 44 1513
208 44 2444
209 44 1113
210 44 514
211 44 1068
212 44 126
213 44 1615
214 44 1318
215 44 827
216 44 2059
217 44 1189
218 44 1503
219 44 1936
220 44 1021
221 44 1981
222 44 386
223 44 1143
224 44 1630
225 44 1606
226 44 984
227 44 903
228 44 1264
229 44 450
230 44 1034
231 44 1376
232 44 543
233 44 1632
234 44 334
235 44 892
236 44 815
237 44 543
238 44 1095
239 44 1374
240 44 633
241 44 1580
242 44 2323
243 44 611
244 44 1351
245 44 1533
246 44 1153
247 44 792
248 44 2005
249 44 1282
250 44 1569
251 44 850
252 44 701
253 44 1333
254 44 939
255 44 1950
256 44 1896
257 44 2337
258 44 1087
259 44 899
260 44 770
261 44 2152
262 44 710
263 44 430
264 44 1892
265 44 1855
266 44 2007
267 44 2166
268 44 794
269 44 1029
270 44 197
271 44 685
272 44 2282
273 44 2757
274 44 380
275 44 1851
276 44 1340
277 44 809
278 44 1556
279 44 1268
280 44 762
281 44 1486
282 44 2133
283 44 1522
284 44 1542
285 44 1010
286 44 444
287 44 1103
288 44 661
289 44 1980
290 44 1389
291 44 1061
292 44 770
293 44 752
294 44 1418
295 44 2024
296 44 1555
297 44 1063
298 44 1937
299 44 1496
300 44 2366
301 44 2186
302 44 2015
303 44 922
304 44 1512
305 44 857
306 44 1652
307 44 1380
308 44 1554
309 44 2246
310 44 1706
311 44 2169
312 44 1826
313 44 747
314 44 2502
315 44 1051
316 44 1050
317 44 2101
318 44 2094
319 44 1913
320 44 1247
321 44 1042
322 44 679
323 44 1053
324 44 443
325 44 916
326 44 226
327 44 1579
328 44 366
329 44 889
330 44 1618
331 44 678
332 44 2066
333 44 794
334 44 705
335 44 816
336 44 1012
337 44 1264
338 44 1720
339 44 1924
340 44 1931
341 44 874
342 44 1295
343 44 1820
344 44 1296
345 44 803
346 44 1631
347 44 800
348 44 929
349 44 2238
350 44 668
351 44 1019
352 44 1370
353 44 857
354 44 459
355 44 2764
356 44 1572
357 44 1648
358 44 806
359 44 1114
360 44 1566
361 44 2828
362 44 1052
363 44 1085
364 44 2772
365 44 550
366 44 1690
367 44 469
368 44 1381
369 44 875
370 44 715
371 44 1923
372 44 565
373 44 534
374 44 401
375 44 1407
376 44 933
377 44 1759
378 44 2267
379 44 938
380 44 747
381 44 1584
382 44 879
383 44 1430
384 44 787
385 44 1459
386 44 622
387 44 1054
388 44 1032
389 44 2481
390 44 909
391 44 1334
392 44 1486
393 44 1253
394 44 1498
395 44 1784
396 44 678
397 44 2449
398 44 858
399 44 1757
400 44 1593
401 44 1098
402 44 1841
403 44 1113
404 44 2205
405 44 1320
406 44 2737
407 44 1409
408 44 773
409 44 1332
410 44 1761
411 44 838
412 44 1617
413 44 1660
414 44 976
415 44 1029
416 44 849
417 44 916
418 44 2740
419 44 1075
420 44 1145
421 44 1450
422 44 1683
423 44 953
424 44 341
425 44 797
426 44 1824
427 44 1243
428 44 1893
429 44 1232
430 44 3165
431 44 924
432 44 1181
433 44 2038
434 44 1366
435 44 2250
436 44 707
437 44 1125
438 44 2596
439 44 711
440 44 1804
441 44 2070
442 44 690
443 44 1011
444 44 2214
445 44 1324
446 44 1415
447 44 1173
448 44 1470
449 44 825
450 44 2028
451 44 907
452 44 2282
453 44 1264
454 44 1368
455 44 1498
456 44 1064
457 44 1705
458 44 1525
459 44 1102
460 44 1914
461 44 1630
462 44 2625
463 44 1532
464 44 996
465 44 805
466 44 1071
467 44 888
468 44 1574
469 44 670
470 44 3005
471 44 1465
472 44 488
473 44 1698
474 44 575
475 44 2079
476 44 992
477 44 1817
478 44 1150
479 44 476
480 44 2612
481 44 1061
482 44 1212
483 44 1147
484 44 1522
485 44 1171
486 44 1781
487 44 2228
488 44 2125
489 44 1988
490 44 1931
491 44 826
492 44 953
493 44 766
494 44 280
495 44 1090
496 44 1893
497 44 1336
498 44 2074
499 44 1723
500 44 1782
1 45 165
2 45 272
3 45 175
4 45 215
5 45 41
6 45 35
7 45 94
8 45 224
9 45 83
10 45 204
11 45 168
12 45 55
13 45 168
14 45 93
15 45 332
16 45 124
17 45 28
18 45 139
19 45 104
20 45 187
21 45 234
22 45 224
23 45 73
24 45 45
25 45 204
26 45 18
27 45 90
28 45 206
29 45 194
30 45 180
31 45 145
32 45 224
33 45 81
34 45 273
35 45 197
36 45 347
37 45 37
38 45 104
39 45 327
40 45 24
41 45 50
42 45 92
43 45 91
44 45 156
45 45 82
46 45 350
47 45 60
48 45 58
49 45 48
50 45 62
51 45 76
52 45 61
53 45 123
54 45 44
55 45 185
56 45 152
57 45 232
58 45 149
59 45 301
60 45 78
61 45 148
62 45 198
63 45 182
64 45 101
65 45 37
66 45 115
67 45 332
68 45 162
69 45 224
70 45 385
71 45 201
72 45 213
73 45 105
74 45 96
75 45 29
76 45 88
77 45 339
78 45 136
79 45 196
80 45 160
81 45 216
82 45 150
83 45 117
84 45 106
85 45 206
86 45 203
87 45 115
88 45 121
89 45 146
90 45 71
91 45 161
92 45 206
93 45 112
94 45 101
95 45 39
96 45 158
97 45 220
98 45 100
99 45 384
100 45 171
101 45 26
102 45 74
103 45 54
104 45 245
105 45 107
106 45 203
107 45 180
108 45 154
109 45 213
110 45 83
111 45 79
112 45 65
113 45 282
114 45 159
115 45 250
116 45 271
117 45 139
118 45 148
119 45 91
120 45 226
121 45 75
122 45 139
123 45 116
124 45 136
125 45 95
126 45 363
127 45 347
128 45 134
129 45 35
130 45 189
131 45 45
132 45 224
133 45 84
134 45 89
135 45 142
136 45 87
137 45 165
138 45 105
139 45 124
140 45 135
141 45 118
142 45 88
143 45 148
144 45 123
145 45 193
146 45 180
147 45 103
148 45 156
149 45 233
150 45 155
151 45 143
152 45 244
153 45 68
154 45 155
155 45 296
156 45 198
157 45 117
158 45 244
159 45 215
160 45 66
161 45 159
162 45 109
163 45 259
164 45 229
165 45 233
166 45 171
167 45 117
168 45 240
169 45 52
170 45 75
171 45 382
172 45 259
173 45 262
174 45 90
175 45 457
176 45 97
177 45 202
178 45 111
179 45 140
180 45 389
181 45 285
182 45 85
183 45 2
184 45 121
185 45 95
186 45 27
187 45 237
188 45 59
189 45 240
190 45 75
191 45 49
192 45 99
193 45 241
194 45 214
195 45 294
196 45 62
197 45 249
198 45 106
199 45 64
200 45 213
201 45 250
202 45 15
203 45 105
204 45 98
205 45 177
206 45 83
207 45 124
208 45 78
209 45 86
210 45 99
211 45 258
212 45 49
213 45 80
214 45 202
215 45 85
216 45 299
217 45 162
218 45 116
219 45 186
220 45 161
221 45 170
222 45 244
223 45 33
224 45 71
225 45 235
226 45 62
227 45 49
228 45 246
229 45 119
230 45 345
231 45 137
232 45 97
233 45 245
234 45 255
235 45 229
236 45 161
237 45 90
238 45 153
239 45 157
240 45 102
241 45 140
242 45 274
243 45 143
244 45 144
245 45 136
246 45 218
247 45 196
248 45 40
249 45 307
250 45 84
251 45 274
252 45 70
253 45 94
254 45 141
255 45 379
256 45 192
257 45 161
258 45 128
259 45 123
260 45 40
261 45 107
262 45 28
263 45 156
264 45 67
265 45 258
266 45 190
267 45 144
268 45 109
269 45 98
270 45 42
271 45 97
272 45 137
273 45 77
274 45 228
275 45 114
276 45 254
277 45 107
278 45 154
279 45 173
280 45 102
281 45 222
282 45 84
283 45 128
284 45 134
285 45 126
286 45 85
287 45 113
288 45 249
289 45 307
290 45 98
291 45 118
292 45 89
293 45 220
294 45 245
295 45 179
296 45 154
297 45 71
298 45 215
299 45 82
300 45 104
301 45 172
302 45 247
303 45 25
304 45 139
305 45 174
306 45 147
307 45 267
308 45 146
309 45 191
310 45 543
311 45 207
312 45 308
313 45 76
314 45 135
315 45 309
316 45 216
317 45 145
318 45 100
319 45 54
320 45 428
321 45 7
322 45 145
323 45 136
324 45 129
325 45 82
326 45 61
327 45 24
328 45 56
329 45 101
330 45 212
331 45 243
332 45 234
333 45 130
334 45 163
335 45 133
336 45 315
337 45 89
338 45 75
339 45 222
340 45 113
341 45 44
342 45 45
343 45 141
344 45 145
345 45 196
346 45 169
347 45 111
348 45 184
349 45 155
350 45 103
351 45 181
352 45 81
353 45 156
354 45 144
355 45 81
356 45 152
357 45 163
358 45 82
359 45 73
360 45 5
361 45 366
362 45 51
363 45 247
364 45 228
365 45 126
366 45 131
367 45 144
368 45 114
369 45 338
370 45 141
371 45 358
372 45 449
373 45 79
374 45 125
375 45 274
376 45 303
377 45 211
378 45 132
379 45 43
380 45 921
381 45 275
382 45 142
383 45 141
384 45 183
385 45 31
386 45 61
387 45 193
388 45 55
389 45 249
390 45 193
391 45 49
392 45 159
393 45 256
394 45 103
395 45 198
396 45 134
397 45 407
399 45 136
400 45 117
401 45 178
402 45 158
403 45 71
404 45 23
405 45 99
406 45 66
407 45 198
408 45 212
409 45 201
410 45 102
411 45 154
412 45 128
413 45 185
414 45 199
415 45 247
416 45 72
417 45 261
418 45 226
419 45 237
420 45 224
421 45 174
422 45 194
423 45 345
424 45 99
425 45 150
426 45 261
427 45 92
428 45 122
429 45 79
430 45 67
431 45 226
432 45 96
433 45 199
434 45 198
435 45 318
436 45 186
437 45 166
438 45 193
439 45 18
440 45 10
441 45 204
442 45 133
443 45 93
444 45 391
445 45 23
446 45 136
447 45 235
448 45 101
449 45 79
450 45 125
451 45 352
452 45 89
453 45 192
454 45 74
455 45 269
456 45 92
457 45 83
458 45 164
459 45 67
460 45 226
461 45 61
462 45 320
463 45 99
464 45 80
465 45 22
466 45 162
467 45 161
468 45 140
469 45 29
470 45 182
471 45 339
472 45 90
473 45 127
474 45 263
475 45 236
476 45 195
477 45 67
478 45 301
479 45 437
480 45 100
481 45 157
482 45 86
483 45 50
484 45 117
485 45 67
486 45 178
487 45 108
488 45 222
489 45 136
490 45 315
491 45 194
492 45 45
493 45 260
494 45 140
495 45 275
496 45 139
497 45 75
498 45 139
499 45 209
500 45 204
1 46 271
2 46 589
3 46 675
4 46 3839
5 46 2733
6 46 1859
7 46 1105
8 46 1276
9 46 2950
10 46 814
11 46 1200
12 46 1164
13 46 4144
14 46 728
15 46 2365
16 46 2740
17 46 5395
18 46 3001
19 46 3333
20 46 4051
21 46 1591
22 46 5009
23 46 2216
24 46 2035
25 46 389
26 46 999
27 46 1549
28 46 6056
29 46 3243
30 46 4093
31 46 4526
32 46 817
33 46 947
34 46 6748
35 46 3604
36 46 6410
37 46 4931
38 46 1051
39 46 4011
40 46 691
41 46 2150
42 46 2507
43 46 2133
44 46 3551
45 46 3783
46 46 5096
47 46 4795
48 46 1860
49 46 4881
50 46 1633
51 46 2325
52 46 3877
53 46 3114
54 46 3363
55 46 1566
56 46 4337
57 46 129
58 46 4484
59 46 5787
60 46 1924
61 46 1304
62 46 3784
63 46 1311
64 46 5272
65 46 2746
66 46 3611
67 46 2787
68 46 1023
69 46 2278
70 46 1779
71 46 885
72 46 1566
73 46 925
74 46 685
75 46 5852
76 46 2836
77 46 3477
78 46 4425
79 46 295
80 46 3804
81 46 4631
82 46 1100
83 46 3711
84 46 2191
85 46 1414
86 46 1263
87 46 3882
88 46 3189
89 46 830
90 46 3235
91 46 703
92 46 4181
93 46 2056
94 46 2993
95 46 1890
96 46 2675
97 46 5427
98 46 391
99 46 2804
100 46 4512
101 46 5585
102 46 7357
103 46 5244
104 46 4951
105 46 1436
106 46 1254
107 46 4863
108 46 1383
109 46 1251
110 46 165
111 46 5808
112 46 2620
113 46 747
114 46 2926
115 46 2683
116 46 2354
117 46 2565
118 46 1016
119 46 1292
120 46 2666
121 46 2497
122 46 4026
123 46 2056
124 46 1922
125 46 1186
126 46 914
127 46 3098
128 46 4590
129 46 1616
130 46 937
131 46 4796
132 46 6121
133 46 2026
134 46 6914
135 46 3679
136 46 4368
137 46 4314
138 46 2435
139 46 1475
140 46 1949
141 46 1712
142 46 1528
143 46 1039
144 46 3173
145 46 5334
146 46 1216
147 46 1349
148 46 484
149 46 572
150 46 4439
151 46 2242
152 46 4665
153 46 2036
154 46 1227
155 46 2966
156 46 3146
157 46 3127
158 46 4324
159 46 1031
160 46 3126
161 46 3704
162 46 1979
163 46 2862
164 46 4610
165 46 1338
166 46 5558
167 46 3550
168 46 495
169 46 1853
170 46 6770
171 46 3197
172 46 2350
173 46 631
174 46 3016
175 46 1881
176 46 2620
177 46 4655
178 46 1472
179 46 4738
180 46 5014
181 46 4011
182 46 384
183 46 583
184 46 3697
185 46 3243
186 46 2355
187 46 447
188 46 3515
189 46 4408
190 46 3445
191 46 3506
192 46 1613
193 46 3409
194 46 4986
195 46 6279
196 46 5452
197 46 3475
198 46 2767
199 46 2321
200 46 826
201 46 2263
202 46 3309
203 46 4828
204 46 2801
205 46 1586
206 46 1713
207 46 2690
208 46 4417
209 46 1636
210 46 2013
211 46 1031
212 46 824
213 46 5154
214 46 548
215 46 2783
216 46 4972
217 46 378
218 46 3301
219 46 5527
220 46 3612
221 46 1431
222 46 2716
223 46 2639
224 46 3157
225 46 882
226 46 3749
227 46 1965
228 46 2227
229 46 102
230 46 742
231 46 1371
232 46 3832
233 46 3860
234 46 1236
235 46 1494
236 46 4851
237 46 2946
238 46 3589
239 46 709
240 46 2596
241 46 3620
242 46 2320
243 46 3073
244 46 5841
245 46 543
246 46 2969
247 46 4016
248 46 4750
249 46 6161
250 46 2284
251 46 2927
252 46 2365
253 46 3101
254 46 3404
255 46 3987
256 46 5026
257 46 1581
258 46 2726
259 46 566
260 46 3825
261 46 2141
262 46 3869
263 46 2130
264 46 5057
265 46 5222
266 46 3269
267 46 973
268 46 4012
269 46 3061
270 46 2916
271 46 2972
272 46 4347
273 46 946
274 46 718
275 46 418
276 46 2258
277 46 2531
278 46 660
279 46 4029
280 46 3176
281 46 4696
282 46 1504
283 46 1202
284 46 632
285 46 2236
286 46 1677
287 46 3510
288 46 2567
289 46 5053
290 46 2881
291 46 5107
292 46 2773
293 46 3829
294 46 454
295 46 2280
296 46 1156
297 46 2552
298 46 4986
299 46 2928
300 46 6295
301 46 3535
302 46 836
303 46 509
304 46 2762
305 46 4505
306 46 4636
307 46 4814
308 46 296
309 46 3036
310 46 1145
311 46 4235
312 46 337
313 46 2243
314 46 1634
315 46 4338
316 46 3895
317 46 5231
318 46 2887
319 46 753
320 46 2911
321 46 3176
322 46 2370
323 46 1205
324 46 2007
325 46 190
326 46 3463
327 46 4321
328 46 1602
329 46 3727
330 46 2870
331 46 5313
332 46 931
333 46 2618
334 46 245
335 46 1995
336 46 4989
337 46 1186
338 46 1292
339 46 1904
340 46 922
341 46 1939
342 46 661
343 46 1437
344 46 1386
345 46 1066
346 46 914
347 46 2233
348 46 3913
349 46 770
350 46 1337
351 46 4489
352 46 1211
353 46 885
354 46 2088
355 46 2362
356 46 3735
357 46 1983
358 46 3757
359 46 1599
360 46 5118
361 46 3809
362 46 3896
363 46 4355
364 46 5503
365 46 1887
366 46 383
367 46 2144
368 46 4000
369 46 1579
370 46 1751
371 46 439
372 46 2617
373 46 2980
374 46 3168
375 46 5104
376 46 2577
377 46 695
378 46 2187
379 46 1885
380 46 1020
381 46 5950
382 46 522
383 46 1900
384 46 744
385 46 3591
386 46 3393
387 46 996
388 46 3457
389 46 5054
390 46 6015
391 46 1539
392 46 2271
393 46 731
394 46 2326
395 46 1893
396 46 2304
397 46 4642
398 46 2154
399 46 1046
400 46 3669
401 46 456
402 46 393
403 46 1625
404 46 1833
405 46 4303
406 46 750
407 46 1613
408 46 1311
409 46 138
410 46 2676
411 46 288
412 46 441
413 46 5398
414 46 780
415 46 3142
416 46 5545
417 46 2122
418 46 845
419 46 2549
420 46 425
421 46 1172
422 46 3113
423 46 5074
424 46 2180
425 46 1019
426 46 1577
427 46 4151
428 46 1366
429 46 3952
430 46 654
431 46 4157
432 46 2551
433 46 1064
434 46 5515
435 46 1672
436 46 2745
437 46 4367
438 46 628
439 46 4040
440 46 3789
441 46 3088
442 46 2303
443 46 3056
444 46 4120
445 46 1533
446 46 2880
447 46 936
448 46 5105
449 46 5638
450 46 3415
451 46 3184
452 46 5251
453 46 1017
454 46 2729
455 46 3547
456 46 3263
457 46 474
458 46 1655
459 46 2554
460 46 3358
461 46 2209
462 46 2989
463 46 3359
464 46 3346
465 46 3431
466 46 1016
467 46 2163
468 46 1687
469 46 3514
470 46 3238
471 46 4938
472 46 3783
473 46 1155
474 46 279
475 46 4280
476 46 599
477 46 2733
478 46 1574
479 46 1496
480 46 953
481 46 3581
482 46 3698
483 46 3332
484 46 3000
485 46 3446
486 46 3902
487 46 3771
488 46 4072
489 46 885
490 46 4509
491 46 4676
492 46 4239
493 46 3750
494 46 3088
495 46 472
496 46 4131
497 46 1359
498 46 5685
499 46 499
500 46 601
1 47 1020
2 47 3882
3 47 2220
7 47 1466
8 47 1659
10 47 2341
11 47 2195
12 47 2429
14 47 2512
15 47 4186
19 47 3
20 47 1549
21 47 1833
22 47 2653
25 47 1582
26 47 2827
29 47 268
31 47 240
32 47 3455
33 47 1552
36 47 59
40 47 3523
43 47 1684
44 47 2427
46 47 2518
55 47 1568
57 47 1724
60 47 2408
61 47 1099
63 47 2412
67 47 3040
68 47 2223
69 47 6141
70 47 2075
71 47 3497
72 47 2687
73 47 3203
74 47 2516
75 47 4661
78 47 3933
79 47 2618
82 47 1462
85 47 2855
86 47 3433
87 47 483
88 47 169
89 47 2523
90 47 2279
91 47 1432
93 47 2229
96 47 3524
98 47 1398
99 47 2798
106 47 3361
107 47 198
108 47 1884
109 47 1560
110 47 3405
113 47 2007
114 47 416
115 47 1834
116 47 4590
118 47 1866
119 47 4188
120 47 4554
124 47 2143
125 47 2600
126 47 3133
127 47 6
129 47 1814
130 47 2866
139 47 2290
141 47 1200
145 47 2779
146 47 2311
147 47 1300
148 47 2640
149 47 2396
151 47 2437
152 47 1929
154 47 2455
155 47 1520
156 47 1250
159 47 2897
164 47 1909
165 47 3583
168 47 4909
171 47 3691
172 47 3508
173 47 3920
174 47 1200
175 47 2457
178 47 2574
179 47 1714
181 47 25
182 47 2719
183 47 1951
185 47 2135
187 47 1974
189 47 439
192 47 1817
195 47 189
197 47 2238
199 47 105
200 47 1539
201 47 3551
204 47 4
205 47 4010
211 47 2217
213 47 21
214 47 1814
215 47 5
216 47 8
217 47 4259
220 47 2886
221 47 2560
225 47 3795
226 47 5
228 47 2437
229 47 2141
230 47 2487
231 47 2849
234 47 2448
235 47 2402
236 47 4780
238 47 87
239 47 2294
242 47 2631
243 47 1348
245 47 1323
246 47 375
250 47 2375
251 47 3379
255 47 2112
257 47 3099
259 47 1872
261 47 1749
262 47 153
265 47 529
266 47 1374
267 47 2643
268 47 496
273 47 2041
274 47 1202
275 47 1930
276 47 2553
278 47 1662
280 47 192
281 47 316
282 47 1022
283 47 1176
284 47 1337
285 47 2752
286 47 52
288 47 1744
289 47 9
291 47 6
294 47 4187
296 47 2564
298 47 2733
299 47 48
301 47 2967
302 47 2436
303 47 1753
305 47 30
307 47 220
308 47 2071
310 47 5130
312 47 2667
314 47 2419
319 47 2348
320 47 4012
321 47 4
323 47 2479
325 47 4632
330 47 2207
331 47 95
332 47 2531
334 47 3198
336 47 6
337 47 2787
338 47 2154
340 47 1467
342 47 2408
343 47 2338
344 47 2896
345 47 2169
346 47 2185
347 47 2568
349 47 5868
350 47 2858
352 47 2358
353 47 2582
355 47 92
356 47 1895
357 47 2556
366 47 3436
369 47 2109
371 47 2256
372 47 2396
375 47 103
376 47 3274
377 47 2921
378 47 2286
380 47 2812
381 47 137
382 47 1676
383 47 4321
384 47 5114
385 47 1427
386 47 2911
387 47 1710
389 47 220
390 47 159
391 47 1271
392 47 2421
393 47 3083
395 47 2647
399 47 3757
400 47 1924
401 47 3698
402 47 2058
404 47 1789
405 47 62
406 47 2728
407 47 2870
408 47 3533
409 47 2436
411 47 2432
412 47 3209
413 47 289
414 47 2478
415 47 1796
417 47 2862
418 47 2461
419 47 2110
420 47 1600
421 47 2239
423 47 9
425 47 3110
426 47 4069
428 47 2635
430 47 1845
433 47 1336
435 47 1974
438 47 3921
439 47 138
440 47 3
441 47 15
444 47 25
445 47 2295
446 47 69
447 47 2174
451 47 9
453 47 2771
454 47 72
455 47 2176
457 47 1826
458 47 2584
460 47 95
462 47 3891
465 47 70
466 47 3278
468 47 3449
469 47 116
470 47 4851
471 47 1667
473 47 2750
474 47 6059
476 47 2053
477 47 8
478 47 3472
479 47 1868
480 47 3202
485 47 697
486 47 944
487 47 4
489 47 3158
490 47 299
495 47 1306
499 47 2209
500 47 4003
1 48 6
2 48 31
3 48 30
4 48 13383
5 48 28075
6 48 15630
7 48 117
8 48 58
9 48 15989
10 48 22
11 48 65
12 48 126
13 48 15867
14 48 199
15 48 1452
16 48 20883
17 48 31585
18 48 24294
19 48 30182
20 48 9843
21 48 210
22 48 4795
23 48 31228
24 48 9266
25 48 6
26 48 189
27 48 22365
28 48 15026
29 48 12449
30 48 12000
31 48 9252
32 48 115
33 48 86
34 48 10266
35 48 25479
36 48 14082
37 48 12263
38 48 9441
39 48 16835
41 48 9254
42 48 45381
43 48 5046
44 48 4753
45 48 28891
46 48 2955
47 48 10938
48 48 15689
49 48 16183
50 48 17501
51 48 35677
52 48 10097
53 48 24473
54 48 37773
55 48 203
56 48 15917
58 48 9824
59 48 9979
60 48 4918
61 48 75
62 48 18405
63 48 59
64 48 12266
65 48 28459
66 48 11958
67 48 299
68 48 197
69 48 244
70 48 4252
71 48 101
72 48 2318
73 48 113
74 48 104
75 48 6677
76 48 23889
77 48 10911
78 48 2525
79 48 6
80 48 11040
81 48 15590
82 48 73
83 48 17668
84 48 11892
85 48 139
86 48 149
87 48 12378
88 48 15240
89 48 23
90 48 2189
91 48 6
92 48 13074
93 48 2669
94 48 18581
95 48 15755
96 48 259
97 48 16752
98 48 6
99 48 223
100 48 13521
101 48 20536
102 48 8041
103 48 10960
104 48 12702
105 48 24703
106 48 7
107 48 7470
108 48 132
109 48 56
111 48 10013
112 48 14705
113 48 5
114 48 9891
115 48 5402
116 48 137
117 48 19437
119 48 173
120 48 122
121 48 8481
122 48 13493
123 48 13315
124 48 63
125 48 201
126 48 192
127 48 14483
128 48 14272
129 48 225
131 48 24139
132 48 14812
133 48 18446
134 48 13303
135 48 23668
136 48 25525
137 48 19134
138 48 26571
139 48 253
140 48 20191
141 48 176
142 48 24930
143 48 9722
144 48 18048
145 48 7525
146 48 176
147 48 209
148 48 31
149 48 82
150 48 18562
151 48 157
152 48 273
153 48 18806
155 48 2941
156 48 10899
157 48 22894
158 48 16022
159 48 101
160 48 15731
161 48 23577
162 48 20064
163 48 12165
164 48 290
166 48 14512
167 48 27855
169 48 15647
170 48 20908
171 48 4016
172 48 102
173 48 106
174 48 5088
175 48 252
176 48 20116
177 48 12875
178 48 361
179 48 7205
180 48 22384
181 48 16903
182 48 5
183 48 4
184 48 11823
185 48 320
186 48 28162
187 48 166
188 48 18082
189 48 7556
190 48 13288
191 48 20868
192 48 228
193 48 28068
194 48 12965
195 48 12776
196 48 16611
197 48 960
198 48 17460
199 48 19880
200 48 111
201 48 110
202 48 14071
203 48 13038
204 48 17077
205 48 288
206 48 22682
207 48 15912
208 48 29806
209 48 22710
210 48 28793
211 48 34
212 48 23588
213 48 10379
214 48 11
215 48 18040
216 48 23291
218 48 10847
219 48 12297
220 48 5563
221 48 195
222 48 26510
223 48 9765
224 48 15378
226 48 18662
227 48 16106
228 48 426
230 48 3764
231 48 91
232 48 16888
233 48 16855
234 48 50
235 48 56
236 48 1190
237 48 33002
238 48 19706
239 48 64
240 48 19731
241 48 23881
242 48 5289
243 48 6759
244 48 27634
245 48 4
246 48 11982
247 48 13751
248 48 15775
249 48 15648
250 48 700
251 48 603
252 48 15867
253 48 14831
254 48 24367
255 48 1233
256 48 13168
257 48 2319
258 48 8857
260 48 32868
261 48 2943
262 48 11636
263 48 11815
264 48 14188
265 48 8997
266 48 10860
267 48 48
268 48 12373
269 48 20092
270 48 33520
271 48 24128
272 48 13357
273 48 19
274 48 3
275 48 53
276 48 426
277 48 19593
278 48 73
279 48 37973
280 48 15282
281 48 10887
282 48 42
283 48 339
285 48 1163
286 48 14084
287 48 33696
288 48 5473
289 48 23240
290 48 24793
291 48 16216
292 48 10355
293 48 18100
294 48 7
295 48 13331
296 48 30
297 48 17264
298 48 2857
299 48 12133
300 48 19559
301 48 176
302 48 218
303 48 126
304 48 16142
305 48 13364
306 48 19536
307 48 9316
308 48 5
309 48 17542
310 48 107
311 48 13218
312 48 2
313 48 16040
314 48 60
315 48 14325
316 48 15059
317 48 11984
318 48 11377
319 48 5
320 48 525
321 48 19233
322 48 16525
324 48 11873
326 48 13324
327 48 17809
328 48 17610
329 48 13471
330 48 3128
331 48 10953
332 48 172
333 48 20031
335 48 9102
336 48 13035
337 48 5
338 48 1492
339 48 12505
340 48 12
341 48 16160
342 48 4
343 48 230
344 48 130
345 48 171
346 48 59
347 48 1137
348 48 19572
349 48 29
350 48 5
351 48 13208
352 48 8
353 48 48
354 48 11731
355 48 19835
356 48 335
357 48 101
358 48 16520
359 48 22863
360 48 22374
361 48 22303
362 48 34590
363 48 13838
364 48 16874
365 48 20496
366 48 25
367 48 12023
368 48 15186
369 48 6
370 48 29084
372 48 184
373 48 24366
374 48 12915
375 48 14502
376 48 527
377 48 275
378 48 6539
379 48 16119
380 48 97
381 48 17075
382 48 9
383 48 250
384 48 6
385 48 3678
386 48 773
387 48 140
388 48 38573
389 48 12657
390 48 13875
391 48 375
392 48 356
393 48 20
394 48 21940
395 48 172
396 48 16556
397 48 21791
398 48 18169
399 48 26
400 48 4439
401 48 8
402 48 67
403 48 22857
404 48 113
405 48 24187
406 48 2
407 48 234
408 48 125
410 48 36747
412 48 41
413 48 14899
415 48 6037
416 48 14263
417 48 60
418 48 30
419 48 179
420 48 7
421 48 25
422 48 15293
423 48 13094
424 48 17749
425 48 147
426 48 148
427 48 15382
428 48 314
429 48 35216
430 48 14
431 48 21382
432 48 16854
433 48 1759
434 48 27007
435 48 29
436 48 16118
437 48 10488
438 48 25
439 48 11674
440 48 29024
441 48 13353
442 48 16519
443 48 8812
444 48 30642
445 48 139
446 48 23004
447 48 114
448 48 12904
449 48 14214
450 48 42276
451 48 14613
452 48 17051
453 48 106
454 48 15351
455 48 246
456 48 23280
457 48 4
458 48 203
459 48 12791
460 48 19279
461 48 18674
462 48 3956
463 48 27876
464 48 11278
465 48 11690
466 48 8
467 48 19065
468 48 399
469 48 10174
470 48 291
471 48 5444
472 48 16976
473 48 19
475 48 8625
477 48 27657
478 48 311
479 48 143
480 48 118
481 48 12629
482 48 24856
483 48 39641
484 48 17344
485 48 19516
486 48 7635
487 48 13185
488 48 16229
489 48 93
490 48 13198
491 48 40938
492 48 19373
493 48 18261
494 48 22571
495 48 27
496 48 29734
497 48 17428
498 48 20847
499 48 17
500 48 14
2 49 5422
4 49 2143
10 49 2405
11 49 536
13 49 2800
15 49 3757
17 49 153
18 49 2095
22 49 3711
25 49 3423
28 49 2103
30 49 2717
31 49 3612
32 49 151
34 49 1346
35 49 150
36 49 2026
37 49 2916
39 49 3160
40 49 2601
45 49 5
46 49 2280
47 49 3010
49 49 1364
53 49 2149
55 49 132
56 49 1639
57 49 2752
58 49 2910
59 49 2644
61 49 3048
62 49 1068
67 49 3508
68 49 23
69 49 2783
71 49 3061
72 49 2720
74 49 1501
75 49 3402
77 49 2950
79 49 3163
80 49 3347
81 49 2762
82 49 2440
83 49 146
87 49 3525
89 49 2201
91 49 653
92 49 2082
94 49 2096
96 49 2790
97 49 2062
100 49 1968
101 49 2738
102 49 6
103 49 2701
104 49 1601
106 49 2140
107 49 1417
108 49 943
109 49 25
110 49 2315
113 49 2818
114 49 2162
116 49 4100
123 49 1811
126 49 3222
128 49 4046
130 49 1885
131 49 716
132 49 2060
135 49 2637
139 49 4
141 49 1141
144 49 49
145 49 4406
146 49 3323
147 49 4
149 49 2590
150 49 2356
152 49 1972
156 49 4602
158 49 3519
164 49 1990
165 49 4144
166 49 1750
170 49 9
171 49 3032
172 49 230
173 49 2435
175 49 1635
177 49 1684
179 49 2556
180 49 2202
181 49 3013
183 49 3921
186 49 3
187 49 1012
189 49 2621
192 49 348
193 49 96
194 49 3472
195 49 1901
196 49 2526
197 49 3462
201 49 207
202 49 46
203 49 51
205 49 3326
211 49 1336
214 49 1204
215 49 9
216 49 3768
217 49 1649
219 49 2724
220 49 3490
221 49 3308
223 49 54
225 49 2700
231 49 2123
233 49 1564
234 49 198
236 49 3366
241 49 2645
245 49 1215
247 49 1898
249 49 2183
251 49 6455
253 49 620
254 49 187
255 49 3623
256 49 3633
258 49 3195
259 49 2178
262 49 2188
264 49 1815
265 49 1487
266 49 4528
268 49 3444
271 49 1996
272 49 2332
275 49 4091
278 49 953
281 49 2140
284 49 130
289 49 3878
290 49 974
291 49 4113
293 49 1043
294 49 2349
295 49 4354
296 49 1181
298 49 2212
300 49 2981
302 49 1785
305 49 3337
306 49 3081
307 49 2194
309 49 2847
310 49 2996
311 49 3391
312 49 2164
315 49 2707
316 49 2385
317 49 1914
319 49 2758
320 49 4101
325 49 212
327 49 2112
331 49 3467
332 49 1860
336 49 2235
343 49 6
344 49 3376
345 49 1248
346 49 1176
348 49 1553
349 49 1513
350 49 626
351 49 26
352 49 1726
353 49 1704
357 49 1386
360 49 3643
361 49 3235
364 49 2154
366 49 67
369 49 2958
371 49 1663
372 49 3258
374 49 468
375 49 1930
376 49 2297
377 49 4
380 49 1833
381 49 2479
383 49 2743
384 49 2610
385 49 5109
386 49 3086
387 49 1692
389 49 2246
390 49 1469
393 49 3528
395 49 1739
397 49 2194
399 49 1596
401 49 2343
402 49 4191
404 49 58
406 49 5561
407 49 425
409 49 1802
410 49 233
413 49 1349
415 49 2618
417 49 1739
418 49 2372
420 49 3375
421 49 2252
422 49 2958
423 49 2279
426 49 2373
430 49 4207
431 49 1813
434 49 4363
435 49 1528
438 49 3272
439 49 2224
441 49 2820
444 49 2914
445 49 2363
447 49 3131
448 49 1892
452 49 1317
455 49 1852
457 49 82
460 49 2252
462 49 4402
463 49 3084
469 49 2205
470 49 4906
471 49 2371
473 49 2094
474 49 1827
476 49 3489
478 49 4312
481 49 1862
486 49 3087
487 49 2546
488 49 1389
489 49 4333
490 49 2942
491 49 2232
492 49 1299
493 49 1011
496 49 1219
498 49 3024
499 49 2056
500 49 3543
1 50 3875
2 50 5851
3 50 2797
4 50 3448
5 50 2753
6 50 1836
7 50 2908
8 50 3644
9 50 2202
10 50 8931
11 50 4451
12 50 5341
13 50 2935
14 50 4760
15 50 4389
16 50 2259
17 50 2239
18 50 5305
19 50 3439
20 50 3668
21 50 3507
22 50 5789
23 50 1350
24 50 2133
25 50 4368
26 50 6485
27 50 2053
28 50 4152
29 50 2159
30 50 3775
31 50 6417
32 50 3459
33 50 3532
34 50 2666
35 50 2400
36 50 4387
37 50 4514
38 50 1933
39 50 4736
40 50 1645
41 50 1993
42 50 1575
43 50 3257
44 50 4482
45 50 3952
46 50 5675
47 50 4150
48 50 1851
49 50 3602
50 50 3729
51 50 1218
52 50 2070
53 50 5370
54 50 1491
55 50 3784
56 50 5101
57 50 3531
58 50 3055
59 50 3762
60 50 2458
61 50 3111
62 50 3999
63 50 2242
64 50 3516
65 50 2781
66 50 2201
67 50 5439
68 50 3367
69 50 4705
70 50 2655
71 50 2911
72 50 3665
73 50 4944
74 50 5263
75 50 4808
76 50 2555
77 50 4493
78 50 3454
79 50 4320
80 50 4028
81 50 4037
82 50 4745
83 50 3305
84 50 2377
85 50 3342
86 50 2996
87 50 7916
88 50 3059
89 50 4813
90 50 3772
91 50 4137
92 50 3974
93 50 3372
94 50 2117
95 50 1725
96 50 4415
97 50 2747
98 50 5816
99 50 3292
100 50 2746
101 50 3810
102 50 2289
103 50 2979
104 50 3057
105 50 1971
106 50 4608
107 50 3876
108 50 3543
109 50 4000
110 50 3836
111 50 1945
112 50 1572
113 50 3828
114 50 4138
115 50 3002
116 50 2638
117 50 1688
118 50 6312
119 50 3611
120 50 3649
121 50 2480
122 50 4263
123 50 2872
124 50 2778
125 50 4130
126 50 4384
127 50 2540
128 50 3503
129 50 2869
130 50 2857
131 50 3342
132 50 4157
133 50 1896
134 50 3437
135 50 3163
136 50 2644
137 50 2410
138 50 3726
139 50 3118
140 50 4737
141 50 4043
142 50 1965
143 50 2030
144 50 2799
145 50 3381
146 50 3198
147 50 4631
148 50 5269
149 50 5313
150 50 3697
151 50 5393
152 50 5190
153 50 1923
154 50 2966
155 50 2895
156 50 3115
157 50 3186
158 50 4267
159 50 3063
160 50 3418
161 50 2425
162 50 4657
163 50 2750
164 50 5491
165 50 4890
166 50 3486
167 50 3258
168 50 3313
169 50 1756
170 50 3303
171 50 8322
172 50 4367
173 50 4865
174 50 2359
175 50 3116
176 50 2597
177 50 2127
178 50 3427
179 50 3199
180 50 7524
181 50 3725
182 50 4004
183 50 4067
184 50 2138
185 50 3862
186 50 2914
187 50 4872
188 50 1533
189 50 4658
190 50 2760
191 50 2592
192 50 3725
193 50 3611
194 50 3570
195 50 4170
196 50 3004
197 50 3416
198 50 2392
199 50 2183
200 50 4442
201 50 4486
202 50 3975
203 50 3046
204 50 3141
205 50 3466
206 50 1199
207 50 2876
208 50 4317
209 50 1185
210 50 2311
211 50 2950
212 50 643
213 50 3157
214 50 2284
215 50 2274
216 50 5387
217 50 5492
218 50 3632
219 50 4589
220 50 4096
221 50 2742
222 50 2605
223 50 3144
224 50 3097
225 50 4456
226 50 2492
227 50 1794
228 50 4299
229 50 3227
230 50 2940
231 50 3201
232 50 3167
233 50 4509
234 50 3618
235 50 2749
236 50 6133
237 50 2007
238 50 2407
239 50 3259
240 50 4174
241 50 3047
242 50 3291
243 50 2861
244 50 1854
245 50 3770
246 50 1919
247 50 3781
248 50 2920
249 50 3336
250 50 2634
251 50 3160
252 50 1198
253 50 2431
254 50 2184
255 50 2603
256 50 3577
257 50 4310
258 50 4540
259 50 4296
260 50 2561
261 50 3534
262 50 4890
263 50 1983
264 50 5100
265 50 5269
266 50 3159
267 50 5465
268 50 7904
269 50 3801
270 50 2064
271 50 2875
272 50 3467
273 50 2454
274 50 2295
275 50 3688
276 50 4177
277 50 1653
278 50 3155
279 50 2456
280 50 3113
281 50 2932
282 50 3391
283 50 4774
284 50 3777
285 50 3230
286 50 3084
287 50 2127
288 50 2913
289 50 5348
290 50 1925
291 50 4122
292 50 2554
293 50 4697
294 50 4688
295 50 4457
296 50 3176
297 50 2256
298 50 6480
299 50 2176
300 50 3688
301 50 2992
302 50 5901
303 50 3375
304 50 2907
305 50 4924
306 50 3632
307 50 4296
308 50 2661
309 50 4782
310 50 6359
311 50 6325
312 50 3123
313 50 1217
314 50 3605
315 50 3000
316 50 1817
317 50 3798
318 50 2911
319 50 4153
320 50 7827
321 50 4414
322 50 1347
323 50 2833
324 50 1975
325 50 2781
326 50 2836
327 50 2602
328 50 3900
329 50 2853
330 50 3091
331 50 3834
332 50 5966
333 50 1642
334 50 4141
335 50 3519
336 50 4029
337 50 3501
338 50 2628
339 50 1841
340 50 4616
341 50 1808
342 50 3002
343 50 3020
344 50 4055
345 50 4169
346 50 1752
347 50 4519
348 50 4132
349 50 4077
350 50 2836
351 50 4512
352 50 3761
353 50 4481
354 50 2057
355 50 2170
356 50 2566
357 50 3765
358 50 2992
359 50 1143
360 50 2976
361 50 3563
362 50 2842
363 50 1944
364 50 2856
365 50 4937
366 50 3729
367 50 1999
368 50 2615
369 50 2715
370 50 1854
371 50 5424
372 50 3396
373 50 1570
374 50 4470
375 50 5724
376 50 5329
377 50 3295
378 50 2189
379 50 1789
380 50 4279
381 50 4128
382 50 3906
383 50 4625
384 50 6080
385 50 3453
386 50 3771
387 50 2988
388 50 1557
389 50 5525
390 50 3891
391 50 4819
392 50 2747
393 50 7400
394 50 2176
395 50 4384
396 50 1325
397 50 5537
398 50 1930
399 50 3241
400 50 4502
401 50 3447
402 50 3734
403 50 1138
404 50 3385
405 50 1481
406 50 7211
407 50 7610
408 50 2912
409 50 3354
410 50 2911
411 50 5629
412 50 5203
413 50 6474
414 50 3604
415 50 4321
416 50 4653
417 50 3019
418 50 6083
419 50 6323
420 50 4349
421 50 3598
422 50 2908
423 50 4096
424 50 1709
425 50 4306
426 50 5109
427 50 5824
428 50 4913
429 50 2542
430 50 5545
431 50 3328
432 50 4317
433 50 1963
434 50 4578
435 50 5717
436 50 3456
437 50 2987
438 50 4807
439 50 5101
440 50 4439
441 50 3574
442 50 1241
443 50 2769
444 50 2678
445 50 4256
446 50 3405
447 50 4007
448 50 6170
449 50 4662
450 50 4037
451 50 2535
452 50 4587
453 50 3461
454 50 2622
455 50 5459
456 50 3068
457 50 4661
458 50 2804
459 50 2281
460 50 3549
461 50 3212
462 50 8032
463 50 2397
464 50 2004
465 50 3885
466 50 3127
467 50 3567
468 50 2969
469 50 3264
470 50 5908
471 50 5377
472 50 3047
473 50 2650
474 50 3823
475 50 3305
476 50 3084
477 50 2318
478 50 6715
479 50 3990
480 50 4935
481 50 3523
482 50 1704
483 50 1543
484 50 1454
485 50 2543
486 50 3846
487 50 7643
488 50 4166
489 50 3513
490 50 5535
491 50 2979
492 50 3458
493 50 4674
494 50 2510
495 50 3428
496 50 3081
497 50 2864
498 50 3257
499 50 7531
500 50 8738
2 51 9
3 51 30
8 51 23
9 51 8
10 51 7
11 51 1
15 51 4
17 51 6
18 51 6
19 51 9
21 51 7
23 51 8
24 51 5
30 51 63
32 51 4
33 51 7
34 51 3
35 51 10
37 51 10
39 51 31
41 51 2
42 51 4
44 51 6
49 51 25
50 51 10
51 51 11
52 51 6
53 51 9
55 51 2
58 51 5
61 51 4
63 51 8
64 51 10
68 51 5
69 51 125
76 51 8
77 51 7
79 51 5
80 51 8
85 51 4
89 51 5
91 51 4
92 51 5
93 51 6
94 51 3
96 51 93
99 51 4
101 51 31
104 51 20
106 51 63
108 51 20
110 51 1
111 51 25
112 51 8
113 51 7
114 51 9
115 51 5
117 51 4
118 51 46
123 51 9
126 51 7
131 51 7
134 51 32
136 51 23
138 51 8
140 51 25
147 51 5
148 51 4
151 51 9
152 51 10
154 51 4
155 51 30
161 51 6
162 51 31
164 51 5
165 51 5
168 51 19
170 51 3
171 51 3
173 51 73
174 51 10
179 51 6
180 51 5
182 51 29
183 51 20
185 51 16
187 51 20
190 51 13
191 51 18
193 51 3
194 51 4
195 51 6
197 51 65
200 51 12
203 51 11
207 51 7
208 51 8
210 51 6
211 51 24
212 51 16
213 51 2
215 51 8
216 51 5
217 51 31
220 51 31
221 51 5
222 51 8
223 51 9
224 51 21
228 51 4
229 51 9
230 51 8
231 51 18
232 51 9
233 51 8
234 51 6
237 51 9
243 51 36
246 51 5
247 51 4
249 51 4
251 51 9
253 51 4
254 51 24
256 51 5
257 51 12
260 51 41
261 51 9
265 51 23
267 51 7
270 51 24
272 51 7
275 51 29
276 51 4
277 51 7
278 51 7
279 51 5
283 51 54
285 51 33
287 51 6
288 51 7
289 51 3
290 51 16
291 51 7
292 51 10
294 51 3
295 51 5
296 51 9
297 51 20
298 51 6
299 51 11
302 51 33
303 51 9
304 51 5
305 51 30
306 51 78
310 51 100
312 51 4
315 51 27
316 51 9
317 51 108
319 51 7
320 51 6
321 51 24
322 51 7
323 51 4
325 51 26
326 51 23
327 51 25
328 51 3
329 51 7
331 51 28
332 51 18
333 51 5
334 51 6
335 51 4
338 51 24
339 51 26
340 51 20
342 51 6
345 51 8
347 51 2
349 51 5
351 51 5
357 51 6
360 51 31
361 51 2
362 51 21
365 51 28
371 51 7
372 51 32
376 51 22
378 51 11
380 51 7
383 51 65
384 51 2
386 51 6
389 51 5
390 51 5
392 51 5
393 51 7
396 51 3
397 51 6
400 51 29
402 51 32
404 51 4
405 51 9
407 51 6
409 51 4
411 51 3
412 51 5
416 51 1
417 51 8
419 51 26
421 51 2
424 51 13
425 51 7
426 51 4
429 51 6
430 51 5
431 51 8
432 51 49
433 51 8
434 51 5
436 51 18
437 51 6
441 51 35
442 51 6
444 51 34
448 51 8
449 51 9
452 51 31
454 51 8
457 51 4
461 51 9
467 51 12
469 51 5
471 51 5
472 51 4
473 51 20
475 51 6
476 51 10
477 51 5
478 51 31
481 51 2
485 51 6
486 51 85
487 51 5
488 51 6
489 51 6
491 51 23
495 51 5
500 51 3
1 52 15351
2 52 12576
3 52 8246
4 52 12001
5 52 6632
6 52 5689
7 52 9763
8 52 8485
9 52 6872
10 52 8246
11 52 9482
12 52 15410
13 52 17095
14 52 6736
15 52 14991
16 52 12295
17 52 12815
18 52 11094
19 52 10604
20 52 6795
21 52 13408
22 52 12041
23 52 18098
24 52 14656
25 52 18848
26 52 7173
27 52 5479
28 52 11336
29 52 8185
30 52 16558
31 52 10550
32 52 12088
33 52 8859
34 52 10307
35 52 15341
36 52 14907
37 52 15149
38 52 5247
39 52 8737
40 52 17194
41 52 14831
42 52 11330
43 52 8897
44 52 9249
45 52 9200
46 52 10612
47 52 11141
48 52 5838
49 52 6364
50 52 11644
51 52 16077
52 52 4878
53 52 10960
54 52 6014
55 52 7867
56 52 9578
57 52 9540
58 52 12200
59 52 18460
60 52 6557
61 52 7553
62 52 9984
63 52 14929
64 52 6434
65 52 6897
66 52 16079
67 52 9317
68 52 10347
69 52 10852
70 52 10089
71 52 9299
72 52 9217
73 52 7065
74 52 22187
75 52 11022
76 52 10540
77 52 9705
78 52 7359
79 52 12242
80 52 9821
81 52 10484
82 52 19427
83 52 8897
84 52 16268
85 52 11814
86 52 6751
87 52 10509
88 52 16075
89 52 19196
90 52 10137
91 52 13831
92 52 9315
93 52 10051
94 52 7520
95 52 5859
96 52 9188
97 52 11376
98 52 15393
99 52 11259
100 52 9041
101 52 6691
102 52 12393
103 52 9321
104 52 7396
105 52 5456
106 52 11461
107 52 18468
108 52 9734
109 52 18632
110 52 12303
111 52 7512
112 52 5359
113 52 8365
114 52 8607
115 52 19151
116 52 15744
117 52 9967
118 52 9140
119 52 10228
120 52 12240
121 52 13913
122 52 15038
123 52 11624
124 52 11566
125 52 9946
126 52 10964
127 52 13691
128 52 9891
129 52 6455
130 52 11169
131 52 9405
132 52 11231
133 52 13234
134 52 8334
135 52 11989
136 52 19102
137 52 5501
138 52 12741
139 52 7047
140 52 8472
141 52 12298
142 52 5580
143 52 5350
144 52 9300
145 52 14218
146 52 8503
147 52 17612
148 52 23431
149 52 10116
150 52 12997
151 52 7926
152 52 11058
153 52 13403
154 52 17025
155 52 20161
156 52 10553
157 52 10820
158 52 11198
159 52 11226
160 52 8931
161 52 20000
162 52 8500
163 52 6043
164 52 11380
165 52 8793
166 52 9861
167 52 12088
168 52 19203
169 52 5806
170 52 11696
171 52 17242
172 52 8455
173 52 18021
174 52 13278
175 52 13542
176 52 14548
177 52 14546
178 52 8425
179 52 12335
180 52 9170
181 52 8504
182 52 9950
183 52 10330
184 52 16290
185 52 15745
186 52 7967
187 52 9424
188 52 11755
189 52 10597
190 52 23491
191 52 8316
192 52 7480
193 52 11274
194 52 11952
195 52 9849
196 52 11639
197 52 17385
198 52 29976
199 52 6352
200 52 16354
201 52 8340
202 52 5530
203 52 11677
204 52 12466
205 52 12728
206 52 12681
207 52 8825
208 52 8174
209 52 12610
210 52 4823
211 52 12353
212 52 2751
213 52 15161
214 52 6145
215 52 7826
216 52 8472
217 52 9649
218 52 12438
219 52 8845
220 52 15164
221 52 9536
222 52 6582
223 52 9173
224 52 16645
225 52 10251
226 52 21811
227 52 6080
228 52 16541
229 52 11615
230 52 9168
231 52 12415
232 52 7114
233 52 11225
234 52 15282
235 52 8356
236 52 13320
237 52 15156
238 52 13405
239 52 10855
240 52 10205
241 52 12075
242 52 6932
243 52 16278
244 52 7363
245 52 6550
246 52 8446
247 52 10898
248 52 15263
249 52 36675
250 52 12420
251 52 12791
252 52 7633
253 52 9271
254 52 12398
255 52 9848
256 52 11888
257 52 15634
258 52 9237
259 52 7563
260 52 6964
261 52 13821
262 52 7230
263 52 5954
264 52 10341
265 52 16705
266 52 10581
267 52 13149
268 52 10231
269 52 12975
270 52 7424
271 52 12051
272 52 33336
273 52 8566
274 52 14076
275 52 13254
276 52 16691
277 52 9990
278 52 24387
279 52 9093
280 52 16285
281 52 8502
282 52 6470
283 52 11760
284 52 15037
285 52 13578
286 52 23959
287 52 8073
288 52 19067
289 52 8413
290 52 5708
291 52 9931
292 52 3645
293 52 13379
294 52 12611
295 52 7271
296 52 8295
297 52 5198
298 52 12226
299 52 11546
300 52 7196
301 52 10572
302 52 11185
303 52 11412
304 52 9103
305 52 18670
306 52 9558
307 52 10782
308 52 7748
309 52 17099
310 52 16002
311 52 10983
312 52 14018
313 52 7573
314 52 8203
315 52 15251
316 52 11976
317 52 12464
318 52 8519
319 52 13738
320 52 9770
321 52 18480
322 52 5884
323 52 17066
324 52 5987
325 52 13953
326 52 23612
327 52 9766
328 52 12216
329 52 15828
330 52 4643
331 52 12187
332 52 11056
333 52 10054
334 52 15803
335 52 9728
336 52 11713
337 52 15030
338 52 14656
339 52 13193
340 52 10919
341 52 5941
342 52 12816
343 52 6974
344 52 14055
345 52 9341
346 52 7510
347 52 11271
348 52 6595
349 52 13040
350 52 8210
351 52 11392
352 52 15859
353 52 38469
354 52 6118
355 52 6275
356 52 19270
357 52 14675
358 52 15263
359 52 12894
360 52 5825
361 52 7170
362 52 27467
363 52 8973
364 52 11656
365 52 8547
366 52 12427
367 52 6210
368 52 19254
369 52 12410
370 52 18772
371 52 12559
372 52 12022
373 52 7512
374 52 7719
375 52 9933
376 52 13288
377 52 15003
378 52 12511
379 52 5953
380 52 8990
381 52 17008
382 52 9389
383 52 13545
384 52 8613
385 52 9846
386 52 14743
387 52 13604
388 52 5947
389 52 10428
390 52 10557
391 52 13333
392 52 8596
393 52 7132
394 52 7884
395 52 9745
396 52 5801
397 52 8055
398 52 10242
399 52 11631
400 52 11424
401 52 10073
402 52 13318
403 52 12719
404 52 7704
405 52 11426
406 52 9390
407 52 11945
408 52 6907
409 52 12825
410 52 8420
411 52 8554
412 52 17349
413 52 16755
414 52 13210
415 52 14454
416 52 7278
417 52 10425
418 52 9532
419 52 17591
420 52 18833
421 52 13503
422 52 9054
423 52 11762
424 52 16556
425 52 10146
426 52 7576
427 52 11206
428 52 21708
429 52 6291
430 52 9739
431 52 7491
432 52 16598
433 52 7835
434 52 9071
435 52 11228
436 52 17763
437 52 14189
438 52 10051
439 52 7286
440 52 12925
441 52 9657
442 52 5865
443 52 12679
444 52 13568
445 52 13513
446 52 11041
447 52 9573
448 52 12245
449 52 7391
450 52 11868
451 52 13612
452 52 16698
453 52 12529
454 52 9582
455 52 15472
456 52 10729
457 52 13356
458 52 9693
459 52 8714
460 52 7195
461 52 11344
462 52 17136
463 52 8828
464 52 18416
465 52 6977
466 52 11246
467 52 3702
468 52 17205
469 52 9572
470 52 10334
471 52 9255
472 52 7085
473 52 11323
474 52 9033
475 52 10028
476 52 12212
477 52 6957
478 52 15927
479 52 11500
480 52 7165
481 52 17029
482 52 5297
483 52 5996
484 52 7699
485 52 21004
486 52 5801
487 52 9899
488 52 7968
489 52 13472
490 52 15449
491 52 5366
492 52 11132
493 52 13410
494 52 12540
495 52 12440
496 52 7975
497 52 6706
498 52 12329
499 52 13065
500 52 14137
1 53 3683
2 53 4870
3 53 2700
4 53 3579
5 53 1952
6 53 3111
7 53 2575
8 53 3201
9 53 1946
10 53 3051
11 53 4094
12 53 3552
13 53 2569
14 53 4219
15 53 5536
16 53 3559
17 53 4734
18 53 1700
19 53 3489
20 53 2664
21 53 3220
22 53 4645
23 53 1572
24 53 2647
25 53 3789
26 53 5463
27 53 1666
28 53 4178
29 53 2098
30 53 3004
31 53 3026
32 53 2980
33 53 2911
34 53 2832
35 53 3494
36 53 4905
37 53 6012
38 53 1722
39 53 3852
40 53 3774
41 53 2534
42 53 2363
43 53 4432
44 53 4371
45 53 6406
46 53 5293
47 53 3684
48 53 3101
49 53 3395
50 53 1112
51 53 1320
52 53 1820
53 53 1763
54 53 2020
55 53 2836
56 53 6704
57 53 3567
58 53 3813
59 53 3651
60 53 3984
61 53 2920
62 53 3205
63 53 3950
64 53 3836
65 53 2018
66 53 5037
67 53 4626
68 53 2689
69 53 4263
70 53 4142
71 53 4813
72 53 6755
73 53 3744
74 53 3540
75 53 5170
76 53 2845
77 53 5101
78 53 3043
79 53 5388
80 53 3083
81 53 3954
82 53 3688
83 53 2319
84 53 2941
85 53 3019
86 53 3898
87 53 2666
88 53 2495
89 53 3922
90 53 2688
91 53 3905
92 53 4216
93 53 3227
94 53 4752
95 53 3130
96 53 5559
97 53 4383
98 53 4475
99 53 3218
100 53 3279
101 53 4144
102 53 2969
103 53 2829
104 53 3942
105 53 1571
106 53 2206
107 53 3818
108 53 1760
109 53 1196
110 53 2398
111 53 2736
112 53 1946
113 53 2566
114 53 4099
115 53 3307
116 53 3348
117 53 2125
118 53 3542
119 53 2737
120 53 3318
121 53 2364
122 53 2965
123 53 3402
124 53 3404
125 53 3324
126 53 3588
127 53 1674
128 53 6888
129 53 3103
130 53 3969
131 53 4371
132 53 4170
133 53 1818
134 53 2901
135 53 2742
136 53 2674
137 53 3829
138 53 3360
139 53 4344
140 53 957
141 53 3323
142 53 1570
143 53 1821
144 53 2448
145 53 3870
146 53 3333
147 53 3631
148 53 4204
149 53 4246
150 53 2590
151 53 3742
152 53 3450
153 53 1834
154 53 4651
155 53 2985
156 53 3745
157 53 2235
158 53 4073
159 53 3798
160 53 1189
161 53 2468
162 53 949
163 53 2513
164 53 3516
165 53 4969
166 53 4926
167 53 2559
168 53 3266
169 53 3040
170 53 3152
171 53 5448
172 53 3175
173 53 4357
174 53 2557
175 53 2697
176 53 2623
177 53 3376
178 53 3733
179 53 5127
180 53 3909
181 53 4300
182 53 2349
183 53 4186
184 53 5214
185 53 2345
186 53 3219
187 53 3511
188 53 2102
189 53 4451
190 53 1135
191 53 2347
192 53 3927
193 53 3155
194 53 3583
195 53 3932
196 53 2737
197 53 3841
198 53 4266
199 53 3145
200 53 3051
201 53 3089
202 53 5201
203 53 3460
204 53 3452
205 53 3860
206 53 2224
207 53 3221
208 53 3339
209 53 2204
210 53 1282
211 53 4125
212 53 1084
213 53 3107
214 53 3361
215 53 1609
216 53 3089
217 53 2988
218 53 2682
219 53 5613
220 53 6481
221 53 2618
222 53 2127
223 53 3013
224 53 3212
225 53 3944
226 53 2240
227 53 3169
228 53 2643
229 53 4451
230 53 4828
231 53 3328
232 53 2551
233 53 4041
234 53 3838
235 53 4032
236 53 7868
237 53 1778
238 53 1318
239 53 3311
240 53 2331
241 53 2808
242 53 2789
243 53 4303
244 53 2289
245 53 4023
246 53 1468
247 53 5047
248 53 1503
249 53 4771
250 53 3735
251 53 6245
252 53 2176
253 53 2032
254 53 2774
255 53 3023
256 53 3686
257 53 3055
258 53 2644
259 53 2674
260 53 2995
261 53 1802
262 53 3819
263 53 1564
264 53 4395
265 53 5672
266 53 3781
267 53 3050
268 53 2606
269 53 3652
270 53 1933
271 53 3236
272 53 5138
273 53 3177
274 53 4465
275 53 4835
276 53 2613
277 53 2089
278 53 2909
279 53 3472
280 53 2382
281 53 4500
282 53 1953
283 53 3441
284 53 3697
285 53 3017
286 53 1973
287 53 5113
288 53 3315
289 53 3029
290 53 3415
291 53 3367
292 53 3100
293 53 3704
294 53 4407
295 53 4015
296 53 5573
297 53 2576
298 53 4217
299 53 4107
300 53 5443
301 53 2735
302 53 3737
303 53 3024
304 53 3297
305 53 6737
306 53 4035
307 53 5540
308 53 3381
309 53 2980
310 53 5077
311 53 3515
312 53 4793
313 53 2163
314 53 3165
315 53 3586
316 53 4917
317 53 2186
318 53 2502
319 53 2767
320 53 5682
321 53 2892
322 53 1176
323 53 4771
324 53 1558
325 53 2330
326 53 1215
327 53 3129
328 53 1189
329 53 2078
330 53 2733
331 53 3674
332 53 3828
333 53 2140
334 53 3090
335 53 2371
336 53 4171
337 53 3535
338 53 2497
339 53 1798
340 53 1813
341 53 3280
342 53 4144
343 53 4324
344 53 4565
345 53 3081
346 53 4916
347 53 2963
348 53 3263
349 53 7669
350 53 2549
351 53 3251
352 53 1976
353 53 3354
354 53 1569
355 53 3182
356 53 3225
357 53 3907
358 53 3410
359 53 2197
360 53 3608
361 53 5271
362 53 3344
363 53 4364
364 53 4395
365 53 958
366 53 3294
367 53 1596
368 53 3382
369 53 3616
370 53 1706
371 53 3214
372 53 5391
373 53 2884
374 53 4421
375 53 2366
376 53 3429
377 53 4223
378 53 4317
379 53 3245
380 53 4827
381 53 7175
382 53 4538
383 53 3585
384 53 4307
385 53 3279
386 53 2011
387 53 3177
388 53 1998
389 53 4108
390 53 4587
391 53 3249
392 53 4103
393 53 3411
394 53 2211
395 53 3994
396 53 1157
397 53 2719
398 53 1991
399 53 1381
400 53 1344
401 53 4769
402 53 4597
403 53 2296
404 53 2372
405 53 2059
406 53 5234
407 53 3179
408 53 3908
409 53 3517
410 53 3891
411 53 3610
412 53 3146
413 53 3710
414 53 4118
415 53 3262
416 53 3607
417 53 4237
418 53 5576
419 53 5398
420 53 3746
421 53 2688
422 53 4450
423 53 4256
424 53 1371
425 53 5557
426 53 5341
427 53 4037
428 53 3797
429 53 4222
430 53 4589
431 53 3706
432 53 3307
433 53 3807
434 53 3751
435 53 3225
436 53 2925
437 53 2246
438 53 4856
439 53 3864
440 53 3414
441 53 4843
442 53 1199
443 53 2472
444 53 2355
445 53 2253
446 53 1619
447 53 3281
448 53 3732
449 53 3561
450 53 1605
451 53 1700
452 53 2261
453 53 2914
454 53 4065
455 53 3962
456 53 2234
457 53 4905
458 53 4261
459 53 2738
460 53 5529
461 53 2608
462 53 6137
463 53 2725
464 53 2924
465 53 2922
466 53 2733
467 53 3129
468 53 5589
469 53 2907
470 53 4222
471 53 3779
472 53 2578
473 53 2553
474 53 4076
475 53 3540
476 53 3425
477 53 3690
478 53 4611
479 53 3306
480 53 3607
481 53 3265
482 53 1698
483 53 1941
484 53 2358
485 53 3542
486 53 3670
487 53 2756
488 53 3806
489 53 2300
490 53 4420
491 53 2630
492 53 3298
493 53 3667
494 53 1607
495 53 2757
496 53 2958
497 53 1999
498 53 4595
499 53 4942
500 53 5965
2 54 2324
4 54 4334
10 54 2148
13 54 1701
15 54 2685
17 54 339
18 54 2598
22 54 4740
25 54 1356
28 54 2201
30 54 2487
31 54 3837
34 54 3106
35 54 436
36 54 3565
37 54 4483
39 54 3387
40 54 680
46 54 3991
47 54 3925
49 54 997
53 54 2659
56 54 3943
57 54 812
58 54 3189
59 54 3642
61 54 20
62 54 1889
67 54 4356
69 54 2648
71 54 69
72 54 3498
75 54 3667
77 54 3487
79 54 2733
80 54 2441
81 54 2735
82 54 1383
83 54 998
87 54 3308
89 54 2264
92 54 4018
94 54 2374
96 54 2551
97 54 4784
100 54 3658
101 54 3153
102 54 9
103 54 2607
104 54 1670
106 54 877
107 54 4016
113 54 3861
114 54 4410
116 54 5913
122 54 19
123 54 2365
126 54 2788
128 54 3275
130 54 249
131 54 4047
132 54 2173
135 54 4906
145 54 3261
146 54 466
149 54 5393
150 54 2896
152 54 3927
156 54 3151
158 54 1982
164 54 4007
165 54 2588
166 54 2567
171 54 4543
173 54 3223
175 54 132
177 54 1877
179 54 2842
180 54 3691
181 54 3185
183 54 1582
186 54 6
187 54 27
189 54 1124
193 54 293
194 54 2246
195 54 2890
196 54 1914
197 54 4473
202 54 240
203 54 127
205 54 6061
208 54 99
216 54 3185
217 54 9
219 54 4106
220 54 3865
221 54 2947
223 54 11
225 54 4221
231 54 1988
233 54 2801
236 54 4179
241 54 4960
247 54 2488
249 54 1407
251 54 2522
253 54 590
254 54 709
255 54 7576
256 54 2225
258 54 2705
262 54 3553
264 54 4652
265 54 3353
266 54 3099
268 54 3274
271 54 3337
272 54 2904
275 54 735
281 54 2262
289 54 3114
290 54 1379
291 54 1646
293 54 3795
294 54 105
295 54 2704
298 54 6508
300 54 2201
302 54 2065
305 54 2483
306 54 2894
307 54 2797
309 54 1874
310 54 3499
311 54 3265
312 54 1531
315 54 2661
316 54 3493
317 54 4106
319 54 2078
320 54 3528
322 54 7
327 54 1384
331 54 2629
332 54 2085
336 54 3091
344 54 1027
348 54 1242
349 54 5616
351 54 129
353 54 129
357 54 971
360 54 2456
361 54 1493
364 54 4701
369 54 2654
371 54 3306
372 54 3879
374 54 236
375 54 2657
376 54 1512
380 54 2208
381 54 4345
383 54 1553
384 54 595
385 54 2841
386 54 4949
387 54 314
389 54 2018
390 54 3017
393 54 3036
395 54 2604
396 54 3
397 54 4065
401 54 1148
402 54 745
406 54 3498
409 54 3058
410 54 582
413 54 3471
415 54 3773
417 54 356
418 54 1138
420 54 1397
422 54 2177
423 54 3049
426 54 4344
427 54 5
430 54 2283
431 54 1355
434 54 1745
435 54 1969
437 54 6
438 54 3605
439 54 3500
441 54 3745
442 54 7
444 54 2070
447 54 1878
448 54 1456
452 54 1922
455 54 3597
460 54 3086
462 54 5698
463 54 3168
469 54 868
470 54 4159
471 54 3409
474 54 2729
476 54 3998
478 54 3126
481 54 875
486 54 2391
487 54 3701
488 54 3671
489 54 3536
490 54 3806
491 54 2354
492 54 2648
493 54 3828
496 54 1291
498 54 2975
499 54 394
500 54 5616
2 55 3950
4 55 2786
10 55 3196
13 55 3120
15 55 5503
17 55 1211
18 55 2380
22 55 2954
25 55 3730
28 55 4059
30 55 4020
31 55 2473
34 55 1854
35 55 2464
36 55 2975
37 55 3662
39 55 2709
40 55 2412
45 55 98
46 55 3142
47 55 2883
49 55 1316
53 55 2384
56 55 2834
57 55 1291
58 55 3345
59 55 3029
61 55 564
62 55 3049
64 55 6
67 55 4540
69 55 1528
71 55 169
72 55 3835
74 55 119
75 55 3911
77 55 4233
79 55 2910
80 55 2462
81 55 4679
82 55 2770
83 55 2258
87 55 2896
89 55 2531
92 55 5177
94 55 2962
96 55 2584
97 55 2703
100 55 4157
101 55 1947
102 55 34
103 55 3278
104 55 2320
106 55 1413
107 55 3251
108 55 266
113 55 2728
114 55 2313
116 55 4325
122 55 129
123 55 2054
126 55 2949
128 55 3414
130 55 734
131 55 2810
132 55 4083
134 55 23
135 55 2726
138 55 101
144 55 171
145 55 3374
146 55 2436
149 55 1639
150 55 3513
152 55 2610
156 55 2920
158 55 2429
160 55 7
164 55 2813
165 55 1742
166 55 2350
167 55 7
170 55 98
171 55 4467
173 55 4132
175 55 253
177 55 2720
179 55 2033
180 55 4874
181 55 2346
183 55 2033
186 55 21
187 55 137
189 55 2053
193 55 1149
194 55 4125
195 55 4048
196 55 2801
197 55 3205
198 55 5
202 55 868
203 55 353
205 55 3985
206 55 8
208 55 558
209 55 8
214 55 21
216 55 3534
217 55 134
219 55 3713
220 55 2221
221 55 3417
223 55 427
225 55 3687
231 55 2503
232 55 4
233 55 2750
236 55 4452
241 55 2779
245 55 60
247 55 3182
248 55 65
249 55 4649
251 55 2772
253 55 1635
254 55 1782
255 55 3873
256 55 4163
258 55 3471
259 55 90
262 55 1450
264 55 2599
265 55 4562
266 55 2801
268 55 2904
269 55 4
271 55 3728
272 55 3181
275 55 3664
278 55 21
281 55 3002
289 55 3555
290 55 2205
291 55 4402
293 55 3904
294 55 492
295 55 2366
296 55 144
298 55 5489
300 55 3302
302 55 4046
305 55 3234
306 55 2157
307 55 3713
309 55 2952
310 55 5269
311 55 1933
312 55 1459
315 55 2128
316 55 3365
317 55 3577
319 55 1961
320 55 6611
327 55 3069
331 55 2866
332 55 4107
336 55 2638
344 55 1092
345 55 22
346 55 60
348 55 2907
349 55 4393
350 55 29
351 55 322
352 55 196
353 55 926
357 55 2742
359 55 14
360 55 1288
361 55 2837
364 55 2668
369 55 4398
371 55 1982
372 55 3837
374 55 2676
375 55 2489
376 55 3659
380 55 3337
381 55 3087
383 55 3272
384 55 1171
385 55 3533
386 55 3181
387 55 865
389 55 2834
390 55 2560
393 55 5872
395 55 2328
397 55 3271
399 55 57
401 55 1718
402 55 3642
403 55 3
405 55 10
406 55 3755
409 55 3340
410 55 2092
413 55 4238
415 55 4050
416 55 30
417 55 1072
418 55 3652
420 55 3691
421 55 81
422 55 3718
423 55 2556
426 55 5967
427 55 218
429 55 145
430 55 3318
431 55 3318
432 55 56
434 55 2167
435 55 2664
437 55 23
438 55 4010
439 55 1654
440 55 95
441 55 4141
443 55 3
444 55 2149
445 55 87
447 55 2733
448 55 2627
449 55 19
452 55 2033
455 55 2888
460 55 3461
462 55 2710
463 55 2477
469 55 4838
470 55 5345
471 55 3957
472 55 7
473 55 48
474 55 2683
476 55 2813
478 55 1812
481 55 2910
486 55 3653
487 55 2767
488 55 2548
489 55 3710
490 55 3081
491 55 1600
492 55 2369
493 55 3927
496 55 3026
498 55 2935
499 55 2714
500 55 4610
1 56 3614
3 56 4422
4 56 5
5 56 2290
6 56 2148
7 56 6197
8 56 5936
9 56 2297
10 56 63
11 56 4481
12 56 6499
13 56 29
14 56 3365
15 56 28
16 56 5013
17 56 128
18 56 2
19 56 2955
20 56 3501
21 56 2738
22 56 3
23 56 1508
24 56 2628
25 56 2
26 56 4371
27 56 1728
29 56 2587
30 56 66
32 56 3229
33 56 4872
35 56 56
36 56 8
38 56 3213
39 56 31
40 56 29
41 56 2692
42 56 2109
43 56 2166
44 56 3902
45 56 2319
47 56 23
48 56 2063
49 56 62
50 56 3082
51 56 3070
52 56 1793
53 56 7
54 56 2466
55 56 3925
56 56 28
57 56 26
58 56 6
59 56 15
60 56 3901
61 56 467
62 56 9
63 56 4107
64 56 2612
65 56 2217
66 56 3827
67 56 25
68 56 5137
69 56 9
70 56 2416
71 56 429
72 56 7
73 56 5096
74 56 1387
75 56 19
76 56 2934
78 56 3437
79 56 8
80 56 35
81 56 45
82 56 2
83 56 109
84 56 3957
85 56 3370
86 56 4641
87 56 4
88 56 2280
90 56 3584
91 56 6390
93 56 2735
95 56 2094
96 56 121
97 56 3
98 56 3641
99 56 5033
101 56 3
102 56 2450
103 56 34
104 56 6
105 56 1772
106 56 23
107 56 5
108 56 1175
109 56 3451
110 56 2767
111 56 3415
112 56 4164
113 56 26
115 56 4850
117 56 3434
118 56 2861
119 56 6575
120 56 4193
121 56 3643
122 56 1442
123 56 4
124 56 2918
125 56 3221
127 56 2229
128 56 18
129 56 2708
130 56 57
131 56 21
133 56 2174
134 56 2558
135 56 6
136 56 3966
137 56 2101
138 56 245
139 56 3360
140 56 1875
141 56 2485
142 56 1849
143 56 3420
144 56 440
145 56 5
146 56 63
147 56 4917
148 56 5045
149 56 29
150 56 7
151 56 4569
152 56 34
153 56 2056
154 56 4296
155 56 5094
156 56 5
157 56 1591
159 56 4211
160 56 1764
161 56 2312
162 56 1902
163 56 2380
164 56 29
166 56 6
167 56 2716
168 56 2710
169 56 2045
170 56 892
171 56 79
172 56 3696
173 56 26
174 56 5285
175 56 165
176 56 3139
177 56 6
178 56 2296
180 56 2
182 56 3450
183 56 72
184 56 3853
185 56 5113
186 56 887
187 56 473
188 56 3432
190 56 2544
191 56 2436
192 56 5078
193 56 130
194 56 3
197 56 6
198 56 3069
199 56 3735
200 56 6035
201 56 3830
202 56 163
203 56 130
204 56 4437
205 56 3
206 56 3684
207 56 3857
208 56 77
209 56 3787
210 56 2071
211 56 2837
212 56 2105
213 56 3061
214 56 2151
215 56 4086
216 56 18
217 56 952
218 56 4419
219 56 59
220 56 4
221 56 6
222 56 2911
223 56 169
224 56 5528
225 56 6
226 56 3814
227 56 2092
228 56 5506
229 56 3307
230 56 3818
231 56 23
232 56 2845
234 56 4155
235 56 3605
236 56 3
237 56 2469
238 56 3059
239 56 4936
240 56 2108
241 56 3
242 56 5400
243 56 5557
244 56 4744
245 56 733
246 56 4435
247 56 7
248 56 2800
249 56 35
250 56 2459
252 56 2777
253 56 30
254 56 108
256 56 5
257 56 3450
258 56 27
259 56 1141
260 56 3092
261 56 7554
262 56 4
263 56 1924
265 56 6
266 56 8
267 56 5264
268 56 3
269 56 3529
270 56 3544
271 56 4
273 56 2923
274 56 5493
275 56 89
276 56 5591
277 56 3485
278 56 3327
279 56 3113
280 56 2290
281 56 20
282 56 2902
283 56 2742
284 56 3482
285 56 5009
286 56 2627
287 56 2610
288 56 4724
289 56 26
290 56 62
291 56 20
292 56 2909
294 56 190
296 56 2211
297 56 2488
298 56 6
299 56 4451
300 56 6
301 56 5201
302 56 35
303 56 6351
304 56 3805
305 56 4
306 56 8
308 56 3829
309 56 3
310 56 1
311 56 29
312 56 194
313 56 2800
314 56 4246
315 56 4
316 56 26
318 56 3268
319 56 93
320 56 8
321 56 3908
322 56 1922
323 56 4243
324 56 1920
325 56 4476
326 56 2598
327 56 24
328 56 3129
329 56 3088
330 56 3062
331 56 7
332 56 27
333 56 3420
334 56 3383
335 56 3676
336 56 3
337 56 3779
338 56 4094
339 56 5958
340 56 2676
341 56 2116
342 56 3591
343 56 3621
344 56 59
345 56 4630
346 56 2093
347 56 3754
348 56 2
349 56 4
350 56 2904
351 56 125
352 56 1114
353 56 248
354 56 1923
355 56 3758
356 56 6622
357 56 183
358 56 1475
359 56 3744
361 56 5
362 56 3115
363 56 5549
364 56 5
365 56 1948
366 56 5013
367 56 1931
368 56 2952
369 56 3
370 56 3611
371 56 3
373 56 2529
374 56 4
376 56 4
377 56 2920
378 56 3319
379 56 2165
380 56 64
381 56 9
382 56 3014
383 56 6
384 56 16
385 56 4
387 56 258
388 56 2462
389 56 8
390 56 32
391 56 3029
392 56 5189
393 56 4
394 56 1907
395 56 4
396 56 1962
398 56 2374
399 56 2132
400 56 3879
402 56 104
403 56 3832
404 56 4567
405 56 2786
407 56 4204
408 56 4516
410 56 5
411 56 3322
412 56 2886
414 56 5095
415 56 4
416 56 2956
417 56 114
418 56 44
419 56 4037
420 56 2
421 56 1418
422 56 9
423 56 6
424 56 1783
425 56 2707
426 56 69
427 56 594
428 56 3992
429 56 903
431 56 29
432 56 3636
433 56 3533
434 56 21
435 56 6
436 56 3515
437 56 2381
439 56 4
440 56 1535
441 56 5
442 56 1913
443 56 3198
444 56 22
445 56 2557
446 56 3303
447 56 5
448 56 6
449 56 2894
450 56 3384
451 56 2285
452 56 25
453 56 3442
454 56 2830
456 56 1621
457 56 2742
458 56 4141
459 56 3566
461 56 5364
462 56 6
464 56 3049
465 56 5175
466 56 2801
467 56 3192
468 56 2826
469 56 25
470 56 7
471 56 5
472 56 2896
473 56 5853
474 56 72
475 56 2247
476 56 9
477 56 3944
479 56 3193
480 56 5030
481 56 29
482 56 2826
483 56 2408
484 56 4355
485 56 4828
486 56 25
487 56 6
488 56 31
489 56 5
491 56 24
494 56 2612
495 56 5318
497 56 4920
498 56 1
499 56 198
500 56 81
2 57 11871
4 57 6338
10 57 4445
13 57 5874
15 57 8389
17 57 368
18 57 5326
22 57 10330
25 57 4986
28 57 6310
30 57 5773
31 57 6415
34 57 5805
35 57 409
36 57 9509
37 57 5545
39 57 6462
40 57 1487
45 57 8
46 57 7305
47 57 5734
49 57 3510
53 57 5305
56 57 5759
57 57 1856
58 57 4151
59 57 4996
62 57 8698
67 57 8196
69 57 12654
72 57 5872
75 57 7013
77 57 4333
79 57 4112
80 57 2974
81 57 3849
82 57 2587
83 57 1933
87 57 6889
89 57 7086
92 57 5894
94 57 5957
96 57 2784
97 57 6721
100 57 6870
101 57 4666
103 57 6272
104 57 4090
106 57 2227
107 57 5343
113 57 7303
114 57 5668
116 57 7598
123 57 4698
126 57 6520
128 57 5990
130 57 184
131 57 6334
132 57 6318
135 57 2605
136 57 3
145 57 6215
146 57 379
149 57 8253
150 57 4639
152 57 10090
156 57 6490
158 57 3733
164 57 10152
165 57 5157
166 57 6889
171 57 7040
173 57 5895
175 57 56
177 57 7232
179 57 5937
180 57 5051
181 57 5867
183 57 1100
186 57 27
187 57 4
189 57 3406
193 57 730
194 57 7986
195 57 5881
196 57 4711
197 57 4382
202 57 670
203 57 34
205 57 6428
208 57 42
216 57 6885
219 57 6019
220 57 4888
221 57 5086
223 57 70
225 57 8102
231 57 4460
233 57 8667
236 57 8576
241 57 2618
247 57 6762
249 57 5933
251 57 7099
253 57 1468
254 57 4438
255 57 6961
256 57 8089
258 57 5234
262 57 5114
264 57 5548
265 57 10118
266 57 6272
268 57 6811
271 57 7755
272 57 6092
275 57 3904
281 57 5486
289 57 7144
290 57 2549
291 57 6176
293 57 6356
294 57 7
295 57 6500
298 57 9323
300 57 3482
302 57 6100
305 57 8438
306 57 5648
307 57 7977
309 57 5439
310 57 8645
311 57 6373
312 57 3245
315 57 5434
316 57 4968
317 57 8084
319 57 3382
320 57 9188
327 57 3240
331 57 7315
332 57 6224
336 57 6284
344 57 2185
348 57 6935
349 57 5755
351 57 86
353 57 144
357 57 828
360 57 5265
361 57 6175
364 57 6722
369 57 5547
371 57 7748
372 57 5959
374 57 2050
375 57 3844
376 57 4462
380 57 2627
381 57 6439
383 57 5818
384 57 4515
385 57 6700
386 57 7740
387 57 383
389 57 6118
390 57 5167
393 57 5561
395 57 7754
397 57 5572
401 57 4880
402 57 4112
406 57 10617
409 57 6542
410 57 3054
413 57 11546
415 57 8775
417 57 316
418 57 5067
420 57 5047
422 57 5965
423 57 6191
426 57 6478
427 57 3
429 57 6
430 57 7765
431 57 6988
434 57 6578
435 57 4861
438 57 8236
439 57 5097
441 57 7256
443 57 4
444 57 6531
447 57 6174
448 57 5552
450 57 6
452 57 3475
455 57 7364
460 57 9189
462 57 8105
463 57 6562
469 57 7740
470 57 13051
471 57 6844
474 57 9797
476 57 7031
478 57 7172
481 57 2312
486 57 8882
487 57 5970
488 57 8980
489 57 7514
490 57 8149
491 57 5801
492 57 4869
493 57 6316
496 57 3570
498 57 6178
499 57 438
500 57 5194
2 58 3613
4 58 1622
10 58 2130
11 58 3
13 58 3023
15 58 4413
17 58 738
18 58 3568
22 58 1465
25 58 2057
28 58 2181
30 58 2112
31 58 1445
34 58 3590
35 58 268
36 58 1252
37 58 3520
39 58 1914
40 58 1012
46 58 2321
47 58 4313
49 58 1376
53 58 3768
56 58 3806
57 58 1502
58 58 1407
59 58 1478
61 58 49
62 58 1903
64 58 6
67 58 2847
69 58 2344
71 58 193
72 58 2095
74 58 82
75 58 4525
77 58 4471
79 58 2731
80 58 2519
81 58 3825
82 58 1176
83 58 444
87 58 2058
89 58 3523
92 58 2242
94 58 1458
96 58 2212
97 58 3101
100 58 2538
101 58 2531
102 58 30
103 58 1696
104 58 2171
106 58 1668
107 58 2970
108 58 150
110 58 46
113 58 2221
114 58 2068
116 58 2998
123 58 2471
126 58 1994
128 58 3511
130 58 279
131 58 1941
132 58 2119
135 58 2183
138 58 116
144 58 87
145 58 1243
146 58 1044
149 58 1497
150 58 3018
152 58 2581
156 58 2936
158 58 1962
164 58 2687
165 58 3889
166 58 881
170 58 23
171 58 3688
173 58 2868
175 58 311
177 58 1712
179 58 3019
180 58 1885
181 58 1954
183 58 738
186 58 3
187 58 25
189 58 457
193 58 303
194 58 2888
195 58 2838
196 58 2123
197 58 3094
202 58 218
203 58 181
205 58 2849
208 58 235
211 58 3
214 58 6
216 58 2372
217 58 8
219 58 3275
220 58 1794
221 58 2374
223 58 192
225 58 3538
231 58 2263
233 58 3345
236 58 3068
241 58 2130
245 58 28
247 58 1398
249 58 2080
251 58 2020
253 58 1456
254 58 2106
255 58 2485
256 58 2896
258 58 1297
259 58 26
262 58 1816
264 58 4632
265 58 3756
266 58 2842
268 58 1966
271 58 2698
272 58 1674
275 58 1739
281 58 1772
289 58 2379
290 58 957
291 58 3159
293 58 2436
294 58 169
295 58 3080
296 58 26
298 58 3417
300 58 2318
302 58 2771
305 58 1916
306 58 2085
307 58 2821
309 58 1646
310 58 3665
311 58 1524
312 58 571
315 58 2758
316 58 2405
317 58 2763
319 58 1267
320 58 3171
327 58 1960
331 58 4177
332 58 2784
336 58 2808
344 58 1831
348 58 2211
349 58 3397
351 58 349
352 58 5
353 58 323
357 58 636
360 58 1485
361 58 3232
364 58 3124
369 58 3905
371 58 2376
372 58 3036
374 58 850
375 58 2544
376 58 1963
380 58 1810
381 58 2327
383 58 1298
384 58 2557
385 58 2558
386 58 3475
387 58 470
389 58 3265
390 58 2442
393 58 3512
395 58 1772
397 58 1780
401 58 897
402 58 1703
406 58 3599
409 58 2993
410 58 792
413 58 2665
415 58 3050
417 58 816
418 58 1662
420 58 2013
421 58 30
422 58 1667
423 58 2752
426 58 2308
427 58 82
429 58 41
430 58 3533
431 58 3850
432 58 8
434 58 2720
435 58 2244
437 58 4
438 58 1423
439 58 1772
441 58 2459
444 58 1777
445 58 4
447 58 2832
448 58 1640
452 58 1007
455 58 1570
460 58 2165
462 58 2800
463 58 3030
469 58 2403
470 58 3895
471 58 4321
474 58 1541
476 58 2540
478 58 3665
481 58 2243
486 58 2527
487 58 4398
488 58 4047
489 58 2261
490 58 2840
491 58 3426
492 58 1704
493 58 2416
496 58 1351
498 58 1482
499 58 554
500 58 3568
1 59 5405
2 59 305
3 59 8776
4 59 134
5 59 4969
6 59 8416
7 59 5968
8 59 10162
9 59 8021
10 59 337
11 59 6610
12 59 5538
13 59 109
14 59 8717
15 59 24
16 59 5494
17 59 645
18 59 264
19 59 3936
20 59 6430
21 59 11302
22 59 265
23 59 6631
24 59 5098
25 59 298
26 59 7368
27 59 2810
28 59 213
29 59 6407
30 59 71
31 59 200
32 59 6514
33 59 6299
34 59 311
35 59 635
36 59 110
37 59 77
38 59 4276
39 59 272
40 59 330
41 59 5045
42 59 1961
43 59 5603
44 59 9646
45 59 2704
46 59 180
47 59 125
48 59 8318
49 59 384
50 59 3924
51 59 3179
52 59 3357
53 59 269
54 59 3300
55 59 7076
56 59 7
57 59 271
58 59 112
59 59 393
60 59 5620
61 59 2320
62 59 204
63 59 5417
64 59 4591
65 59 5001
66 59 6198
67 59 153
68 59 7526
69 59 147
70 59 9407
71 59 2756
72 59 317
73 59 16469
74 59 3880
75 59 248
76 59 3995
77 59 112
78 59 5689
79 59 248
80 59 359
81 59 337
82 59 269
83 59 308
84 59 13939
85 59 5728
86 59 7496
87 59 217
88 59 4342
89 59 252
90 59 4985
91 59 6099
92 59 257
93 59 5100
94 59 103
95 59 8518
96 59 416
97 59 202
98 59 5074
99 59 6526
100 59 139
101 59 215
102 59 9183
103 59 573
104 59 163
105 59 2914
106 59 785
107 59 269
108 59 2048
109 59 5240
110 59 5332
111 59 5985
112 59 4120
113 59 219
114 59 114
115 59 5507
116 59 262
117 59 4791
118 59 6714
119 59 6047
120 59 6681
121 59 7047
122 59 3339
123 59 265
124 59 5738
125 59 6225
126 59 176
127 59 18710
128 59 135
129 59 10792
130 59 1352
131 59 149
132 59 212
133 59 2825
134 59 6646
135 59 169
136 59 6238
137 59 6087
138 59 2790
139 59 7010
140 59 3230
141 59 12674
142 59 2874
143 59 4389
144 59 3883
145 59 411
146 59 448
147 59 8651
148 59 5524
149 59 255
150 59 332
151 59 4323
152 59 325
153 59 2837
154 59 7311
155 59 7397
156 59 384
157 59 5584
158 59 262
159 59 12994
160 59 9230
161 59 6558
162 59 3243
163 59 14314
164 59 315
165 59 166
166 59 324
167 59 5275
168 59 6929
169 59 8375
170 59 3004
171 59 256
172 59 10604
173 59 302
174 59 9335
175 59 936
176 59 4738
177 59 492
178 59 7883
179 59 291
180 59 249
181 59 238
182 59 11771
183 59 186
184 59 6291
185 59 6226
186 59 3385
187 59 2260
188 59 6064
189 59 284
190 59 3725
191 59 3414
192 59 10577
193 59 694
194 59 214
195 59 84
196 59 165
197 59 211
198 59 3852
199 59 6046
200 59 5495
201 59 10688
202 59 1089
203 59 1699
204 59 4968
205 59 96
206 59 3124
207 59 4926
208 59 872
209 59 3259
210 59 6319
211 59 6284
212 59 2489
213 59 5179
214 59 8266
215 59 5760
216 59 139
217 59 2978
218 59 8582
219 59 133
220 59 151
221 59 203
222 59 6677
223 59 1834
224 59 4393
225 59 177
226 59 4823
227 59 8530
228 59 6146
229 59 11001
230 59 8782
231 59 212
232 59 9043
233 59 202
234 59 7806
235 59 5984
236 59 309
237 59 3037
238 59 9211
239 59 5249
240 59 6189
241 59 174
242 59 6259
243 59 4556
244 59 8110
245 59 3150
246 59 5918
247 59 210
248 59 3378
249 59 180
250 59 9501
251 59 233
252 59 4064
253 59 156
254 59 194
255 59 191
256 59 211
257 59 5183
258 59 161
259 59 3550
260 59 7245
261 59 6815
262 59 230
263 59 3914
264 59 220
265 59 292
266 59 357
267 59 8392
268 59 208
269 59 5880
270 59 4736
271 59 122
272 59 243
273 59 9758
274 59 7320
275 59 531
276 59 6312
277 59 4845
278 59 5671
279 59 4008
280 59 4367
281 59 254
282 59 7922
283 59 9268
284 59 6364
285 59 5628
286 59 3982
287 59 5953
288 59 5522
289 59 114
290 59 183
291 59 182
292 59 11326
293 59 252
294 59 1818
295 59 210
296 59 3665
297 59 4403
298 59 239
299 59 6263
300 59 103
301 59 6808
302 59 129
303 59 6145
304 59 4911
305 59 56
306 59 313
307 59 25
308 59 11669
309 59 215
310 59 235
311 59 205
312 59 481
313 59 4078
314 59 6746
315 59 57
316 59 198
317 59 71
318 59 3820
319 59 325
320 59 169
321 59 10030
322 59 3028
323 59 7392
324 59 3832
325 59 6490
326 59 3666
327 59 208
328 59 4146
329 59 4056
330 59 7380
331 59 256
332 59 113
333 59 4740
334 59 5625
335 59 7607
336 59 287
337 59 5810
338 59 5752
339 59 6028
340 59 10624
341 59 8514
342 59 10881
343 59 6876
344 59 368
345 59 5156
346 59 7778
347 59 7796
348 59 278
349 59 432
350 59 4520
351 59 1742
352 59 2272
353 59 2306
354 59 3803
355 59 6003
356 59 13646
357 59 821
358 59 4831
359 59 3155
360 59 167
361 59 195
362 59 4940
363 59 4103
364 59 213
365 59 3224
366 59 7261
367 59 4051
368 59 4337
369 59 192
370 59 3223
371 59 121
372 59 304
373 59 4379
374 59 297
375 59 194
376 59 314
377 59 5734
378 59 9716
379 59 8714
380 59 564
381 59 123
382 59 7617
383 59 371
384 59 410
385 59 405
386 59 232
387 59 904
388 59 3291
389 59 184
390 59 252
391 59 15019
392 59 4915
393 59 389
394 59 4731
395 59 221
396 59 3059
397 59 156
398 59 4111
399 59 4594
400 59 4496
401 59 225
402 59 548
403 59 3204
404 59 7810
405 59 3788
406 59 188
407 59 5370
408 59 7553
409 59 283
410 59 275
411 59 6796
412 59 6456
413 59 341
414 59 6075
415 59 138
416 59 6386
417 59 1145
418 59 345
419 59 7875
420 59 289
421 59 4658
422 59 179
423 59 294
424 59 3950
425 59 7154
426 59 202
427 59 2869
428 59 6143
429 59 2799
430 59 248
431 59 152
432 59 4890
433 59 9363
434 59 249
435 59 249
436 59 6629
437 59 5577
438 59 170
439 59 208
440 59 3202
441 59 131
442 59 3076
443 59 4151
444 59 174
445 59 5703
446 59 7554
447 59 587
448 59 207
449 59 6464
450 59 9398
451 59 18687
452 59 162
453 59 8336
454 59 5298
455 59 169
456 59 5614
457 59 7110
458 59 6905
459 59 8191
460 59 320
461 59 8552
462 59 297
463 59 195
464 59 5108
465 59 11266
466 59 9486
467 59 6850
468 59 6189
469 59 279
470 59 396
471 59 253
472 59 9101
473 59 8049
474 59 150
475 59 11342
476 59 107
477 59 4881
478 59 206
479 59 7819
480 59 16276
481 59 148
482 59 6329
483 59 3223
484 59 4995
485 59 12316
486 59 177
487 59 51
488 59 193
489 59 123
490 59 251
491 59 153
492 59 167
493 59 245
494 59 7249
495 59 5831
496 59 324
497 59 8040
498 59 59
499 59 895
500 59 156
2 60 2199
4 60 2275
10 60 1494
13 60 1883
15 60 3628
17 60 216
18 60 1472
22 60 3880
25 60 557
28 60 2245
30 60 1787
31 60 2790
34 60 2115
35 60 350
36 60 2221
37 60 2018
39 60 2318
40 60 701
46 60 1135
47 60 3310
49 60 594
53 60 1459
56 60 2276
57 60 1115
58 60 1753
59 60 2784
61 60 100
62 60 1686
67 60 1234
69 60 2904
71 60 111
72 60 3136
74 60 3
75 60 2808
77 60 894
79 60 2726
80 60 1948
81 60 1291
82 60 1242
83 60 158
87 60 2935
89 60 3181
92 60 2167
94 60 1671
96 60 1405
97 60 3038
100 60 2556
101 60 1472
103 60 2706
104 60 1171
106 60 703
107 60 2184
108 60 6
113 60 1974
114 60 2162
116 60 3111
123 60 1509
126 60 1331
128 60 2297
130 60 159
131 60 2868
132 60 2263
135 60 2696
138 60 6
145 60 1846
146 60 448
149 60 1304
150 60 1144
152 60 2890
156 60 2312
158 60 2074
164 60 2920
165 60 2157
166 60 928
171 60 784
173 60 2654
175 60 30
177 60 1096
179 60 2044
180 60 3775
181 60 2071
183 60 479
189 60 1217
193 60 130
194 60 1522
195 60 1199
196 60 2451
197 60 2992
202 60 154
203 60 57
205 60 2568
208 60 7
216 60 2366
217 60 3
219 60 3210
220 60 1739
221 60 1690
223 60 29
225 60 2717
231 60 1717
233 60 2314
236 60 1820
241 60 2648
247 60 2343
249 60 995
251 60 1018
253 60 733
254 60 558
255 60 3311
256 60 1571
258 60 1284
262 60 1674
264 60 1752
265 60 1738
266 60 2296
267 60 7
268 60 3006
271 60 2255
272 60 1239
275 60 1432
281 60 664
289 60 2375
290 60 1305
291 60 1432
293 60 2900
294 60 92
295 60 3537
296 60 19
298 60 1195
300 60 3511
302 60 1272
305 60 2673
306 60 1809
307 60 1571
309 60 1116
310 60 4277
311 60 1704
312 60 1072
315 60 3323
316 60 3020
317 60 1461
319 60 764
320 60 3587
327 60 1810
331 60 4602
332 60 1331
336 60 2007
344 60 1526
348 60 996
349 60 2597
351 60 31
352 60 67
353 60 72
357 60 415
358 60 8
360 60 878
361 60 2598
364 60 3052
369 60 1665
371 60 871
372 60 2107
374 60 341
375 60 1705
376 60 1588
380 60 749
381 60 2150
383 60 2499
384 60 1277
385 60 1303
386 60 2152
387 60 258
389 60 2128
390 60 1836
393 60 4399
395 60 1862
397 60 2309
401 60 1227
402 60 1492
406 60 1249
409 60 1988
410 60 543
413 60 2226
415 60 2330
417 60 308
418 60 2349
420 60 541
422 60 2583
423 60 2000
426 60 1545
427 60 9
429 60 6
430 60 2382
431 60 1748
434 60 2976
435 60 2103
437 60 4
438 60 1841
439 60 1643
441 60 2680
444 60 2615
445 60 8
447 60 1843
448 60 1349
452 60 1217
455 60 3545
460 60 3102
462 60 1771
463 60 2664
469 60 1156
470 60 3279
471 60 1564
474 60 922
476 60 2601
478 60 1558
481 60 498
486 60 1571
487 60 2454
488 60 2827
489 60 4607
490 60 1804
491 60 1359
492 60 1820
493 60 2974
496 60 1370
498 60 1645
499 60 477
500 60 2950
2 61 2666
4 61 2083
10 61 1311
13 61 1860
15 61 3061
17 61 1660
18 61 1359
22 61 3972
25 61 2861
28 61 4087
30 61 2138
31 61 3049
34 61 2372
35 61 1940
36 61 2892
37 61 3057
39 61 3951
40 61 1813
45 61 19
46 61 2589
47 61 2248
49 61 2801
53 61 1418
56 61 2184
57 61 1100
58 61 1969
59 61 2900
61 61 461
62 61 1242
64 61 5
66 61 4
67 61 2254
69 61 3749
71 61 341
72 61 2240
74 61 173
75 61 1872
77 61 2496
79 61 2643
80 61 2891
81 61 5101
82 61 2128
83 61 1638
87 61 2231
89 61 2873
92 61 1710
94 61 2676
96 61 1928
97 61 1868
100 61 2197
101 61 1588
102 61 58
103 61 1138
104 61 2352
106 61 1559
107 61 2362
108 61 253
110 61 58
113 61 3458
114 61 1487
116 61 3493
122 61 136
123 61 2884
126 61 1906
128 61 3062
130 61 1478
131 61 1805
132 61 4023
134 61 4
135 61 1310
138 61 129
144 61 162
145 61 2936
146 61 1458
149 61 2528
150 61 1953
152 61 3134
156 61 3804
158 61 2459
160 61 7
163 61 4
164 61 3233
165 61 2095
166 61 2647
167 61 24
170 61 119
171 61 3362
173 61 4448
175 61 792
176 61 4
177 61 2467
179 61 2492
180 61 3095
181 61 2172
183 61 2029
184 61 5
186 61 135
187 61 295
189 61 2369
193 61 956
194 61 2708
195 61 2555
196 61 2404
197 61 2376
202 61 800
203 61 658
205 61 3042
208 61 927
214 61 149
216 61 2119
217 61 293
219 61 2583
220 61 2959
221 61 3134
223 61 818
225 61 2398
231 61 3235
233 61 2485
236 61 4537
241 61 1316
245 61 25
247 61 2449
248 61 19
249 61 1449
251 61 3023
253 61 2522
254 61 1448
255 61 1159
256 61 2746
258 61 3035
259 61 300
262 61 1274
264 61 2360
265 61 2410
266 61 3658
268 61 2251
271 61 2820
272 61 2373
275 61 3215
278 61 23
281 61 3553
289 61 2163
290 61 1788
291 61 1876
293 61 1830
294 61 1545
295 61 2599
296 61 216
298 61 2342
300 61 2934
302 61 3396
305 61 2431
306 61 2930
307 61 1536
309 61 1800
310 61 4282
311 61 1823
312 61 2692
315 61 3028
316 61 1644
317 61 1898
319 61 2306
320 61 3331
327 61 2970
331 61 2522
332 61 3314
336 61 3679
344 61 1958
346 61 4
348 61 2378
349 61 1711
350 61 61
351 61 829
352 61 340
353 61 962
357 61 1377
360 61 3314
361 61 3640
364 61 1904
369 61 2036
371 61 1892
372 61 2244
374 61 1274
375 61 1649
376 61 1830
380 61 2232
381 61 3269
383 61 2047
384 61 2920
385 61 3285
386 61 3492
387 61 1353
389 61 1672
390 61 2672
393 61 2454
395 61 2296
397 61 2476
399 61 60
401 61 3089
402 61 3205
406 61 2698
409 61 1446
410 61 2569
413 61 1329
415 61 3436
417 61 1746
418 61 2348
420 61 2832
421 61 261
422 61 1615
423 61 3664
426 61 2626
427 61 341
429 61 102
430 61 4167
431 61 2048
434 61 2283
435 61 3360
437 61 65
438 61 2721
439 61 1258
440 61 76
441 61 2523
443 61 9
444 61 1535
445 61 4
447 61 3273
448 61 1683
452 61 2578
455 61 2830
460 61 1342
462 61 2804
463 61 2209
467 61 7
469 61 1338
470 61 5587
471 61 2673
473 61 18
474 61 2857
476 61 4352
478 61 2304
481 61 3681
486 61 2064
487 61 1657
488 61 3039
489 61 3057
490 61 2902
491 61 2248
492 61 1507
493 61 1839
496 61 837
498 61 2370
499 61 2021
500 61 3337
2 62 5842
4 62 5725
10 62 3281
11 62 3
13 62 3727
15 62 6178
17 62 4313
18 62 4177
22 62 10100
25 62 5604
28 62 4758
30 62 5026
31 62 3980
34 62 6776
35 62 3001
36 62 4587
37 62 5893
39 62 8078
40 62 5026
45 62 238
46 62 5766
47 62 4128
49 62 6547
53 62 4218
56 62 4511
57 62 5776
58 62 4475
59 62 4647
61 62 2386
62 62 5000
64 62 7
67 62 4699
69 62 4449
71 62 1708
72 62 6569
74 62 247
75 62 4749
77 62 7423
79 62 4652
80 62 7884
81 62 5389
82 62 4175
83 62 2943
87 62 5437
89 62 8341
92 62 4274
94 62 4676
96 62 7102
97 62 6573
100 62 5194
101 62 4915
102 62 160
103 62 7281
104 62 6430
106 62 3416
107 62 4805
108 62 1419
110 62 148
113 62 7220
114 62 7021
116 62 9054
122 62 165
123 62 5192
126 62 3124
128 62 3050
130 62 3285
131 62 3891
132 62 4545
134 62 53
135 62 3398
138 62 569
144 62 152
145 62 5974
146 62 4122
149 62 5235
150 62 5257
152 62 5065
156 62 8093
158 62 3234
164 62 5140
165 62 7474
166 62 4667
170 62 348
171 62 5351
173 62 8025
175 62 4096
177 62 4859
179 62 5505
180 62 4073
181 62 3893
183 62 4791
186 62 161
187 62 1072
189 62 3838
193 62 3737
194 62 5942
195 62 5646
196 62 4437
197 62 4003
198 62 7
202 62 2718
203 62 3067
205 62 3682
208 62 2516
211 62 4
214 62 288
216 62 5142
217 62 430
219 62 4266
220 62 7094
221 62 5335
223 62 2317
225 62 4998
231 62 5920
233 62 4926
236 62 7262
241 62 3359
245 62 171
247 62 7787
248 62 50
249 62 3809
251 62 6736
253 62 2823
254 62 3938
255 62 2547
256 62 5795
258 62 5252
259 62 308
262 62 3926
264 62 6806
265 62 9009
266 62 8118
268 62 5594
271 62 3070
272 62 4943
275 62 6612
278 62 156
281 62 6603
289 62 5175
290 62 5692
291 62 5520
293 62 2844
294 62 4122
295 62 6187
296 62 544
298 62 6145
300 62 4364
302 62 7842
305 62 4175
306 62 5433
307 62 4537
309 62 4809
310 62 7103
311 62 6661
312 62 3403
315 62 6302
316 62 5036
317 62 5418
319 62 5816
320 62 6718
327 62 5169
331 62 5692
332 62 7714
336 62 4033
344 62 4243
345 62 5
346 62 338
348 62 5171
349 62 5373
350 62 76
351 62 2886
352 62 1614
353 62 2023
357 62 4413
360 62 3699
361 62 6400
364 62 6514
369 62 6714
371 62 6689
372 62 6395
374 62 3968
375 62 6309
376 62 5833
380 62 5202
381 62 4496
383 62 3712
384 62 5311
385 62 7975
386 62 6014
387 62 4133
389 62 6046
390 62 7610
391 62 3
393 62 6289
395 62 4297
397 62 5235
399 62 167
401 62 4372
402 62 6626
406 62 6124
409 62 5744
410 62 2356
413 62 9184
415 62 4469
416 62 31
417 62 7021
418 62 7591
420 62 5514
421 62 164
422 62 5850
423 62 3879
426 62 5363
427 62 2050
429 62 169
430 62 7638
431 62 4929
432 62 54
434 62 5310
435 62 6761
437 62 260
438 62 7899
439 62 3960
440 62 86
441 62 4784
444 62 4889
445 62 106
447 62 7019
448 62 3766
449 62 19
452 62 3382
455 62 6903
460 62 5397
462 62 6847
463 62 3965
469 62 5419
470 62 7710
471 62 6268
474 62 6024
476 62 4925
478 62 6000
481 62 4032
486 62 5318
487 62 6718
488 62 2858
489 62 5159
490 62 4444
491 62 3161
492 62 4319
493 62 2844
496 62 4866
498 62 3818
499 62 3464
500 62 6871
2 63 3
4 63 2210
6 63 1718
11 63 5
12 63 7
13 63 3028
14 63 9
15 63 4015
17 63 1742
18 63 3338
19 63 3
21 63 6
22 63 2475
23 63 1553
24 63 67
25 63 26
27 63 715
28 63 2435
29 63 3
30 63 3563
31 63 2457
34 63 3357
35 63 3777
36 63 1844
37 63 4662
38 63 1861
39 63 1614
41 63 64
42 63 910
44 63 5
45 63 1220
46 63 2337
47 63 3142
48 63 1841
49 63 3085
50 63 492
52 63 1633
53 63 3400
54 63 1490
55 63 21
56 63 3379
58 63 2666
59 63 1729
62 63 1502
64 63 2707
66 63 1752
67 63 124
72 63 882
75 63 2245
76 63 1618
77 63 2519
79 63 3
80 63 2886
81 63 1589
83 63 2326
87 63 2966
89 63 393
92 63 2585
94 63 2253
95 63 1787
97 63 2342
100 63 3610
101 63 3216
102 63 2786
103 63 2705
104 63 2587
105 63 738
107 63 2154
108 63 4
114 63 2912
117 63 847
122 63 1742
123 63 2623
125 63 4
128 63 2060
131 63 5346
132 63 2378
133 63 1583
134 63 1523
135 63 1810
136 63 702
137 63 169
138 63 2918
140 63 1352
142 63 695
143 63 1923
144 63 2090
145 63 3381
146 63 7
149 63 29
150 63 1940
152 63 2443
153 63 1591
155 63 8
156 63 1949
157 63 2115
158 63 1012
160 63 342
161 63 19
162 63 1294
163 63 9
164 63 2502
165 63 1400
166 63 1946
167 63 1942
168 63 3
169 63 1767
170 63 2004
171 63 1657
173 63 335
174 63 2
176 63 1517
177 63 2253
179 63 1768
180 63 1659
181 63 2094
182 63 3
184 63 1716
186 63 2480
188 63 4
189 63 2333
190 63 1450
191 63 67
192 63 1
193 63 2122
194 63 2602
195 63 2196
196 63 1886
197 63 2830
198 63 1250
200 63 10
202 63 2907
203 63 1874
204 63 1317
205 63 2189
206 63 1847
207 63 111
208 63 2208
209 63 1742
210 63 934
211 63 9
212 63 1070
215 63 5
216 63 3532
219 63 2290
220 63 3719
221 63 1555
222 63 1849
223 63 2158
224 63 170
225 63 10
227 63 1887
228 63 22
232 63 1797
233 63 2113
234 63 4
235 63 4
236 63 1954
237 63 1814
240 63 858
241 63 1792
247 63 3202
248 63 1794
249 63 2243
251 63 1544
252 63 1178
253 63 1544
254 63 2590
255 63 2251
256 63 2711
258 63 1002
262 63 2795
263 63 968
264 63 3049
265 63 2255
266 63 1942
268 63 3101
269 63 1612
270 63 39
271 63 2214
272 63 1763
276 63 24
277 63 921
279 63 661
281 63 3108
287 63 1388
289 63 3449
290 63 2517
291 63 2989
292 63 1916
293 63 1734
295 63 2830
298 63 2057
300 63 2906
301 63 26
304 63 134
305 63 3044
306 63 2627
307 63 2187
309 63 3214
310 63 1297
311 63 3061
313 63 1207
315 63 3034
316 63 2453
317 63 2434
318 63 1626
319 63 4
320 63 2489
321 63 8
322 63 980
324 63 948
326 63 1506
327 63 2572
328 63 485
329 63 1193
331 63 3634
333 63 860
336 63 2949
337 63 7
340 63 1
341 63 1867
348 63 1497
351 63 1466
354 63 984
356 63 8
358 63 62
359 63 1860
360 63 1693
361 63 1605
362 63 2126
363 63 234
364 63 2388
365 63 1292
367 63 1041
368 63 948
369 63 2642
370 63 87
371 63 16
372 63 1277
373 63 1101
374 63 2165
375 63 2238
376 63 693
377 63 3
379 63 1862
381 63 4896
383 63 644
385 63 2979
386 63 2509
387 63 24
388 63 1396
389 63 2933
390 63 3035
393 63 743
394 63 1224
395 63 1112
396 63 918
397 63 2654
398 63 4
403 63 1795
404 63 6
406 63 5
409 63 900
410 63 2073
413 63 3962
415 63 2986
416 63 1568
417 63 7
418 63 4
420 63 33
422 63 1368
423 63 2941
424 63 1030
426 63 997
427 63 2866
429 63 2441
431 63 2654
432 63 1824
433 63 2
434 63 2659
435 63 5
436 63 1
437 63 2522
438 63 425
439 63 2844
440 63 2076
441 63 3371
442 63 938
443 63 1088
444 63 3026
447 63 4
448 63 1692
449 63 1645
450 63 30
452 63 2140
455 63 1280
456 63 2163
458 63 5
459 63 37
460 63 2033
461 63 8
462 63 2830
463 63 1306
464 63 17
467 63 1621
469 63 2534
470 63 96
471 63 2679
472 63 1829
475 63 644
478 63 7
481 63 1649
482 63 1723
483 63 1377
486 63 2350
487 63 2911
488 63 2776
489 63 299
490 63 3455
491 63 2246
492 63 2720
493 63 1764
494 63 1200
496 63 2051
497 63 73
498 63 2649
500 63 341
2 64 268
3 64 78
4 64 5247
5 64 3055
6 64 3743
7 64 5
8 64 5
9 64 1282
10 64 33
11 64 172
13 64 5599
14 64 143
15 64 7090
16 64 1789
17 64 4604
18 64 5689
19 64 129
21 64 65
22 64 7841
23 64 4141
24 64 3541
25 64 274
26 64 23
27 64 1600
28 64 4225
29 64 127
30 64 3683
31 64 6827
32 64 336
33 64 57
34 64 3984
35 64 4036
36 64 5953
37 64 8077
38 64 2116
39 64 5658
40 64 92
41 64 3409
42 64 1658
43 64 84
44 64 53
45 64 8439
46 64 4641
47 64 5851
48 64 3891
49 64 3597
50 64 2444
51 64 984
52 64 2389
53 64 5689
54 64 3045
56 64 7086
57 64 4
58 64 5782
59 64 6402
60 64 26
62 64 4620
63 64 72
64 64 5191
65 64 3017
66 64 4842
67 64 256
68 64 116
69 64 5
70 64 178
72 64 3205
73 64 23
74 64 5
75 64 6173
76 64 3576
77 64 9386
78 64 25
79 64 167
80 64 6042
81 64 6882
82 64 130
83 64 4858
84 64 2139
85 64 539
86 64 31
87 64 4287
88 64 62
89 64 340
90 64 172
91 64 6
92 64 7637
94 64 4274
95 64 3850
97 64 3684
98 64 126
99 64 5
100 64 3848
101 64 4265
102 64 3488
103 64 7568
104 64 5786
105 64 1581
106 64 101
107 64 5484
108 64 4
111 64 3003
112 64 463
113 64 29
114 64 6086
116 64 138
117 64 4169
118 64 20
119 64 56
120 64 125
121 64 1136
122 64 4455
123 64 6230
124 64 100
125 64 79
126 64 309
127 64 966
128 64 5682
129 64 159
131 64 7425
132 64 4195
133 64 2539
134 64 3020
135 64 5866
136 64 3662
137 64 3363
138 64 4259
139 64 21
140 64 2981
141 64 126
142 64 1623
143 64 2224
144 64 4212
145 64 4314
147 64 30
148 64 73
149 64 242
150 64 4169
151 64 21
152 64 3614
153 64 2528
154 64 37
155 64 75
156 64 7058
157 64 2732
158 64 5209
159 64 4
160 64 4805
161 64 3353
162 64 3069
163 64 2192
164 64 3750
165 64 6387
166 64 6562
167 64 4551
168 64 64
169 64 3949
170 64 6417
171 64 7096
172 64 26
173 64 258
174 64 88
176 64 4249
177 64 7445
178 64 144
179 64 6421
180 64 5535
181 64 6643
182 64 53
183 64 130
184 64 4950
186 64 4419
188 64 932
189 64 8462
190 64 2262
191 64 2646
193 64 4106
194 64 5969
195 64 4668
196 64 4915
197 64 5237
198 64 3476
199 64 27
200 64 27
201 64 20
202 64 4268
203 64 5066
204 64 4377
205 64 2479
206 64 3669
207 64 3713
208 64 3618
209 64 3491
210 64 4029
211 64 78
212 64 4678
213 64 180
214 64 146
215 64 324
216 64 3881
217 64 32
218 64 2213
219 64 6132
220 64 5452
221 64 2522
222 64 4749
223 64 4711
224 64 7898
226 64 356
227 64 3954
228 64 122
229 64 31
230 64 138
231 64 130
232 64 6096
233 64 3810
234 64 120
235 64 8
236 64 6588
237 64 3230
238 64 85
239 64 140
240 64 4502
241 64 5915
242 64 9
243 64 82
244 64 439
245 64 87
246 64 73
247 64 5960
248 64 6463
249 64 5192
250 64 8
251 64 7751
252 64 2811
253 64 4443
254 64 2407
255 64 5818
256 64 6046
257 64 22
258 64 3988
260 64 4444
261 64 52
262 64 7186
263 64 3056
264 64 4717
265 64 6805
266 64 6973
267 64 8
268 64 4382
269 64 4988
270 64 2543
271 64 6386
272 64 2754
273 64 55
276 64 97
277 64 4116
278 64 57
279 64 4729
280 64 75
281 64 5378
282 64 64
283 64 129
284 64 26
285 64 23
286 64 195
287 64 3199
289 64 4034
290 64 4602
291 64 6160
292 64 3744
293 64 7483
294 64 162
295 64 6969
297 64 374
298 64 4255
299 64 350
300 64 7919
301 64 82
302 64 216
303 64 49
304 64 3540
305 64 4800
306 64 6577
307 64 4543
308 64 3
309 64 6178
310 64 4892
311 64 3822
312 64 29
313 64 2871
315 64 5114
316 64 5336
317 64 6896
318 64 2806
319 64 17
320 64 6064
321 64 915
322 64 2493
323 64 29
324 64 3077
325 64 78
326 64 2352
327 64 3056
328 64 2442
329 64 2264
330 64 24
331 64 5361
332 64 195
333 64 4239
334 64 77
335 64 2618
336 64 7214
337 64 30
338 64 72
339 64 1550
340 64 46
341 64 3948
342 64 55
343 64 30
344 64 222
345 64 30
346 64 5
347 64 22
348 64 5671
349 64 6
350 64 138
351 64 4507
352 64 5
353 64 106
354 64 3066
355 64 26
356 64 104
357 64 59
358 64 2685
359 64 3680
360 64 5255
361 64 4645
362 64 2274
363 64 3330
364 64 3653
365 64 2908
366 64 156
367 64 3079
368 64 3684
369 64 6553
370 64 2755
371 64 194
372 64 1735
373 64 2964
374 64 5672
375 64 3948
376 64 2197
377 64 78
378 64 52
379 64 4060
380 64 20
381 64 6357
382 64 5
383 64 2202
384 64 61
385 64 6243
386 64 4801
387 64 6
388 64 3076
389 64 5827
390 64 3662
391 64 107
392 64 28
393 64 5595
394 64 3980
395 64 5847
396 64 2439
397 64 6724
398 64 5371
399 64 3
400 64 136
401 64 22
403 64 3691
404 64 58
405 64 219
406 64 162
407 64 70
408 64 26
409 64 5119
410 64 3868
411 64 57
412 64 24
413 64 7129
414 64 24
415 64 4668
416 64 3015
417 64 399
418 64 76
420 64 260
421 64 27
422 64 7469
423 64 7219
424 64 4644
425 64 5
426 64 2461
427 64 8768
428 64 23
429 64 3279
430 64 509
431 64 6737
432 64 4438
433 64 4
434 64 9083
436 64 2017
437 64 5520
438 64 1087
439 64 7465
440 64 7820
441 64 4653
442 64 2467
443 64 3582
444 64 5142
445 64 131
446 64 259
447 64 29
448 64 5882
449 64 2987
450 64 2827
451 64 1002
452 64 3812
453 64 21
454 64 151
455 64 3603
456 64 2802
457 64 42
458 64 123
459 64 3239
460 64 9154
461 64 3014
462 64 8375
463 64 4552
464 64 1772
465 64 145
466 64 106
467 64 3815
468 64 153
469 64 5407
470 64 511
471 64 5609
472 64 6232
473 64 65
474 64 179
475 64 5666
477 64 165
478 64 117
479 64 30
480 64 27
481 64 4638
482 64 3009
483 64 3090
484 64 2055
485 64 143
486 64 8122
487 64 6092
488 64 6103
489 64 2373
490 64 9158
491 64 4712
492 64 7152
493 64 7347
494 64 2952
495 64 11
496 64 3232
497 64 3006
498 64 5904
500 64 1020
1 65 5616
2 65 5071
3 65 3973
7 65 3282
8 65 3474
10 65 4568
11 65 3788
12 65 3545
14 65 3376
15 65 4372
20 65 131
21 65 3097
22 65 5880
25 65 3653
26 65 3119
28 65 733
30 65 31
31 65 2247
32 65 5126
33 65 2902
36 65 1007
37 65 7
39 65 679
40 65 3491
43 65 1884
44 65 717
46 65 4715
55 65 1703
57 65 3828
60 65 2532
61 65 3634
63 65 3852
67 65 4056
68 65 2967
69 65 2873
70 65 1992
71 65 3227
72 65 4061
73 65 3039
74 65 2138
75 65 7182
78 65 1655
79 65 4468
80 65 10
82 65 2887
85 65 3275
86 65 2541
87 65 3099
89 65 3598
90 65 2795
91 65 3719
92 65 101
93 65 1743
96 65 3215
97 65 143
98 65 3376
99 65 3458
100 65 130
103 65 375
104 65 304
106 65 2387
107 65 5541
108 65 4293
109 65 2774
110 65 3335
113 65 4136
114 65 5780
115 65 193
116 65 4973
118 65 4175
119 65 4337
120 65 3435
124 65 3104
125 65 5335
126 65 3429
129 65 3746
130 65 3167
132 65 764
139 65 2588
141 65 4377
144 65 7
145 65 4627
146 65 3330
147 65 3139
148 65 2770
149 65 4460
151 65 2133
152 65 4081
154 65 3984
155 65 1849
156 65 3473
159 65 2692
164 65 4124
165 65 3467
168 65 2512
171 65 5973
172 65 5057
173 65 4472
175 65 2877
178 65 3996
179 65 3189
180 65 54
181 65 1566
182 65 2080
183 65 2755
185 65 3290
187 65 4060
189 65 2775
192 65 6684
194 65 428
195 65 3464
196 65 63
197 65 3814
200 65 3834
201 65 5044
205 65 2336
211 65 3288
213 65 8
214 65 4095
216 65 310
217 65 3453
220 65 6151
221 65 2684
225 65 3660
228 65 3565
229 65 3554
230 65 1027
231 65 3641
234 65 3378
235 65 3515
236 65 6636
239 65 4705
242 65 1296
243 65 144
245 65 3340
250 65 2924
251 65 3781
255 65 2943
256 65 394
257 65 3894
259 65 3777
261 65 1668
262 65 2194
265 65 5353
266 65 3491
267 65 4050
268 65 3171
273 65 3810
274 65 2278
275 65 6243
276 65 3734
278 65 3536
281 65 3422
282 65 2900
283 65 2533
284 65 5526
285 65 3341
288 65 191
289 65 328
291 65 764
294 65 3842
296 65 3795
298 65 2985
300 65 9
301 65 5006
302 65 2623
303 65 3795
305 65 163
306 65 245
307 65 3568
308 65 3298
309 65 191
310 65 9012
312 65 3694
314 65 3055
316 65 3
319 65 3001
320 65 4424
323 65 4059
325 65 3183
327 65 27
330 65 1430
331 65 2386
332 65 2527
334 65 3948
336 65 1372
337 65 3705
338 65 2137
340 65 3497
342 65 2646
343 65 2588
344 65 2841
345 65 2010
346 65 2561
347 65 3865
349 65 3772
350 65 3592
352 65 4195
353 65 3661
356 65 3153
357 65 3093
364 65 136
366 65 2236
369 65 5919
371 65 3472
372 65 4619
375 65 3769
376 65 5503
377 65 2386
378 65 947
380 65 5032
381 65 793
382 65 4105
383 65 5044
384 65 3060
385 65 4519
386 65 4764
387 65 4755
389 65 3110
390 65 2524
391 65 2242
392 65 4473
393 65 4606
395 65 2994
399 65 2154
400 65 2237
401 65 2105
402 65 6242
404 65 4570
406 65 4672
407 65 3160
408 65 2630
409 65 3609
411 65 4320
412 65 3033
413 65 3978
414 65 4166
415 65 4135
417 65 5187
418 65 7645
419 65 2785
420 65 3635
421 65 4369
423 65 1400
425 65 3916
426 65 4239
428 65 3792
430 65 5548
433 65 2161
435 65 2861
438 65 4635
439 65 2088
441 65 268
444 65 2031
445 65 5304
446 65 4
447 65 4064
453 65 5120
454 65 22
455 65 3930
457 65 4229
458 65 3976
460 65 3178
462 65 6082
466 65 2778
468 65 3191
469 65 4336
470 65 5061
471 65 3427
473 65 4664
474 65 2862
476 65 5257
478 65 5903
479 65 2479
480 65 3103
486 65 6001
489 65 4851
490 65 3569
495 65 2716
499 65 3638
500 65 4752
1 66 2634
2 66 2981
3 66 1824
7 66 2550
8 66 2477
10 66 2497
11 66 2529
12 66 2668
14 66 801
15 66 2076
19 66 13
20 66 101
21 66 2256
22 66 2112
25 66 2821
26 66 3168
28 66 186
30 66 4
31 66 796
32 66 2395
33 66 1715
36 66 221
39 66 171
40 66 572
43 66 422
44 66 225
46 66 3079
55 66 2613
57 66 2235
60 66 224
61 66 1555
63 66 2697
67 66 3455
68 66 3475
69 66 831
70 66 207
71 66 1947
72 66 2786
73 66 1859
74 66 1734
75 66 3283
78 66 1516
79 66 2571
82 66 2845
85 66 2430
86 66 540
87 66 1627
88 66 2
89 66 2164
90 66 733
91 66 1792
93 66 271
94 66 4
96 66 2941
97 66 4
98 66 1810
99 66 1420
100 66 4
103 66 95
104 66 56
106 66 2614
107 66 1076
108 66 1816
109 66 2722
110 66 1034
113 66 2559
114 66 1934
115 66 98
116 66 4880
118 66 2779
119 66 1320
120 66 2473
124 66 2432
125 66 2329
126 66 2529
129 66 2681
130 66 1878
132 66 192
139 66 2827
141 66 3273
145 66 3313
146 66 1241
147 66 2264
148 66 1450
149 66 2592
151 66 2265
152 66 4498
154 66 1009
155 66 391
156 66 2316
159 66 2060
164 66 4598
165 66 1813
168 66 3483
171 66 3601
172 66 1174
173 66 1669
175 66 2063
178 66 1276
179 66 1937
180 66 26
181 66 338
182 66 2511
183 66 3434
185 66 2070
187 66 2095
189 66 1376
192 66 1215
194 66 23
195 66 1200
197 66 2741
200 66 1832
201 66 1271
205 66 2495
211 66 3406
213 66 3
214 66 2602
216 66 199
217 66 2998
220 66 1273
221 66 2601
225 66 1887
228 66 2913
229 66 1360
230 66 359
231 66 1368
234 66 2905
235 66 1512
236 66 3523
239 66 1905
242 66 227
243 66 56
245 66 2316
250 66 2072
251 66 3487
255 66 3323
256 66 21
257 66 1878
259 66 2656
261 66 1178
262 66 817
264 66 5
265 66 1715
266 66 2322
267 66 1382
268 66 1536
273 66 2235
274 66 3354
275 66 2497
276 66 2959
278 66 851
280 66 1
281 66 1413
282 66 1460
283 66 2270
284 66 3474
285 66 1233
288 66 109
289 66 202
291 66 309
294 66 1431
296 66 1774
298 66 3564
301 66 447
302 66 2419
303 66 2414
305 66 70
306 66 92
307 66 2564
308 66 2167
309 66 115
310 66 1874
312 66 2204
314 66 1860
319 66 2149
320 66 3074
322 66 6
323 66 1015
325 66 1604
330 66 928
331 66 696
332 66 2320
334 66 1013
336 66 318
337 66 2032
338 66 1132
340 66 1907
342 66 1842
343 66 2777
344 66 1392
345 66 2246
346 66 2530
347 66 1029
349 66 4566
350 66 2613
352 66 1437
353 66 1228
356 66 2845
357 66 2688
364 66 4
366 66 2497
369 66 2109
371 66 3164
372 66 1270
375 66 799
376 66 2730
377 66 2749
378 66 257
380 66 1945
381 66 651
382 66 1006
383 66 3422
384 66 2024
385 66 2090
386 66 2181
387 66 1335
389 66 518
390 66 555
391 66 1651
392 66 1228
393 66 4513
395 66 3398
396 66 14
399 66 2982
400 66 637
401 66 3246
402 66 2462
404 66 2835
406 66 2549
407 66 3282
408 66 547
409 66 2171
411 66 2053
412 66 2465
413 66 1430
414 66 2470
415 66 1454
417 66 1890
418 66 3241
419 66 1114
420 66 2710
421 66 2279
423 66 339
425 66 2020
426 66 2880
428 66 898
430 66 2860
433 66 694
435 66 2031
438 66 2356
439 66 771
441 66 193
442 66 3
444 66 594
445 66 1793
447 66 3296
453 66 1703
455 66 1589
457 66 2288
458 66 2817
460 66 656
462 66 2133
466 66 1865
468 66 1094
469 66 518
470 66 3840
471 66 701
473 66 1474
474 66 3790
476 66 2055
478 66 1885
479 66 2053
480 66 1826
486 66 879
489 66 2830
490 66 1652
495 66 2188
499 66 2003
500 66 2323
1 67 6382
2 67 9140
3 67 4850
7 67 7402
8 67 6101
10 67 6014
11 67 5484
12 67 8276
14 67 5556
15 67 7481
20 67 195
21 67 7216
22 67 10306
25 67 9623
26 67 9991
28 67 4259
30 67 385
31 67 5363
32 67 4698
33 67 9077
36 67 4062
37 67 2
39 67 1901
40 67 5562
43 67 2949
44 67 1574
46 67 8763
55 67 6665
57 67 5187
59 67 33
60 67 4118
61 67 5699
63 67 4966
67 67 5099
68 67 4722
69 67 3872
70 67 2521
71 67 4893
72 67 5592
73 67 5487
74 67 6419
75 67 8413
78 67 5826
79 67 5590
80 67 8
82 67 5710
85 67 4642
86 67 4423
87 67 10010
89 67 11189
90 67 5672
91 67 5392
92 67 198
93 67 3620
96 67 4081
97 67 359
98 67 7910
99 67 5805
100 67 274
103 67 1026
104 67 1639
106 67 4418
107 67 8774
108 67 4973
109 67 6469
110 67 5866
113 67 5359
114 67 6255
115 67 390
116 67 9180
118 67 6562
119 67 5670
120 67 6506
124 67 6451
125 67 6836
126 67 6814
129 67 4620
130 67 4754
132 67 4384
139 67 6664
141 67 6895
145 67 6842
146 67 5620
147 67 9648
148 67 5104
149 67 9839
151 67 5570
152 67 6009
154 67 8134
155 67 3935
156 67 5162
159 67 5406
164 67 5949
165 67 5693
168 67 5354
171 67 9793
172 67 7374
173 67 5394
175 67 5683
178 67 5140
179 67 6085
180 67 29
181 67 2876
182 67 6114
183 67 5661
185 67 7790
187 67 6962
189 67 8413
192 67 6613
194 67 926
195 67 5399
196 67 305
197 67 6952
200 67 5017
201 67 7462
205 67 7873
211 67 7970
214 67 8698
216 67 1747
217 67 5233
219 67 11
220 67 11078
221 67 5424
225 67 7163
228 67 5550
229 67 4623
230 67 3680
231 67 5437
234 67 6738
235 67 6414
236 67 7842
239 67 7838
242 67 2687
243 67 424
245 67 4745
250 67 5817
251 67 9577
255 67 6184
256 67 949
257 67 3937
259 67 4791
261 67 4645
262 67 9195
265 67 6026
266 67 5000
267 67 6634
268 67 10079
272 67 6
273 67 5527
274 67 6764
275 67 7752
276 67 5553
278 67 6004
281 67 6806
282 67 5467
283 67 6594
284 67 6340
285 67 5231
288 67 356
289 67 1887
291 67 4944
294 67 5744
295 67 5
296 67 5285
298 67 9022
301 67 7562
302 67 6370
303 67 4230
305 67 1302
306 67 564
307 67 8721
308 67 7488
309 67 986
310 67 8067
311 67 24
312 67 5906
314 67 5759
316 67 141
319 67 6566
320 67 7477
323 67 8325
325 67 6172
327 67 54
330 67 4200
331 67 7847
332 67 6139
334 67 4269
336 67 7495
337 67 4804
338 67 4272
340 67 7077
342 67 6235
343 67 6463
344 67 5518
345 67 5209
346 67 6365
347 67 5216
349 67 7657
350 67 6751
352 67 4145
353 67 6835
356 67 5889
357 67 5042
364 67 322
366 67 7401
369 67 5959
371 67 7926
372 67 4865
375 67 5567
376 67 7213
377 67 5713
378 67 3451
380 67 4582
381 67 2479
382 67 6036
383 67 5874
384 67 5415
385 67 7634
386 67 10568
387 67 8448
389 67 9737
390 67 4607
391 67 5423
392 67 5155
393 67 7966
395 67 8178
399 67 6031
400 67 5477
401 67 6424
402 67 7750
404 67 6626
406 67 7952
407 67 4756
408 67 4327
409 67 5013
411 67 4415
412 67 3723
413 67 6744
414 67 4637
415 67 7746
417 67 5510
418 67 7262
419 67 3883
420 67 9617
421 67 5971
423 67 7488
425 67 4172
426 67 7279
428 67 4964
430 67 9963
433 67 2286
435 67 9121
438 67 8325
439 67 9258
441 67 1174
444 67 4951
445 67 5955
447 67 5519
452 67 5
453 67 5472
455 67 7536
457 67 9171
458 67 6827
460 67 9471
462 67 9833
466 67 8070
468 67 3463
469 67 5238
470 67 7881
471 67 5743
473 67 4894
474 67 8945
476 67 4977
478 67 6308
479 67 5985
480 67 5498
485 67 41
486 67 7930
487 67 3
489 67 4808
490 67 6118
495 67 5969
499 67 4715
500 67 7824
1 68 1599
2 68 650
3 68 2541
4 68 2
7 68 1055
8 68 1805
9 68 23
10 68 1014
11 68 1256
12 68 1043
13 68 5
14 68 1229
15 68 666
17 68 5
18 68 5
19 68 40
20 68 219
21 68 1161
22 68 750
24 68 6
25 68 1175
26 68 795
28 68 421
29 68 41
30 68 300
31 68 742
32 68 1743
33 68 1057
34 68 23
35 68 29
36 68 156
37 68 92
38 68 37
39 68 354
40 68 690
41 68 11
43 68 805
44 68 687
46 68 1153
49 68 7
51 68 7
53 68 3
55 68 1038
56 68 4
57 68 2192
59 68 26
60 68 819
61 68 630
62 68 5
63 68 1681
64 68 50
67 68 1274
68 68 1264
69 68 1365
70 68 287
71 68 1754
72 68 764
73 68 1703
74 68 711
75 68 740
76 68 4
77 68 30
78 68 929
79 68 1569
80 68 155
82 68 973
83 68 5
84 68 43
85 68 2883
86 68 913
87 68 657
88 68 19
89 68 1421
90 68 603
91 68 1495
92 68 108
93 68 389
94 68 23
96 68 1111
97 68 178
98 68 1886
99 68 1555
100 68 126
101 68 11
102 68 25
103 68 165
104 68 197
106 68 897
107 68 2178
108 68 1191
109 68 1249
110 68 746
111 68 25
113 68 1335
114 68 1249
115 68 256
116 68 1860
117 68 4
118 68 1178
119 68 1524
120 68 1041
121 68 5
123 68 63
124 68 992
125 68 1148
126 68 796
128 68 63
129 68 1008
130 68 1731
131 68 29
132 68 395
133 68 6
134 68 64
136 68 4
137 68 44
138 68 5
139 68 1201
140 68 3
141 68 1644
143 68 38
144 68 7
145 68 1372
146 68 880
147 68 356
148 68 898
149 68 2085
150 68 69
151 68 1733
152 68 2293
153 68 4
154 68 646
155 68 603
156 68 1718
158 68 8
159 68 1532
160 68 2
161 68 7
162 68 9
163 68 5
164 68 2215
165 68 2165
166 68 5
167 68 5
168 68 937
170 68 3
171 68 1310
172 68 1172
173 68 1150
174 68 90
175 68 1027
177 68 6
178 68 667
179 68 2014
180 68 152
181 68 599
182 68 1656
183 68 1531
185 68 986
186 68 7
187 68 1218
188 68 18
189 68 592
192 68 2014
193 68 9
194 68 410
195 68 586
196 68 204
197 68 1005
198 68 34
199 68 11
200 68 970
201 68 1201
202 68 6
203 68 4
204 68 10
205 68 1882
206 68 8
207 68 38
209 68 5
210 68 23
211 68 2210
212 68 11
213 68 17
214 68 1071
215 68 20
216 68 511
217 68 1475
219 68 219
220 68 771
221 68 1537
223 68 25
224 68 19
225 68 1158
226 68 9
228 68 1378
229 68 413
230 68 836
231 68 1432
233 68 26
234 68 801
235 68 1790
236 68 2140
237 68 3
238 68 17
239 68 1135
240 68 5
242 68 363
243 68 178
245 68 669
246 68 54
247 68 96
250 68 1343
251 68 1289
252 68 32
253 68 8
255 68 1395
256 68 404
257 68 948
259 68 940
261 68 773
262 68 764
263 68 4
265 68 741
266 68 1762
267 68 669
268 68 624
269 68 8
270 68 6
271 68 3
272 68 96
273 68 634
274 68 1268
275 68 2251
276 68 1338
277 68 6
278 68 2003
279 68 25
280 68 21
281 68 2148
282 68 848
283 68 452
284 68 2112
285 68 436
286 68 66
288 68 267
289 68 523
290 68 32
291 68 515
294 68 1099
295 68 29
296 68 831
298 68 1475
299 68 6
301 68 776
302 68 1179
303 68 652
304 68 39
305 68 259
306 68 229
307 68 718
308 68 1686
309 68 246
310 68 2793
311 68 117
312 68 1167
313 68 35
314 68 2386
315 68 9
316 68 140
319 68 1205
320 68 1907
321 68 28
322 68 9
323 68 659
324 68 6
325 68 880
327 68 25
330 68 774
331 68 1322
332 68 1113
333 68 9
334 68 1122
335 68 6
336 68 558
337 68 1452
338 68 735
339 68 8
340 68 1176
342 68 1514
343 68 1212
344 68 1404
345 68 1985
346 68 1074
347 68 915
349 68 2282
350 68 905
352 68 593
353 68 1064
354 68 6
355 68 7
356 68 2191
357 68 1335
359 68 10
361 68 7
362 68 87
364 68 194
365 68 6
366 68 1408
367 68 6
368 68 54
369 68 2199
371 68 925
372 68 2165
373 68 8
374 68 8
375 68 757
376 68 684
377 68 1348
378 68 500
380 68 1178
381 68 192
382 68 1562
383 68 415
384 68 1127
385 68 1680
386 68 1634
387 68 898
389 68 731
390 68 279
391 68 1147
392 68 390
393 68 1312
394 68 6
395 68 1348
396 68 4
397 68 4
399 68 1304
400 68 805
401 68 1333
402 68 2357
403 68 5
404 68 1399
405 68 40
406 68 1129
407 68 1910
408 68 925
409 68 1005
411 68 1481
412 68 916
413 68 1405
414 68 1177
415 68 1222
416 68 67
417 68 1620
418 68 2413
419 68 575
420 68 1232
421 68 969
422 68 6
423 68 555
424 68 25
425 68 1847
426 68 1362
427 68 6
428 68 563
429 68 33
430 68 580
431 68 66
433 68 587
435 68 646
436 68 20
438 68 1443
439 68 764
440 68 4
441 68 439
442 68 4
443 68 27
444 68 498
445 68 1044
446 68 23
447 68 590
448 68 17
449 68 80
450 68 6
452 68 8
453 68 819
454 68 77
455 68 1310
457 68 1246
458 68 1055
460 68 1224
461 68 13
462 68 1838
463 68 5
464 68 5
465 68 20
466 68 1414
468 68 596
469 68 947
470 68 1098
471 68 702
473 68 1068
474 68 2498
475 68 29
476 68 1384
477 68 24
478 68 911
479 68 1249
480 68 1752
481 68 5
485 68 155
486 68 517
487 68 23
488 68 6
489 68 1871
490 68 695
491 68 4
492 68 3
494 68 19
495 68 661
498 68 133
499 68 830
500 68 1401
1 69 2250
2 69 3580
3 69 3621
7 69 2146
8 69 1623
10 69 3918
11 69 3581
12 69 3070
14 69 2909
15 69 4300
21 69 2675
22 69 4331
25 69 5368
26 69 2413
28 69 2421
30 69 324
31 69 4449
32 69 2549
33 69 2023
36 69 1925
37 69 203
39 69 2484
40 69 2360
43 69 9
46 69 1987
55 69 2702
57 69 2101
59 69 24
60 69 159
61 69 2284
63 69 2093
67 69 2983
68 69 2546
69 69 2622
70 69 3
71 69 3768
72 69 3220
73 69 2084
74 69 2601
75 69 2588
78 69 152
79 69 3177
82 69 3085
85 69 3839
86 69 1120
87 69 4296
89 69 3162
90 69 81
91 69 1589
92 69 687
93 69 3
96 69 2353
97 69 173
98 69 2617
99 69 2180
100 69 814
103 69 2785
104 69 801
106 69 2948
107 69 4613
108 69 2995
109 69 1931
110 69 3662
113 69 2015
114 69 4257
116 69 4580
118 69 4095
119 69 1114
120 69 1638
124 69 1691
125 69 1883
126 69 4116
129 69 1965
130 69 4259
131 69 24
132 69 2407
139 69 2751
141 69 3367
145 69 2273
146 69 2508
147 69 3167
148 69 1566
149 69 2152
151 69 1132
152 69 2727
154 69 1823
155 69 29
156 69 2033
158 69 34
159 69 4311
164 69 2709
165 69 5566
168 69 3585
171 69 2507
172 69 1457
173 69 3336
175 69 3167
178 69 1984
179 69 1459
180 69 243
181 69 1601
182 69 1661
183 69 2449
185 69 1836
187 69 2361
189 69 4135
192 69 1709
194 69 770
195 69 1910
196 69 812
197 69 5453
200 69 1302
201 69 1416
205 69 3113
211 69 2379
214 69 2865
216 69 1594
217 69 2582
219 69 245
220 69 4865
221 69 4030
225 69 3388
228 69 3144
229 69 2717
231 69 1785
234 69 2615
235 69 2646
236 69 3757
239 69 2576
245 69 2544
250 69 1659
251 69 3704
255 69 2803
256 69 798
257 69 1721
259 69 2731
261 69 47
262 69 1791
265 69 2896
266 69 2116
267 69 360
268 69 4235
273 69 1607
274 69 2325
275 69 4311
276 69 3206
278 69 4068
281 69 3336
282 69 1575
283 69 1187
284 69 3316
285 69 180
289 69 1571
291 69 2701
293 69 7
294 69 2700
295 69 22
296 69 2900
298 69 2258
300 69 27
301 69 1729
302 69 3725
303 69 2333
305 69 1505
306 69 2142
307 69 2871
308 69 2285
309 69 2303
310 69 3501
311 69 110
312 69 3087
314 69 2699
316 69 155
319 69 2636
320 69 4456
323 69 1803
325 69 2649
327 69 34
330 69 17
331 69 1408
332 69 3633
334 69 1992
336 69 3476
337 69 3512
338 69 205
340 69 2528
342 69 3224
343 69 2665
344 69 3261
345 69 2831
346 69 2792
347 69 694
348 69 53
349 69 1828
350 69 2285
352 69 2836
353 69 2328
356 69 2472
357 69 2159
364 69 188
366 69 4494
369 69 3015
371 69 2973
372 69 3683
375 69 2143
376 69 3256
377 69 3392
378 69 131
380 69 2380
381 69 2358
382 69 3254
383 69 2329
384 69 1723
385 69 1862
386 69 3427
387 69 2731
389 69 3811
390 69 3451
391 69 1437
392 69 37
393 69 4037
395 69 3992
397 69 2
399 69 2174
400 69 26
401 69 2459
402 69 4255
404 69 3055
406 69 3998
407 69 3269
408 69 1136
409 69 2468
411 69 3018
412 69 2164
413 69 5777
414 69 4693
415 69 2606
417 69 3032
418 69 4530
419 69 501
420 69 5419
421 69 2277
423 69 3330
425 69 2465
426 69 2412
428 69 2140
430 69 2709
433 69 22
435 69 2541
438 69 2640
439 69 1727
441 69 2435
444 69 3236
445 69 3307
447 69 2899
453 69 1712
455 69 2775
457 69 4039
458 69 3377
460 69 3313
462 69 4652
466 69 1442
468 69 558
469 69 2622
470 69 3791
471 69 3352
473 69 2646
474 69 2836
476 69 2019
478 69 4422
479 69 1625
480 69 2124
486 69 2125
489 69 2273
490 69 3578
493 69 3
495 69 1742
499 69 2421
500 69 3823
1 70 6024
2 70 8388
3 70 8061
7 70 6643
8 70 9073
10 70 16672
11 70 9813
12 70 5254
14 70 8764
15 70 12798
18 70 32
21 70 9909
22 70 10348
25 70 8840
26 70 9129
28 70 5927
30 70 771
31 70 7757
32 70 7792
33 70 7315
36 70 5493
37 70 360
39 70 7538
40 70 5992
43 70 5
46 70 11263
53 70 32
55 70 7222
56 70 7
57 70 11862
59 70 280
60 70 271
61 70 9128
63 70 4389
67 70 9110
68 70 8058
69 70 8231
70 70 27
71 70 7480
72 70 4498
73 70 7072
74 70 7368
75 70 10544
78 70 506
79 70 6958
80 70 156
82 70 5547
85 70 6913
86 70 6083
87 70 8948
89 70 10184
90 70 160
91 70 8814
92 70 1739
93 70 4
96 70 7637
97 70 411
98 70 9765
99 70 6243
100 70 3181
103 70 2550
104 70 4339
106 70 7856
107 70 6553
108 70 10154
109 70 6168
110 70 8043
113 70 7879
114 70 11167
116 70 12524
118 70 11299
119 70 2837
120 70 7524
124 70 7730
125 70 9846
126 70 14943
129 70 8949
130 70 8390
131 70 85
132 70 5965
139 70 7315
141 70 9484
145 70 8873
146 70 6091
147 70 5184
148 70 8358
149 70 7914
151 70 1079
152 70 8908
154 70 8026
156 70 11324
158 70 92
159 70 5655
164 70 9359
165 70 9669
168 70 12208
171 70 15286
172 70 9745
173 70 9748
175 70 8750
178 70 2327
179 70 5456
180 70 1465
181 70 4527
182 70 11220
183 70 8245
185 70 7077
187 70 8843
189 70 9161
192 70 8388
194 70 4636
195 70 8850
196 70 3565
197 70 6458
200 70 3521
201 70 10018
205 70 6127
211 70 7491
214 70 3659
216 70 3665
217 70 6509
219 70 132
220 70 5620
221 70 8312
225 70 5896
228 70 8905
229 70 6256
231 70 8003
234 70 6631
235 70 2788
236 70 11948
239 70 5688
245 70 6460
247 70 8
249 70 3
250 70 1915
251 70 5436
255 70 8537
256 70 4519
257 70 4119
259 70 5747
261 70 161
262 70 9252
265 70 10185
266 70 11421
267 70 760
268 70 8882
273 70 7804
274 70 8059
275 70 10147
276 70 8914
278 70 9288
281 70 7452
282 70 6224
283 70 3322
284 70 7587
285 70 265
289 70 3765
291 70 9053
294 70 11493
295 70 121
296 70 6760
298 70 11766
300 70 256
301 70 3582
302 70 7528
303 70 8215
305 70 4213
306 70 6049
307 70 9230
308 70 4598
309 70 8172
310 70 13169
311 70 238
312 70 11041
314 70 7179
315 70 6
316 70 784
319 70 4755
320 70 9209
323 70 8012
325 70 4591
327 70 152
330 70 8
331 70 4351
332 70 7733
334 70 7493
336 70 7448
337 70 7159
338 70 150
340 70 4890
342 70 9172
343 70 7219
344 70 5909
345 70 7722
346 70 8309
347 70 1387
348 70 197
349 70 11274
350 70 22039
352 70 4735
353 70 6512
356 70 6063
357 70 7273
363 70 11
364 70 405
366 70 8378
369 70 7169
371 70 8111
372 70 12678
375 70 5400
376 70 8032
377 70 7855
378 70 59
380 70 10406
381 70 9031
382 70 8838
383 70 9669
384 70 12139
385 70 10059
386 70 7916
387 70 8211
389 70 7515
390 70 8185
391 70 3664
392 70 261
393 70 10810
395 70 5868
399 70 8448
400 70 82
401 70 6867
402 70 10148
404 70 10935
406 70 9685
407 70 7878
408 70 6125
409 70 8512
411 70 11011
412 70 7474
413 70 9919
414 70 5715
415 70 4991
417 70 7448
418 70 11909
419 70 2092
420 70 8786
421 70 8099
423 70 7343
425 70 11947
426 70 9970
428 70 1808
430 70 14542
435 70 9234
438 70 12404
439 70 9176
441 70 5768
444 70 6234
445 70 10298
447 70 5345
453 70 10205
455 70 10399
457 70 4855
458 70 12028
460 70 10316
462 70 8649
466 70 9434
467 70 4
468 70 311
469 70 8513
470 70 11439
471 70 6649
473 70 5592
474 70 8076
476 70 5030
478 70 10687
479 70 4599
480 70 7030
486 70 15131
489 70 7794
490 70 16432
495 70 6081
499 70 7715
500 70 10448
2 71 2869
4 71 6642
13 71 5489
15 71 5957
17 71 4467
18 71 7554
22 71 9105
25 71 3050
28 71 5894
30 71 6196
31 71 4444
34 71 6287
35 71 6278
36 71 5299
37 71 4604
39 71 5875
45 71 1048
46 71 5668
47 71 7070
49 71 3877
53 71 7630
56 71 4981
58 71 5365
59 71 7121
62 71 4734
64 71 2291
66 71 6
67 71 5702
69 71 1346
72 71 7541
75 71 7653
77 71 6315
79 71 2201
80 71 5963
81 71 4899
83 71 5249
87 71 6843
89 71 6400
92 71 6628
94 71 4899
97 71 4657
100 71 3472
101 71 6052
102 71 3337
103 71 5144
104 71 6606
107 71 4154
113 71 599
114 71 4578
116 71 5417
122 71 1978
123 71 5160
126 71 559
128 71 6904
131 71 6224
132 71 5992
134 71 1040
135 71 9047
136 71 22
138 71 5365
144 71 3196
145 71 5659
146 71 8
149 71 6698
150 71 3797
152 71 5536
156 71 6667
158 71 6662
160 71 4
164 71 5686
165 71 10265
166 71 3094
167 71 870
170 71 3623
171 71 7423
173 71 5216
176 71 26
177 71 6832
179 71 4238
180 71 4828
181 71 3317
184 71 9
186 71 4888
189 71 4829
193 71 4154
194 71 5408
195 71 5441
196 71 6629
197 71 5921
198 71 184
202 71 3818
203 71 5780
204 71 179
205 71 6013
208 71 4192
216 71 5444
219 71 10816
220 71 7111
221 71 4587
223 71 2645
225 71 4428
231 71 170
232 71 71
233 71 2955
236 71 9054
241 71 9341
247 71 5894
248 71 1390
249 71 5148
251 71 6623
253 71 5297
254 71 6830
255 71 5906
256 71 5443
258 71 7223
262 71 6204
264 71 3911
265 71 5544
266 71 6793
268 71 6845
269 71 115
271 71 5935
272 71 5010
275 71 26
281 71 7354
287 71 110
289 71 5467
290 71 5566
291 71 7147
293 71 2620
295 71 7073
298 71 6460
300 71 5443
302 71 360
305 71 7761
306 71 7467
307 71 5044
309 71 5386
310 71 16323
311 71 5957
312 71 21
315 71 7173
316 71 5432
317 71 4009
319 71 4
320 71 6669
327 71 5103
331 71 7541
332 71 398
336 71 7146
348 71 4395
349 71 5424
351 71 5350
360 71 7830
361 71 7411
362 71 89
363 71 9
364 71 4652
368 71 55
369 71 6990
371 71 1182
372 71 6740
374 71 4587
375 71 6054
376 71 4844
381 71 7669
383 71 5610
385 71 6693
386 71 6999
389 71 6759
390 71 6003
393 71 10164
395 71 5129
397 71 5740
401 71 22
402 71 24
406 71 2784
409 71 2562
410 71 5181
413 71 9687
415 71 3745
416 71 1220
418 71 3787
420 71 3034
422 71 4482
423 71 7265
426 71 4552
427 71 4253
429 71 4007
430 71 4187
431 71 5287
432 71 891
434 71 6394
435 71 24
437 71 2775
438 71 3985
439 71 6289
440 71 1741
441 71 4317
443 71 1713
444 71 5004
447 71 1398
448 71 4569
449 71 1178
452 71 4206
455 71 5936
460 71 4684
462 71 6738
463 71 6354
467 71 65
469 71 5106
470 71 10141
471 71 6270
472 71 75
474 71 914
475 71 6
476 71 1406
478 71 5069
481 71 4881
482 71 5
484 71 10
486 71 5239
487 71 4203
488 71 4390
489 71 7328
490 71 7001
491 71 6256
492 71 5728
493 71 2607
496 71 4951
498 71 6124
500 71 5295
1 72 10974
2 72 194
3 72 8473
4 72 4
5 72 8839
6 72 12781
7 72 19453
8 72 16201
9 72 8829
10 72 9980
11 72 19183
12 72 16200
13 72 5
14 72 6830
15 72 20
16 72 10820
17 72 24
19 72 11578
20 72 8739
21 72 15572
22 72 76
23 72 17967
24 72 9879
25 72 362
26 72 9800
27 72 4613
28 72 163
29 72 11111
30 72 91
31 72 4
32 72 9901
33 72 10689
35 72 48
36 72 7
38 72 12933
39 72 4
40 72 24820
41 72 9988
42 72 7808
43 72 15318
44 72 11501
45 72 539
46 72 36
47 72 2
48 72 12654
49 72 19
50 72 7507
51 72 11091
52 72 3455
54 72 8523
55 72 20298
57 72 9596
58 72 62
59 72 4
60 72 10553
61 72 7884
62 72 7
63 72 8214
64 72 185
65 72 8710
66 72 14714
68 72 9343
69 72 1631
70 72 13835
71 72 13907
73 72 7294
74 72 11228
75 72 88
76 72 6002
77 72 64
78 72 12195
79 72 822
81 72 61
82 72 10984
83 72 17
84 72 6151
85 72 9816
86 72 11065
87 72 184
88 72 9767
89 72 109
90 72 8430
91 72 14959
92 72 4
93 72 27061
94 72 8
95 72 12478
96 72 9610
97 72 21
98 72 10485
99 72 5095
100 72 61
101 72 28
102 72 161
103 72 8
105 72 4598
106 72 11221
107 72 211
108 72 20779
109 72 10694
110 72 11358
111 72 7181
112 72 23262
113 72 6761
114 72 8
115 72 16547
116 72 138
117 72 7613
118 72 7667
119 72 9388
120 72 14334
121 72 34565
122 72 192
124 72 5864
125 72 9113
126 72 1674
127 72 3153
128 72 24
129 72 12265
130 72 7147
132 72 138
133 72 12029
134 72 717
135 72 31
136 72 13880
137 72 15347
138 72 149
139 72 11958
140 72 18586
141 72 5893
142 72 4562
143 72 13302
144 72 72
145 72 22
146 72 11090
147 72 6719
148 72 7363
149 72 68
150 72 60
151 72 23503
152 72 73
153 72 12088
154 72 12612
155 72 15363
156 72 120
157 72 7927
159 72 7884
160 72 13904
161 72 14626
162 72 18525
163 72 26061
164 72 81
165 72 4
166 72 108
167 72 1658
168 72 12278
169 72 12871
170 72 82
171 72 2
172 72 9289
174 72 7390
175 72 5606
176 72 6611
177 72 31
178 72 9033
179 72 26
180 72 2
181 72 105
182 72 9947
183 72 11334
184 72 14525
185 72 13929
186 72 6
187 72 14100
188 72 11148
190 72 14348
191 72 12750
192 72 12440
193 72 4
194 72 66
195 72 19
196 72 102
198 72 5852
199 72 7014
200 72 7366
201 72 9040
203 72 34
204 72 7459
205 72 61
206 72 8654
207 72 10249
208 72 16
209 72 8494
210 72 15768
211 72 5160
212 72 12456
213 72 9012
214 72 17229
215 72 12987
216 72 25
217 72 8998
218 72 8424
219 72 4
221 72 3
222 72 14871
223 72 157
224 72 10163
225 72 415
226 72 16678
227 72 13113
228 72 12871
229 72 15233
230 72 7974
231 72 11294
232 72 11733
233 72 141
234 72 6534
235 72 18029
236 72 6
237 72 16215
238 72 20558
239 72 11639
240 72 8337
241 72 31
242 72 13469
243 72 11486
244 72 10611
245 72 14555
246 72 10466
248 72 1781
249 72 6
250 72 12939
251 72 31
252 72 5671
254 72 29
255 72 7
256 72 48
257 72 16923
259 72 7216
260 72 7466
261 72 16422
262 72 30
263 72 5226
264 72 5
266 72 111
267 72 8345
268 72 170
269 72 6008
270 72 6837
272 72 143
273 72 14923
274 72 7187
275 72 11871
276 72 12787
277 72 7761
278 72 14325
279 72 13427
280 72 9706
281 72 75
282 72 9416
283 72 18468
284 72 5431
285 72 9364
286 72 9795
287 72 4410
288 72 16355
289 72 23
290 72 71
292 72 12252
293 72 59
294 72 6153
295 72 5
296 72 13413
297 72 6307
298 72 20
299 72 11164
300 72 6
301 72 12979
302 72 4349
303 72 13731
304 72 10546
305 72 3
306 72 43
308 72 8392
309 72 32
310 72 3
311 72 7
312 72 4457
313 72 5744
314 72 13502
315 72 2
316 72 22
317 72 4
318 72 14154
319 72 22475
320 72 134
321 72 8941
322 72 5091
323 72 12575
324 72 5198
325 72 8641
326 72 14367
327 72 93
328 72 7694
329 72 13706
330 72 9196
331 72 10
332 72 4412
333 72 7852
334 72 11349
335 72 17894
336 72 4
337 72 9401
338 72 7327
339 72 6310
340 72 10516
341 72 12954
342 72 13191
343 72 12262
344 72 16730
345 72 15372
346 72 14790
347 72 11008
348 72 78
349 72 470
350 72 10770
351 72 103
352 72 11016
353 72 10977
354 72 5235
355 72 6924
356 72 13765
357 72 13085
358 72 15986
359 72 8387
362 72 9064
363 72 6314
364 72 38
365 72 18855
366 72 13546
367 72 5402
368 72 5634
369 72 25
370 72 9702
371 72 3236
372 72 26
373 72 22238
374 72 77
375 72 22
376 72 206
377 72 8451
378 72 11585
379 72 12961
380 72 10624
381 72 19
382 72 12869
383 72 110
384 72 14407
385 72 68
387 72 11123
388 72 8514
389 72 52
390 72 81
391 72 9946
392 72 15118
393 72 2
394 72 24963
395 72 111
396 72 5256
398 72 29333
399 72 8767
400 72 30053
401 72 7015
402 72 12144
403 72 8455
404 72 11043
405 72 16031
406 72 917
407 72 12839
408 72 11271
409 72 202
410 72 60
411 72 10383
412 72 7838
413 72 31
414 72 9246
415 72 109
416 72 1843
417 72 10983
418 72 202
419 72 11619
420 72 343
421 72 7467
422 72 5
423 72 2
424 72 6043
425 72 19482
427 72 69
428 72 11662
429 72 129
430 72 411
431 72 32
432 72 789
433 72 8366
434 72 25
435 72 8277
436 72 13426
437 72 179
438 72 258
439 72 33
440 72 205
441 72 105
442 72 5247
443 72 636
445 72 9139
446 72 14913
447 72 1064
448 72 92
449 72 1815
450 72 15581
451 72 3127
452 72 59
453 72 14692
454 72 13009
455 72 126
456 72 8064
457 72 7757
458 72 17965
459 72 12044
460 72 111
461 72 5887
462 72 89
463 72 5
464 72 3554
465 72 6206
466 72 12632
467 72 7583
468 72 12208
469 72 29
470 72 221
472 72 11674
473 72 10751
474 72 1205
475 72 6615
476 72 1994
477 72 8941
478 72 286
479 72 9475
480 72 7431
481 72 6
482 72 30697
483 72 8455
484 72 13725
485 72 8618
486 72 222
487 72 19
488 72 8
489 72 83
490 72 6
493 72 60
494 72 9625
495 72 10335
496 72 27
497 72 7983
498 72 24
499 72 10969
500 72 78
2 73 3786
4 73 3623
10 73 198
13 73 2062
15 73 3072
17 73 2980
18 73 2385
22 73 5409
25 73 4014
28 73 2833
30 73 2421
31 73 2797
34 73 4121
35 73 2588
36 73 2433
37 73 4614
39 73 5113
45 73 1175
46 73 4310
47 73 4566
49 73 4971
53 73 2446
56 73 2143
58 73 1673
59 73 3683
62 73 2578
64 73 2133
66 73 9
67 73 2456
69 73 2372
72 73 2979
75 73 4101
77 73 4510
79 73 4032
80 73 4563
81 73 1795
83 73 2141
87 73 5151
89 73 3267
92 73 3891
94 73 3665
96 73 278
97 73 3707
100 73 2640
101 73 3841
102 73 3057
103 73 3090
104 73 3886
107 73 3386
113 73 1195
114 73 2662
116 73 4635
122 73 3347
123 73 2822
126 73 2882
128 73 4438
131 73 2195
132 73 2825
134 73 848
135 73 2969
136 73 83
138 73 3633
144 73 718
145 73 3769
149 73 3522
150 73 2499
152 73 4870
156 73 3188
158 73 4203
164 73 4974
165 73 2877
166 73 3378
167 73 836
170 73 2006
171 73 6249
173 73 4471
176 73 137
177 73 3904
179 73 4309
180 73 3039
181 73 3577
184 73 3
186 73 2351
189 73 4016
193 73 3416
194 73 2901
195 73 2515
196 73 3602
197 73 3316
198 73 195
202 73 3320
203 73 2407
204 73 93
205 73 2604
208 73 3615
216 73 4454
219 73 3060
220 73 4449
221 73 3234
223 73 2757
224 73 4
225 73 5096
231 73 774
232 73 8
233 73 4879
236 73 5285
240 73 10
241 73 2997
247 73 3930
248 73 2053
249 73 3373
251 73 3239
253 73 2736
254 73 3320
255 73 3254
256 73 2898
258 73 4231
262 73 4574
264 73 3370
265 73 6006
266 73 3163
268 73 5216
269 73 170
271 73 2025
272 73 3004
275 73 90
281 73 3726
287 73 201
289 73 4424
290 73 2760
291 73 3574
293 73 1736
295 73 3277
298 73 3062
300 73 3457
302 73 2136
305 73 3613
306 73 4052
307 73 2222
309 73 1891
310 73 5572
311 73 3156
312 73 216
315 73 2986
316 73 4047
317 73 3776
319 73 22
320 73 2802
327 73 2804
331 73 4213
332 73 2201
336 73 3295
348 73 3121
349 73 3005
351 73 2796
357 73 9
360 73 2374
361 73 2995
362 73 103
364 73 3627
369 73 4085
371 73 1858
372 73 5660
374 73 2502
375 73 2089
376 73 3089
377 73 4
380 73 63
381 73 2158
383 73 2679
385 73 2882
386 73 3929
389 73 2598
390 73 3953
393 73 5927
395 73 2502
397 73 3106
401 73 425
402 73 105
406 73 2263
409 73 5305
410 73 1963
413 73 952
415 73 1937
416 73 2024
418 73 5507
420 73 4122
422 73 2910
423 73 3445
426 73 3385
427 73 1285
429 73 2181
430 73 3033
431 73 3517
432 73 2995
434 73 3548
435 73 447
437 73 3459
438 73 3615
439 73 4646
440 73 3869
441 73 3328
443 73 2882
444 73 2373
447 73 2273
448 73 1626
449 73 2039
452 73 1837
455 73 5006
460 73 5267
462 73 3359
463 73 2469
467 73 43
469 73 2456
470 73 2477
471 73 4802
472 73 6
474 73 2386
475 73 7
476 73 2048
478 73 4348
481 73 2602
486 73 3681
487 73 4343
488 73 2539
489 73 5481
490 73 4187
491 73 3427
492 73 4062
493 73 1671
496 73 2563
498 73 2710
500 73 5736
2 74 394
4 74 3576
7 74 6
13 74 3537
15 74 3043
17 74 3404
18 74 4347
22 74 4711
25 74 74
28 74 4812
30 74 3996
31 74 3773
34 74 3538
35 74 4592
36 74 3963
37 74 2771
39 74 3127
45 74 2175
46 74 2964
47 74 2935
49 74 2936
53 74 4476
56 74 3715
58 74 4954
59 74 5826
62 74 4010
64 74 3379
66 74 52
67 74 310
69 74 6
72 74 4985
75 74 4833
77 74 2382
80 74 3280
81 74 4803
83 74 3782
87 74 4766
89 74 4392
92 74 4798
94 74 2910
97 74 3328
100 74 2906
101 74 4580
102 74 2188
103 74 4142
104 74 5050
107 74 4273
114 74 4022
116 74 607
122 74 2398
123 74 2004
128 74 4231
131 74 3257
132 74 5008
134 74 2843
135 74 3483
136 74 115
138 74 3117
144 74 3529
145 74 5381
149 74 1858
150 74 3341
152 74 5946
156 74 3364
158 74 5460
160 74 95
164 74 5983
165 74 3598
166 74 4799
167 74 2913
170 74 3176
171 74 6756
173 74 4669
176 74 164
177 74 2281
179 74 3168
180 74 5873
181 74 4244
184 74 56
186 74 3572
189 74 3130
193 74 2813
194 74 5459
195 74 3066
196 74 3464
197 74 3960
198 74 641
202 74 2894
203 74 4276
204 74 527
205 74 4365
207 74 19
208 74 4661
216 74 3961
219 74 4104
220 74 6056
221 74 2666
223 74 2470
224 74 21
225 74 288
232 74 219
233 74 3661
236 74 5329
240 74 5
241 74 3532
247 74 4121
248 74 2804
249 74 4650
251 74 2041
253 74 4126
254 74 4312
255 74 5053
256 74 5489
258 74 4841
262 74 4326
264 74 4697
265 74 4746
266 74 3386
268 74 4850
269 74 182
271 74 4579
272 74 3752
279 74 23
281 74 5127
287 74 608
289 74 3950
290 74 2731
291 74 2921
293 74 3969
295 74 7346
298 74 3940
300 74 4815
304 74 20
305 74 3786
306 74 3018
307 74 3816
309 74 3473
310 74 7516
311 74 3505
315 74 4518
316 74 3714
317 74 4263
320 74 5468
327 74 3791
331 74 5629
336 74 3488
348 74 1835
349 74 6
351 74 2933
358 74 34
360 74 3122
361 74 4631
362 74 936
363 74 26
364 74 3390
368 74 137
369 74 3982
372 74 2986
374 74 3068
375 74 4209
376 74 2546
381 74 3143
383 74 2710
385 74 6457
386 74 5078
389 74 2848
390 74 3855
393 74 5091
395 74 4201
397 74 3644
409 74 3721
410 74 2868
413 74 5502
415 74 3974
416 74 2028
418 74 87
420 74 85
422 74 2815
423 74 3575
426 74 3243
427 74 1594
429 74 2289
430 74 473
431 74 2992
432 74 1960
434 74 4057
437 74 3381
438 74 4702
439 74 4192
440 74 1137
441 74 3407
443 74 4268
444 74 4840
447 74 30
448 74 2504
449 74 1930
452 74 2573
455 74 3637
460 74 4775
462 74 6502
463 74 2061
467 74 143
469 74 2139
470 74 3742
471 74 3048
472 74 233
475 74 37
478 74 1011
481 74 3273
482 74 234
486 74 3677
487 74 3041
488 74 4221
489 74 2338
490 74 4974
491 74 4158
492 74 3922
493 74 3984
496 74 2260
498 74 3993
500 74 3278
1 75 7254
2 75 4045
3 75 13897
4 75 66
5 75 7028
6 75 9815
7 75 8075
8 75 7865
9 75 9029
10 75 7527
11 75 8086
12 75 11749
13 75 94
14 75 13067
15 75 125
16 75 11201
17 75 93
18 75 5
19 75 20202
20 75 22559
21 75 7163
22 75 84
23 75 7840
24 75 8786
25 75 5413
26 75 6740
27 75 10458
28 75 7
29 75 10302
30 75 30
31 75 68
32 75 15893
33 75 8534
34 75 143
35 75 99
36 75 165
37 75 22
38 75 4900
39 75 464
40 75 12528
41 75 8759
42 75 7698
43 75 6272
44 75 10433
45 75 142
46 75 28
47 75 79
48 75 9992
49 75 66
50 75 8786
51 75 19209
52 75 8624
53 75 4
54 75 6805
55 75 6931
56 75 71
57 75 9875
58 75 133
59 75 65
60 75 10884
61 75 8912
62 75 112
63 75 13349
64 75 123
65 75 7060
66 75 3951
67 75 3136
68 75 7314
69 75 11192
70 75 10114
71 75 13576
72 75 76
73 75 8573
74 75 11415
75 75 3
76 75 11701
77 75 156
78 75 21117
79 75 9805
80 75 27
81 75 50
82 75 17783
83 75 43
84 75 16230
85 75 12545
86 75 7647
87 75 72
88 75 17874
89 75 424
90 75 11738
91 75 7147
92 75 95
93 75 8955
94 75 18
95 75 10101
96 75 7553
97 75 60
98 75 8218
99 75 12502
100 75 333
101 75 96
102 75 134
103 75 160
104 75 9
105 75 10446
106 75 12157
107 75 212
108 75 7708
109 75 11683
110 75 8954
111 75 14037
112 75 7392
113 75 7825
114 75 66
115 75 9393
116 75 5202
117 75 11596
118 75 17589
119 75 7497
120 75 5920
121 75 7298
122 75 7
123 75 5
124 75 12409
125 75 13535
126 75 9959
127 75 4304
128 75 8
129 75 9502
130 75 13609
131 75 86
132 75 8
133 75 3224
134 75 169
135 75 166
136 75 2496
137 75 7137
138 75 112
139 75 22334
140 75 9393
141 75 5204
142 75 10403
143 75 5096
144 75 98
145 75 115
146 75 10620
147 75 10661
148 75 15863
149 75 1111
150 75 60
151 75 7611
152 75 37
153 75 3302
154 75 9186
155 75 11790
156 75 17
157 75 11894
159 75 6795
160 75 4762
161 75 7983
162 75 9357
163 75 6679
164 75 28
165 75 195
166 75 5
167 75 132
168 75 12595
169 75 9981
170 75 45
171 75 100
172 75 13897
173 75 211
174 75 7714
175 75 11826
176 75 2459
177 75 21
178 75 7302
179 75 457
180 75 108
181 75 24
182 75 8227
183 75 11469
184 75 3973
185 75 17577
186 75 24
187 75 23128
188 75 19113
189 75 22
190 75 16613
191 75 5657
192 75 13588
193 75 10
194 75 126
195 75 66
196 75 64
197 75 111
198 75 694
199 75 5341
200 75 8675
201 75 14181
202 75 3
203 75 28
204 75 1580
205 75 321
206 75 7484
207 75 7071
208 75 37
209 75 7181
210 75 15767
211 75 9754
212 75 3282
213 75 9477
214 75 8126
215 75 8450
216 75 189
217 75 8290
218 75 6713
220 75 34
221 75 25
222 75 6849
223 75 58
224 75 7502
225 75 5327
226 75 7710
227 75 10267
228 75 12809
229 75 8551
230 75 6584
231 75 9703
232 75 1973
233 75 21
234 75 9440
235 75 8865
236 75 250
237 75 2785
238 75 6140
239 75 8741
240 75 7456
241 75 106
242 75 7957
243 75 14784
244 75 12598
245 75 9264
246 75 11734
247 75 141
248 75 401
249 75 153
250 75 8281
251 75 314
252 75 3930
253 75 69
255 75 168
256 75 91
257 75 7092
258 75 10
259 75 7504
260 75 6856
261 75 11789
262 75 63
263 75 5893
264 75 129
265 75 303
266 75 26
267 75 6703
268 75 57
269 75 2906
270 75 8648
271 75 47
272 75 158
273 75 10624
274 75 8192
275 75 9406
276 75 12813
277 75 11475
278 75 6613
279 75 5313
280 75 17723
281 75 3
282 75 6303
283 75 6285
284 75 16406
285 75 25751
286 75 11350
287 75 1627
288 75 9382
289 75 196
290 75 153
292 75 9402
293 75 64
294 75 11345
295 75 21
296 75 9456
297 75 10425
298 75 105
299 75 6320
300 75 5
301 75 11479
302 75 6377
303 75 11924
304 75 7155
305 75 9
306 75 24
307 75 117
308 75 8042
309 75 94
310 75 210
311 75 106
312 75 7694
313 75 3860
314 75 7471
315 75 54
316 75 219
317 75 3
318 75 5551
319 75 9124
320 75 64
321 75 8355
322 75 25083
323 75 9328
324 75 6089
325 75 14997
326 75 16577
327 75 59
328 75 8906
329 75 24680
330 75 22003
331 75 267
332 75 6514
333 75 11573
334 75 10872
335 75 10263
336 75 4
337 75 13189
338 75 6757
339 75 14696
340 75 7118
341 75 10384
342 75 15558
343 75 22531
344 75 12627
345 75 7543
346 75 9585
347 75 7562
348 75 258
349 75 8468
350 75 10740
351 75 28
352 75 7857
353 75 7410
354 75 6111
355 75 5470
356 75 10105
357 75 10999
358 75 13156
359 75 7383
360 75 11
361 75 23
362 75 1172
363 75 6618
364 75 61
365 75 9273
366 75 6653
367 75 6164
368 75 4104
369 75 59
370 75 16794
371 75 8752
372 75 524
373 75 13616
374 75 40
375 75 73
376 75 350
377 75 7020
378 75 10418
379 75 10213
380 75 11277
381 75 273
382 75 15645
383 75 537
384 75 11650
385 75 40
386 75 70
387 75 8104
388 75 6751
389 75 194
390 75 53
391 75 11597
392 75 8662
393 75 160
394 75 7018
395 75 261
396 75 25181
398 75 9499
399 75 10469
400 75 9947
401 75 10272
402 75 9531
403 75 7349
404 75 12964
405 75 3936
406 75 12907
407 75 6890
408 75 7611
409 75 93
410 75 9
411 75 8185
412 75 12278
413 75 224
414 75 11593
415 75 98
416 75 188
417 75 9077
418 75 7041
419 75 5953
420 75 5292
421 75 9138
422 75 316
423 75 5
424 75 7872
425 75 8657
426 75 193
427 75 126
428 75 9062
429 75 15
430 75 4047
431 75 5
432 75 101
433 75 11188
434 75 3
435 75 15438
436 75 14681
437 75 24
438 75 335
439 75 72
440 75 306
441 75 24
442 75 25118
443 75 138
444 75 102
445 75 6346
446 75 11180
447 75 12850
448 75 204
449 75 161
450 75 8280
451 75 4204
452 75 201
453 75 11536
454 75 12876
455 75 107
456 75 11851
457 75 8454
458 75 9318
459 75 10285
460 75 110
461 75 15598
462 75 73
463 75 148
464 75 11486
465 75 10564
466 75 7630
467 75 2455
468 75 10789
469 75 226
470 75 467
471 75 29
472 75 1943
473 75 8786
474 75 9652
475 75 5296
476 75 14338
477 75 11499
478 75 4407
479 75 10455
480 75 8521
482 75 2611
483 75 6672
484 75 5719
485 75 7604
486 75 271
487 75 105
488 75 51
489 75 438
490 75 110
491 75 10
492 75 95
493 75 63
494 75 3388
495 75 8790
496 75 99
497 75 7857
498 75 86
499 75 10260
500 75 589
2 76 6679
4 76 11176
5 76 22
9 76 48
13 76 10306
15 76 11928
17 76 8319
18 76 9759
22 76 18114
24 76 304
25 76 4978
28 76 13805
30 76 15897
31 76 9017
34 76 13768
35 76 9947
36 76 11158
37 76 10132
39 76 9703
41 76 310
45 76 15012
46 76 16055
47 76 12169
49 76 11298
53 76 9906
56 76 12573
58 76 7850
59 76 6995
62 76 17212
64 76 14693
65 76 17
66 76 3737
67 76 8880
69 76 2707
72 76 10251
75 76 16056
77 76 11990
79 76 1029
80 76 11627
81 76 8923
83 76 9808
84 76 63
87 76 13549
89 76 8416
92 76 13946
94 76 14535
97 76 7121
100 76 14227
101 76 10068
102 76 10073
103 76 8459
104 76 15647
107 76 9908
113 76 113
114 76 10118
116 76 7469
122 76 8698
123 76 7736
126 76 379
128 76 11441
131 76 9933
132 76 13729
134 76 13253
135 76 9298
136 76 3451
138 76 18274
144 76 13601
145 76 12354
149 76 10931
150 76 8841
152 76 11230
156 76 10634
158 76 5418
160 76 3010
161 76 2
164 76 11539
165 76 12676
166 76 14398
167 76 8106
170 76 6094
171 76 14781
173 76 15194
176 76 7111
177 76 7982
179 76 12827
180 76 23308
181 76 7980
184 76 3820
186 76 15472
188 76 92
189 76 5752
191 76 52
193 76 16185
194 76 16075
195 76 10834
196 76 9802
197 76 12116
198 76 6852
202 76 21693
203 76 9553
204 76 6115
205 76 12372
207 76 833
208 76 28571
213 76 2
216 76 16465
218 76 36
219 76 8704
220 76 12604
221 76 13414
223 76 9138
224 76 1687
225 76 4979
231 76 4
232 76 5573
233 76 9660
236 76 13179
240 76 2352
241 76 9126
244 76 3
247 76 16010
248 76 9465
249 76 22455
251 76 11197
253 76 9648
254 76 10340
255 76 9325
256 76 16325
258 76 10934
262 76 9597
264 76 9095
265 76 11300
266 76 10776
268 76 13511
269 76 7342
271 76 9598
272 76 10966
279 76 1025
281 76 13573
287 76 4559
289 76 16694
290 76 10293
291 76 13017
293 76 10309
295 76 13487
298 76 11687
300 76 14752
302 76 151
304 76 762
305 76 14234
306 76 15355
307 76 12226
309 76 8495
310 76 11511
311 76 6863
315 76 15406
316 76 9328
317 76 6294
320 76 17417
327 76 10116
331 76 21217
332 76 138
335 76 4
336 76 10701
339 76 19
348 76 8213
349 76 2149
351 76 9088
358 76 1160
360 76 15805
361 76 8040
362 76 5630
363 76 1487
364 76 7015
368 76 3709
369 76 13690
371 76 312
372 76 13624
374 76 15081
375 76 11144
376 76 10617
381 76 10797
383 76 9121
385 76 10297
386 76 10832
389 76 7647
390 76 13006
393 76 9581
395 76 10100
397 76 7343
406 76 2182
409 76 7601
410 76 15552
413 76 5392
415 76 15737
416 76 12850
418 76 5093
420 76 5016
422 76 13359
423 76 10757
426 76 18156
427 76 12018
429 76 14803
430 76 6870
431 76 14420
432 76 9116
434 76 11001
435 76 6
436 76 134
437 76 10292
438 76 11206
439 76 9458
440 76 13510
441 76 10936
443 76 11898
444 76 9948
447 76 3217
448 76 12276
449 76 12969
452 76 12088
455 76 12478
459 76 542
460 76 8569
461 76 91
462 76 17631
463 76 12800
464 76 68
467 76 5491
469 76 7427
470 76 7705
471 76 11715
472 76 5428
474 76 673
475 76 4198
476 76 545
478 76 12484
481 76 12694
482 76 5013
484 76 175
486 76 8499
487 76 11429
488 76 10249
489 76 13345
490 76 12255
491 76 8252
492 76 18628
493 76 10251
496 76 9194
497 76 254
498 76 15043
500 76 14987
2 77 2775
4 77 2487
13 77 3816
15 77 5498
17 77 2925
18 77 5409
22 77 3476
24 77 37
25 77 1337
28 77 3823
30 77 4310
31 77 7863
34 77 4562
35 77 3866
36 77 4911
37 77 3184
39 77 4548
41 77 46
45 77 4817
46 77 4511
47 77 4749
49 77 3304
53 77 5578
56 77 4363
58 77 4460
59 77 6291
62 77 4778
64 77 2807
66 77 664
67 77 4366
69 77 951
72 77 3797
75 77 4400
77 77 3125
79 77 699
80 77 6536
81 77 2813
83 77 3871
87 77 2788
89 77 6984
92 77 4830
94 77 1907
97 77 3155
100 77 3490
101 77 3523
102 77 5054
103 77 2657
104 77 3700
107 77 4557
114 77 4312
116 77 3205
122 77 4116
123 77 3912
126 77 75
128 77 3195
131 77 4813
132 77 3782
134 77 4336
135 77 4673
136 77 2302
138 77 2781
144 77 3246
145 77 4587
149 77 3324
150 77 3069
152 77 4414
156 77 4119
158 77 4582
160 77 612
164 77 4403
165 77 8332
166 77 4673
167 77 3541
170 77 3581
171 77 5267
173 77 6118
176 77 2147
177 77 3680
179 77 4384
180 77 4186
181 77 4250
184 77 695
186 77 3373
189 77 3368
193 77 3580
194 77 2800
195 77 4599
196 77 2380
197 77 4744
198 77 2557
202 77 3764
203 77 2586
204 77 3986
205 77 3300
207 77 106
208 77 3870
216 77 4562
219 77 3699
220 77 4807
221 77 3770
223 77 4173
224 77 209
225 77 1993
232 77 2733
233 77 4666
236 77 5707
240 77 667
241 77 4611
244 77 3
247 77 4771
248 77 3286
249 77 2986
251 77 6344
253 77 3225
254 77 3302
255 77 5146
256 77 2948
258 77 5627
262 77 5228
264 77 3789
265 77 5508
266 77 3962
268 77 2780
269 77 4465
271 77 3742
272 77 5984
279 77 744
281 77 3775
287 77 4154
289 77 4778
290 77 3449
291 77 4012
293 77 5046
295 77 2224
298 77 5974
300 77 5044
302 77 25
304 77 102
305 77 4032
306 77 6160
307 77 3252
309 77 4766
310 77 5613
311 77 3761
315 77 3232
316 77 3300
317 77 4616
320 77 6052
321 77 7
327 77 6129
331 77 3468
332 77 19
336 77 2209
339 77 10
348 77 3014
349 77 773
351 77 3542
358 77 72
360 77 6013
361 77 2597
362 77 2441
363 77 884
364 77 3077
368 77 2934
369 77 3463
371 77 294
372 77 2817
374 77 4061
375 77 3019
376 77 5122
381 77 4678
383 77 4546
385 77 2983
386 77 6982
389 77 3393
390 77 4577
393 77 3073
395 77 2441
397 77 3683
406 77 367
409 77 3431
410 77 6417
413 77 4282
415 77 4516
416 77 2860
418 77 2535
420 77 1375
422 77 2535
423 77 2294
426 77 5220
427 77 3965
429 77 3101
430 77 6252
431 77 3793
432 77 3633
434 77 4653
437 77 3119
438 77 6491
439 77 5278
440 77 4073
441 77 5795
443 77 2559
444 77 4778
447 77 205
448 77 3648
449 77 2964
452 77 4137
455 77 7425
459 77 76
460 77 4030
461 77 7
462 77 3534
463 77 6837
467 77 2046
469 77 4764
470 77 4478
471 77 3168
472 77 2791
474 77 210
475 77 1566
476 77 413
478 77 3741
481 77 3704
482 77 2148
484 77 72
486 77 4430
487 77 4839
488 77 3870
489 77 5966
490 77 5842
491 77 5568
492 77 2886
493 77 5109
496 77 6120
497 77 52
498 77 5249
500 77 5198
2 78 1445
4 78 2621
13 78 2652
15 78 3775
17 78 1690
18 78 2712
22 78 3056
24 78 221
25 78 1846
28 78 3264
30 78 3272
31 78 2867
34 78 4038
35 78 2183
36 78 3192
37 78 2740
39 78 3027
41 78 225
45 78 3014
46 78 2648
47 78 3323
49 78 1625
51 78 1
53 78 2770
56 78 3212
58 78 4998
59 78 2472
62 78 3868
64 78 1457
66 78 1633
67 78 2374
69 78 734
72 78 2859
75 78 5816
77 78 2282
79 78 842
80 78 2502
81 78 3391
83 78 2314
84 78 2
87 78 3671
89 78 2300
92 78 2567
94 78 1945
97 78 2243
100 78 2711
101 78 3290
102 78 2557
103 78 2492
104 78 2725
107 78 2802
113 78 62
114 78 2356
116 78 2099
122 78 1170
123 78 3241
126 78 210
128 78 3011
131 78 4765
132 78 3094
134 78 2162
135 78 3808
136 78 1450
138 78 1657
144 78 1955
145 78 3382
149 78 2969
150 78 1623
152 78 2811
156 78 3231
158 78 2281
160 78 1380
161 78 47
164 78 2904
165 78 1704
166 78 1893
167 78 2301
170 78 2168
171 78 2885
173 78 2215
176 78 1878
177 78 2813
179 78 3220
180 78 2386
181 78 2242
184 78 1664
186 78 1502
188 78 40
189 78 2290
191 78 9
193 78 2121
194 78 3004
195 78 3454
196 78 2216
197 78 4160
198 78 2462
202 78 3056
203 78 2824
204 78 1691
205 78 3114
207 78 293
208 78 1122
215 78 6
216 78 1303
219 78 1381
220 78 4158
221 78 2965
222 78 13
223 78 1418
224 78 368
225 78 1497
232 78 1130
233 78 2812
236 78 2160
240 78 1272
241 78 3682
244 78 7
247 78 1878
248 78 1292
249 78 4282
251 78 3637
253 78 2063
254 78 2740
255 78 3379
256 78 2980
258 78 2896
262 78 2921
264 78 2588
265 78 4108
266 78 3284
268 78 3509
269 78 1939
271 78 1635
272 78 3342
279 78 910
281 78 2268
287 78 1602
289 78 1343
290 78 1072
291 78 2547
293 78 1302
295 78 2741
298 78 3259
300 78 2793
302 78 51
304 78 275
305 78 3429
306 78 3636
307 78 3508
309 78 2309
310 78 3798
311 78 3674
315 78 2995
316 78 2098
317 78 2984
320 78 3187
321 78 7
327 78 3003
331 78 3701
332 78 60
335 78 4
336 78 2915
339 78 4
348 78 1883
349 78 887
351 78 2126
358 78 430
360 78 3050
361 78 2112
362 78 1282
363 78 1359
364 78 2264
368 78 1398
369 78 2922
371 78 301
372 78 1468
374 78 2553
375 78 2354
376 78 2339
381 78 3475
383 78 2667
385 78 2348
386 78 3453
389 78 2874
390 78 1012
393 78 3134
395 78 3774
397 78 2667
406 78 676
409 78 2486
410 78 1118
413 78 4217
415 78 1240
416 78 1576
418 78 1098
420 78 1878
422 78 1576
423 78 2864
426 78 3514
427 78 2476
429 78 2380
430 78 2756
431 78 3499
432 78 1639
434 78 3934
436 78 97
437 78 1579
438 78 3974
439 78 2903
440 78 2235
441 78 2621
443 78 2883
444 78 3282
447 78 1102
448 78 2211
449 78 1594
452 78 2546
455 78 3727
459 78 146
460 78 4350
461 78 59
462 78 5670
463 78 3556
464 78 20
465 78 6
467 78 2336
469 78 3567
470 78 5472
471 78 3527
472 78 1148
474 78 404
475 78 899
476 78 245
478 78 5198
481 78 749
482 78 1117
484 78 237
486 78 2628
487 78 2953
488 78 1961
489 78 2254
490 78 2750
491 78 2722
492 78 2930
493 78 1307
496 78 4662
497 78 137
498 78 3891
500 78 5350
2 79 583
4 79 2741
13 79 805
15 79 791
17 79 1568
18 79 1158
22 79 1871
25 79 148
28 79 1543
30 79 1473
31 79 2280
34 79 1478
35 79 1757
36 79 1584
37 79 2282
39 79 1648
45 79 951
46 79 1516
47 79 1331
49 79 1954
53 79 1210
56 79 2793
58 79 3953
59 79 2424
62 79 1776
64 79 980
66 79 204
67 79 533
69 79 133
72 79 1706
74 79 7
75 79 2003
77 79 1163
79 79 63
80 79 1068
81 79 1510
83 79 1107
84 79 3
87 79 2900
89 79 1584
92 79 1254
94 79 2252
97 79 1576
100 79 1880
101 79 2306
102 79 1673
103 79 2074
104 79 2288
107 79 1605
114 79 1553
116 79 821
122 79 1502
123 79 2480
128 79 2292
131 79 1969
132 79 1548
134 79 1333
135 79 1186
136 79 137
138 79 1434
144 79 851
145 79 1242
149 79 1391
150 79 1005
152 79 2450
156 79 2294
158 79 2249
160 79 60
164 79 2445
165 79 2643
166 79 1274
167 79 1286
170 79 1801
171 79 2696
173 79 856
176 79 516
177 79 1274
179 79 2418
180 79 1493
181 79 1920
184 79 186
186 79 1748
189 79 1404
193 79 1376
194 79 3293
195 79 2713
196 79 2681
197 79 1894
198 79 462
200 79 4
202 79 2912
203 79 2087
204 79 396
205 79 1588
207 79 5
208 79 3337
216 79 1374
219 79 1901
220 79 1875
221 79 460
223 79 1421
225 79 283
232 79 204
233 79 1192
236 79 801
240 79 76
241 79 1173
247 79 1921
248 79 544
249 79 994
251 79 1668
253 79 1537
254 79 1796
255 79 3259
256 79 3360
258 79 2170
262 79 1252
264 79 1388
265 79 2570
266 79 2413
268 79 2958
269 79 248
271 79 2080
272 79 1656
279 79 44
281 79 1673
287 79 198
289 79 1476
290 79 398
291 79 1950
293 79 2405
295 79 2112
298 79 1546
300 79 1928
302 79 6
304 79 9
305 79 2071
306 79 1086
307 79 2029
309 79 1068
310 79 3264
311 79 2001
315 79 2993
316 79 1817
317 79 1563
320 79 1604
327 79 2061
331 79 1923
332 79 7
336 79 3489
348 79 823
349 79 27
351 79 1915
358 79 18
360 79 1482
361 79 1758
362 79 214
363 79 15
364 79 1594
368 79 140
369 79 1876
371 79 4
372 79 855
374 79 1553
375 79 2499
376 79 793
381 79 739
383 79 1376
385 79 1881
386 79 3398
389 79 1789
390 79 1851
393 79 2314
395 79 1260
397 79 1730
398 79 7
406 79 7
409 79 2232
410 79 1450
413 79 2614
415 79 2634
416 79 713
418 79 342
420 79 155
422 79 1732
423 79 3492
426 79 943
427 79 1106
429 79 1154
430 79 491
431 79 1725
432 79 1449
434 79 1209
437 79 1515
438 79 1018
439 79 1218
440 79 462
441 79 1522
443 79 1566
444 79 2760
447 79 65
448 79 1659
449 79 742
452 79 1595
455 79 3184
460 79 1081
462 79 1227
463 79 1545
467 79 166
469 79 946
470 79 2066
471 79 3138
472 79 194
474 79 8
475 79 55
476 79 6
478 79 847
481 79 2210
482 79 128
484 79 5
486 79 1320
487 79 1206
488 79 2343
489 79 1141
490 79 3472
491 79 1827
492 79 1070
493 79 2270
496 79 1475
498 79 1725
500 79 2500
2 80 3101
4 80 7173
5 80 122
9 80 43
10 80 6
13 80 6415
15 80 6344
17 80 2492
18 80 4571
22 80 5211
24 80 595
25 80 1475
28 80 4398
30 80 3833
31 80 6324
34 80 5928
35 80 5223
36 80 4981
37 80 5051
39 80 4612
41 80 567
45 80 3759
46 80 4346
47 80 5014
49 80 5505
51 80 39
53 80 4671
56 80 4593
58 80 4389
59 80 3868
62 80 3507
64 80 4657
65 80 106
66 80 1557
67 80 4124
69 80 1022
72 80 3670
75 80 6602
77 80 5940
79 80 1216
80 80 4136
81 80 6220
83 80 5683
84 80 107
87 80 3915
89 80 4672
92 80 3232
94 80 3644
96 80 22
97 80 5172
100 80 3682
101 80 4278
102 80 2519
103 80 6264
104 80 3709
107 80 6239
112 80 16
113 80 57
114 80 4159
116 80 3675
122 80 4394
123 80 3810
126 80 413
128 80 3265
131 80 5022
132 80 4491
134 80 2772
135 80 7000
136 80 2445
138 80 4212
144 80 3032
145 80 6164
149 80 6095
150 80 8194
152 80 7198
156 80 4658
158 80 7085
160 80 1168
161 80 119
164 80 7366
165 80 4669
166 80 4103
167 80 3800
170 80 4856
171 80 8216
173 80 6245
176 80 2210
177 80 5395
179 80 4989
180 80 3307
181 80 4791
184 80 1605
186 80 4221
188 80 117
189 80 6532
191 80 105
193 80 3382
194 80 4651
195 80 4410
196 80 6689
197 80 8237
198 80 2531
202 80 5560
203 80 3470
204 80 3074
205 80 5379
207 80 622
208 80 2550
213 80 50
216 80 6099
218 80 80
219 80 6485
220 80 5972
221 80 6497
223 80 5146
224 80 433
225 80 2799
231 80 20
232 80 2043
233 80 6854
236 80 7975
240 80 1641
241 80 7088
243 80 20
244 80 35
247 80 4355
248 80 2692
249 80 3949
251 80 6370
252 80 19
253 80 4398
254 80 6428
255 80 4725
256 80 4641
258 80 4563
262 80 4007
264 80 6191
265 80 3776
266 80 4752
268 80 3955
269 80 1527
271 80 4909
272 80 4939
279 80 1245
281 80 3623
286 80 11
287 80 1973
289 80 5956
290 80 3107
291 80 4518
293 80 5742
295 80 4558
298 80 6074
300 80 5667
302 80 269
304 80 564
305 80 8162
306 80 4122
307 80 5373
309 80 3896
310 80 5170
311 80 3357
312 80 15
313 80 14
315 80 3644
316 80 4168
317 80 7726
320 80 7765
321 80 117
327 80 4133
331 80 5468
332 80 308
335 80 68
336 80 5168
339 80 93
348 80 7685
349 80 1067
351 80 3964
358 80 628
360 80 4600
361 80 4792
362 80 2871
363 80 1761
364 80 5110
368 80 2056
369 80 6940
371 80 608
372 80 2821
374 80 6058
375 80 5511
376 80 3158
381 80 6786
383 80 4563
385 80 6339
386 80 6196
389 80 4744
390 80 3532
393 80 6074
395 80 3675
397 80 4236
405 80 7
406 80 810
409 80 5984
410 80 4797
413 80 4402
415 80 6159
416 80 3515
417 80 23
418 80 2208
420 80 1411
422 80 6431
423 80 5147
426 80 5147
427 80 3371
429 80 4384
430 80 3517
431 80 6185
432 80 3118
434 80 6810
435 80 19
436 80 417
437 80 4373
438 80 5823
439 80 4161
440 80 2899
441 80 3786
443 80 3492
444 80 3569
447 80 389
448 80 4132
449 80 3580
452 80 4883
455 80 3424
459 80 712
460 80 5961
461 80 107
462 80 5643
463 80 4303
464 80 92
467 80 3032
469 80 4553
470 80 5116
471 80 8271
472 80 2070
474 80 1109
475 80 1722
476 80 364
477 80 19
478 80 4967
481 80 4707
482 80 2224
484 80 503
486 80 4910
487 80 4222
488 80 4787
489 80 4805
490 80 4772
491 80 4029
492 80 5357
493 80 5799
496 80 7315
497 80 729
498 80 5488
500 80 9592
1 81 4206
2 81 5392
3 81 2195
4 81 3949
5 81 3073
6 81 1759
7 81 4078
8 81 2583
9 81 3557
10 81 5803
11 81 3531
12 81 3362
13 81 3046
14 81 2405
15 81 2311
16 81 3385
17 81 2037
18 81 4751
19 81 2441
20 81 3087
21 81 2332
22 81 4279
23 81 2184
24 81 2913
25 81 4051
26 81 3357
27 81 1193
28 81 1792
29 81 1774
30 81 3080
31 81 2796
32 81 2734
33 81 3747
34 81 3840
35 81 3072
36 81 4133
37 81 5335
38 81 2461
39 81 3998
40 81 3290
41 81 2989
42 81 1704
43 81 4246
44 81 2199
45 81 1421
46 81 5437
47 81 5297
48 81 1712
49 81 1987
50 81 1816
51 81 1918
52 81 1133
53 81 4883
54 81 1022
55 81 4386
56 81 2274
57 81 2197
58 81 3924
59 81 4515
60 81 2864
61 81 1829
62 81 2644
63 81 2098
64 81 4018
65 81 3099
66 81 3527
67 81 2175
68 81 4178
69 81 3955
70 81 1060
71 81 3938
72 81 2869
73 81 3473
74 81 3320
75 81 4288
76 81 2015
77 81 4515
78 81 2473
79 81 3585
80 81 4296
81 81 4870
82 81 3906
83 81 3706
84 81 2183
85 81 3377
86 81 2107
87 81 4744
88 81 2825
89 81 3128
90 81 2136
91 81 5624
92 81 2771
93 81 3224
94 81 2841
95 81 1681
96 81 4686
97 81 4115
98 81 4594
99 81 3158
100 81 3899
101 81 3167
102 81 2850
103 81 2181
104 81 3176
105 81 1191
106 81 2105
107 81 3960
108 81 3678
109 81 1993
110 81 2836
111 81 1722
112 81 1924
113 81 4005
114 81 2596
115 81 4274
116 81 5103
117 81 1877
118 81 2273
119 81 2213
120 81 4512
121 81 1392
122 81 2945
123 81 4397
124 81 2728
125 81 1878
126 81 2694
127 81 928
128 81 3632
129 81 2779
130 81 2940
131 81 2379
132 81 1905
133 81 2027
134 81 2852
135 81 2400
136 81 3579
137 81 3136
138 81 2509
139 81 3398
140 81 1564
141 81 3403
142 81 1193
143 81 2560
144 81 2590
145 81 2421
146 81 4464
147 81 2737
148 81 2556
149 81 5199
150 81 1959
151 81 2203
152 81 6494
153 81 1917
154 81 3308
155 81 2687
156 81 2848
157 81 2885
158 81 4938
159 81 1451
160 81 1819
161 81 2328
162 81 1653
163 81 3197
164 81 6724
165 81 2975
166 81 4187
167 81 2679
168 81 3194
169 81 1660
170 81 2454
171 81 4054
172 81 2214
173 81 3726
174 81 3054
175 81 3415
176 81 2282
177 81 4212
178 81 4377
179 81 4371
180 81 5701
181 81 3528
182 81 1768
183 81 5631
184 81 3623
185 81 2394
186 81 2077
187 81 3513
188 81 2133
189 81 3076
190 81 1615
191 81 1310
192 81 3587
193 81 3582
194 81 3478
195 81 2281
196 81 6016
197 81 5065
198 81 1570
199 81 2941
200 81 2863
201 81 2232
202 81 2686
203 81 5004
204 81 1705
205 81 4769
206 81 2298
207 81 2923
208 81 4144
209 81 2310
210 81 2422
211 81 3583
212 81 1101
213 81 3340
214 81 2664
215 81 2969
216 81 3379
217 81 2776
218 81 3058
219 81 3476
220 81 4483
221 81 2603
222 81 1480
223 81 2602
224 81 2008
225 81 2972
226 81 1767
227 81 1714
228 81 1584
229 81 2211
230 81 5305
231 81 2856
232 81 1589
233 81 3579
234 81 2292
235 81 2957
236 81 4018
237 81 1738
238 81 2666
239 81 4268
240 81 3734
241 81 2376
242 81 3764
243 81 1665
244 81 1676
245 81 3321
246 81 2436
247 81 3601
248 81 4060
249 81 2857
250 81 3240
251 81 3433
252 81 2458
253 81 3891
254 81 2951
255 81 6664
256 81 3468
257 81 4410
258 81 1646
259 81 4397
260 81 2728
261 81 2957
262 81 3215
263 81 1312
264 81 4227
265 81 6007
266 81 2940
267 81 5210
268 81 4821
269 81 3126
270 81 1433
271 81 2663
272 81 5087
273 81 3984
274 81 3010
275 81 4396
276 81 1620
277 81 1838
278 81 2610
279 81 1882
280 81 2849
281 81 2842
282 81 2303
283 81 3985
284 81 4020
285 81 1964
286 81 3337
287 81 3513
288 81 4361
289 81 3286
290 81 1855
291 81 3458
292 81 3401
293 81 4369
294 81 4516
295 81 4737
296 81 3774
297 81 1938
298 81 3656
299 81 3466
300 81 4352
301 81 1390
302 81 5052
303 81 4227
304 81 3096
305 81 3097
306 81 3126
307 81 3124
308 81 3582
309 81 4277
310 81 5455
311 81 3672
312 81 2868
313 81 2433
314 81 3139
315 81 1988
316 81 5084
317 81 3140
318 81 2969
319 81 2248
320 81 5388
321 81 2420
322 81 1315
323 81 3307
324 81 1376
325 81 1783
326 81 1588
327 81 4597
328 81 1795
329 81 1350
330 81 2845
331 81 5547
332 81 5147
333 81 1832
334 81 3052
335 81 1650
336 81 3747
337 81 4193
338 81 3825
339 81 2571
340 81 3577
341 81 1800
342 81 1944
343 81 3467
344 81 5943
345 81 2787
346 81 4569
347 81 4631
348 81 4904
349 81 8152
350 81 3588
351 81 3216
352 81 3971
353 81 2314
354 81 1368
355 81 2939
356 81 2142
357 81 2763
358 81 2364
359 81 2233
360 81 3067
361 81 5142
362 81 2399
363 81 1426
364 81 4244
365 81 1707
366 81 3160
367 81 1432
368 81 3562
369 81 4982
370 81 2337
371 81 5287
372 81 2135
373 81 2706
374 81 4352
375 81 3794
376 81 4724
377 81 3939
378 81 3634
379 81 1707
380 81 2649
381 81 3188
382 81 2895
383 81 1969
384 81 3314
385 81 5419
386 81 3097
387 81 2436
388 81 1053
389 81 3034
390 81 2903
391 81 2532
392 81 2770
393 81 5058
394 81 2035
395 81 2713
396 81 1360
397 81 4415
398 81 1940
399 81 3973
400 81 2186
401 81 4164
402 81 4431
403 81 2269
404 81 3245
405 81 2019
406 81 4546
407 81 4287
408 81 2108
409 81 5100
410 81 3484
411 81 1923
412 81 3129
413 81 5950
414 81 3044
415 81 3863
416 81 2750
417 81 3640
418 81 5723
419 81 2943
420 81 4092
421 81 4368
422 81 3224
423 81 3917
424 81 2247
425 81 3390
426 81 2692
427 81 1738
428 81 3868
429 81 1557
430 81 6441
431 81 3283
432 81 3387
433 81 2742
434 81 2633
435 81 2882
436 81 1590
437 81 3017
438 81 3495
439 81 3052
440 81 4385
441 81 5457
442 81 1430
443 81 1680
444 81 5609
445 81 3639
446 81 3560
447 81 2928
448 81 4980
449 81 2672
450 81 2518
451 81 982
452 81 4581
453 81 2595
454 81 2211
455 81 3004
456 81 2996
457 81 2278
458 81 2462
459 81 2042
460 81 4240
461 81 3342
462 81 3127
463 81 3645
464 81 2099
465 81 2696
466 81 3099
467 81 1683
468 81 4254
469 81 4565
470 81 3913
471 81 4618
472 81 1611
473 81 4185
474 81 4060
475 81 2098
476 81 4799
477 81 1968
478 81 2851
479 81 2873
480 81 3617
481 81 3770
482 81 2769
483 81 1042
484 81 2347
485 81 3044
486 81 3981
487 81 5377
488 81 2902
489 81 3245
490 81 3050
491 81 2698
492 81 3356
493 81 4532
494 81 2034
495 81 2205
496 81 4195
497 81 2408
498 81 4343
499 81 3965
500 81 4203
1 82 3160
2 82 3806
3 82 2130
4 82 4718
5 82 2221
6 82 876
7 82 2137
8 82 3697
9 82 1564
10 82 3541
11 82 3987
12 82 4112
13 82 4649
14 82 1343
15 82 3761
16 82 1890
17 82 2845
18 82 2798
19 82 1775
20 82 2916
21 82 2903
22 82 5111
23 82 1293
24 82 2521
25 82 843
26 82 2899
27 82 768
28 82 2223
29 82 2689
30 82 2106
31 82 2835
32 82 3923
33 82 1944
34 82 2949
35 82 2780
36 82 1687
37 82 2489
38 82 2030
39 82 1967
40 82 2176
41 82 2460
42 82 2815
43 82 4446
44 82 1473
45 82 2434
46 82 2822
47 82 2791
48 82 860
49 82 2757
50 82 1464
51 82 1278
52 82 1423
53 82 2761
54 82 2102
55 82 1928
56 82 4342
57 82 4570
58 82 3754
59 82 2276
60 82 3048
61 82 2259
62 82 2805
63 82 3989
64 82 2305
65 82 2167
66 82 3143
67 82 3949
68 82 2045
69 82 2495
70 82 2733
71 82 3609
72 82 2484
73 82 2304
74 82 2627
75 82 5153
76 82 1633
77 82 2270
78 82 2895
79 82 2498
80 82 4381
81 82 3559
82 82 4516
83 82 2319
84 82 2198
85 82 3239
86 82 2105
87 82 3688
88 82 2522
89 82 3505
90 82 2140
91 82 2356
92 82 1304
93 82 2079
94 82 2059
95 82 805
96 82 3139
97 82 2578
98 82 1706
99 82 2693
100 82 3790
101 82 2063
102 82 2624
103 82 3493
104 82 4544
105 82 710
106 82 2705
107 82 3602
108 82 2276
109 82 1929
110 82 2637
111 82 2095
112 82 1884
113 82 3971
114 82 2676
115 82 3967
116 82 6171
117 82 1196
118 82 3220
119 82 3677
120 82 3054
121 82 1480
122 82 2750
123 82 2285
124 82 4075
125 82 1610
126 82 3503
127 82 1502
128 82 3945
129 82 3290
130 82 4591
131 82 3739
132 82 2276
133 82 2245
134 82 2288
135 82 2163
136 82 1917
137 82 2801
138 82 1957
139 82 2426
140 82 1412
141 82 1687
142 82 723
143 82 2090
144 82 2385
145 82 3644
146 82 1825
147 82 3567
148 82 1916
149 82 5589
150 82 1964
151 82 2322
152 82 3007
153 82 2300
154 82 4177
155 82 2497
156 82 3918
157 82 1708
158 82 3611
159 82 2228
160 82 1774
161 82 2040
162 82 1447
163 82 1828
164 82 3028
165 82 3639
166 82 4872
167 82 2513
168 82 3475
169 82 856
170 82 1514
171 82 6524
172 82 3273
173 82 4304
174 82 2552
175 82 2072
176 82 1187
177 82 3655
178 82 4315
179 82 2924
180 82 2527
181 82 1874
182 82 2285
183 82 3795
184 82 3200
185 82 2244
186 82 2201
187 82 3013
188 82 2503
189 82 4041
190 82 2104
191 82 2487
192 82 2600
193 82 3394
194 82 3537
195 82 2883
196 82 2926
197 82 2537
198 82 2362
199 82 3404
200 82 4285
201 82 3362
202 82 1115
203 82 1734
204 82 1853
205 82 2104
206 82 2683
207 82 2243
208 82 1637
209 82 2748
210 82 2063
211 82 2590
212 82 939
213 82 1793
214 82 3261
215 82 1423
216 82 4048
217 82 3540
218 82 2679
219 82 1615
220 82 2720
221 82 3043
222 82 1462
223 82 1835
224 82 1639
225 82 3341
226 82 2066
227 82 830
228 82 3915
229 82 2460
230 82 2195
231 82 2312
232 82 1379
233 82 2673
234 82 4255
235 82 2769
236 82 4712
237 82 1187
238 82 1766
239 82 3066
240 82 1590
241 82 2143
242 82 3110
243 82 2566
244 82 2590
245 82 2879
246 82 2123
247 82 5518
248 82 2618
249 82 2424
250 82 3469
251 82 4118
252 82 1526
253 82 1754
254 82 2806
255 82 2714
256 82 3461
257 82 2388
258 82 1823
259 82 1770
260 82 2289
261 82 2886
262 82 1313
263 82 996
264 82 3585
265 82 3826
266 82 3922
267 82 3240
268 82 3706
269 82 2031
270 82 2067
271 82 2657
272 82 2085
273 82 3428
274 82 2268
275 82 2523
276 82 3912
277 82 1335
278 82 1919
279 82 1062
280 82 2478
281 82 5765
282 82 2839
283 82 3172
284 82 4155
285 82 1554
286 82 2698
287 82 2063
288 82 3945
289 82 3972
290 82 4091
291 82 2546
292 82 709
293 82 4396
294 82 3243
295 82 3886
296 82 3221
297 82 1552
298 82 4515
299 82 2434
300 82 2376
301 82 3367
302 82 1907
303 82 2909
304 82 2213
305 82 2232
306 82 3754
307 82 1761
308 82 1530
309 82 1860
310 82 2830
311 82 2690
312 82 3364
313 82 1512
314 82 2532
315 82 2542
316 82 2980
317 82 3350
318 82 1039
319 82 3776
320 82 3919
321 82 934
322 82 1179
323 82 4286
324 82 1006
325 82 2108
326 82 2086
327 82 4872
328 82 1558
329 82 1817
330 82 2674
331 82 5187
332 82 1890
333 82 1270
334 82 3053
335 82 2295
336 82 3349
337 82 2724
338 82 3147
339 82 2889
340 82 2325
341 82 846
342 82 959
343 82 2314
344 82 3332
345 82 2923
346 82 2565
347 82 1922
348 82 2719
349 82 4235
350 82 4310
351 82 1472
352 82 2801
353 82 3617
354 82 1031
355 82 3488
356 82 1487
357 82 2230
358 82 1875
359 82 2679
360 82 2703
361 82 3346
362 82 1674
363 82 2883
364 82 2405
365 82 1416
366 82 2739
367 82 1102
368 82 1959
369 82 3567
370 82 2305
371 82 2151
372 82 3042
373 82 972
374 82 1840
375 82 2143
376 82 2757
377 82 2605
378 82 1817
379 82 854
380 82 2218
381 82 2902
382 82 2064
383 82 3883
384 82 4656
385 82 2476
386 82 5324
387 82 2773
388 82 2047
389 82 3716
390 82 4116
391 82 1378
392 82 2634
393 82 3068
394 82 1154
395 82 3569
396 82 1217
397 82 3530
398 82 1643
399 82 2557
400 82 3382
401 82 4624
402 82 2442
403 82 2664
404 82 2215
405 82 1671
406 82 2307
407 82 2198
408 82 2131
409 82 3768
410 82 2107
411 82 3878
412 82 2381
413 82 2534
414 82 5504
415 82 2403
416 82 2288
417 82 2958
418 82 2884
419 82 1142
420 82 839
421 82 2194
422 82 2782
423 82 3320
424 82 1130
425 82 1835
426 82 3701
427 82 2863
428 82 2749
429 82 2569
430 82 3157
431 82 1776
432 82 2269
433 82 1689
434 82 1611
435 82 3279
436 82 1146
437 82 2642
438 82 2574
439 82 1336
440 82 3812
441 82 2386
442 82 1260
443 82 2143
444 82 2852
445 82 1687
446 82 2307
447 82 2768
448 82 3123
449 82 2210
450 82 1615
451 82 1496
452 82 2605
453 82 1615
454 82 3147
455 82 2124
456 82 1669
457 82 1475
458 82 1948
459 82 1683
460 82 3430
461 82 1825
462 82 5090
463 82 2189
464 82 2530
465 82 2677
466 82 2336
467 82 1667
468 82 3020
469 82 2147
470 82 4178
471 82 3553
472 82 1417
473 82 2641
474 82 2672
475 82 2404
476 82 4725
477 82 2335
478 82 1988
479 82 1708
480 82 2373
481 82 2520
482 82 2440
483 82 2102
484 82 1717
485 82 2012
486 82 1784
487 82 2815
488 82 2818
489 82 3086
490 82 3382
491 82 2239
492 82 3456
493 82 4382
494 82 1755
495 82 3547
496 82 4849
497 82 2444
498 82 3513
499 82 1619
500 82 4416
1 83 3236
2 83 5783
3 83 3865
4 83 5154
5 83 3203
6 83 1871
7 83 4598
8 83 4425
9 83 5464
10 83 5781
11 83 5041
12 83 3446
13 83 5904
14 83 4068
15 83 5638
16 83 5699
17 83 5274
18 83 4550
19 83 2351
20 83 4505
21 83 4084
22 83 4808
23 83 1661
24 83 3861
25 83 5230
26 83 4749
27 83 1952
28 83 6142
29 83 5971
30 83 4565
31 83 5753
32 83 4137
33 83 4167
34 83 4854
35 83 5633
36 83 5379
37 83 5735
38 83 2092
39 83 4264
40 83 4672
41 83 3926
42 83 3264
43 83 5286
44 83 3847
45 83 4345
46 83 5081
47 83 3882
48 83 1843
49 83 3185
50 83 2134
51 83 3344
52 83 2588
53 83 4418
54 83 5548
55 83 3209
56 83 4121
57 83 5620
58 83 4189
59 83 4272
60 83 4241
61 83 3566
62 83 6554
63 83 5477
64 83 3393
65 83 3225
66 83 5535
67 83 5967
68 83 3967
69 83 5640
70 83 3781
71 83 4941
72 83 5406
73 83 5833
74 83 4475
75 83 7400
76 83 2977
77 83 6734
78 83 6235
79 83 5965
80 83 3648
81 83 4627
82 83 5427
83 83 4026
84 83 2604
85 83 4714
86 83 4869
87 83 5327
88 83 5443
89 83 6477
90 83 4944
91 83 4346
92 83 5696
93 83 5188
94 83 4976
95 83 1720
96 83 9607
97 83 5876
98 83 4887
99 83 5509
100 83 5736
101 83 6246
102 83 6081
103 83 3773
104 83 6424
105 83 2059
106 83 4822
107 83 5169
108 83 4634
109 83 4907
110 83 4198
111 83 4978
112 83 3423
113 83 5386
114 83 4973
115 83 4729
116 83 8690
117 83 2668
118 83 3843
119 83 2947
120 83 5085
121 83 2345
122 83 3699
123 83 4000
124 83 3899
125 83 4638
126 83 4792
127 83 3069
128 83 5163
129 83 4080
130 83 4775
131 83 4820
132 83 5947
133 83 2109
134 83 3704
135 83 2963
136 83 3574
137 83 4390
138 83 2614
139 83 3824
140 83 3446
141 83 6069
142 83 1981
143 83 2085
144 83 2221
145 83 5334
146 83 5323
147 83 4607
148 83 5003
149 83 6351
150 83 3470
151 83 3937
152 83 7343
153 83 2151
154 83 3296
155 83 5698
156 83 5250
157 83 1603
158 83 3908
159 83 6966
160 83 3727
161 83 3988
162 83 3508
163 83 2886
164 83 7595
165 83 6562
166 83 4510
167 83 3552
168 83 4202
169 83 1966
170 83 5371
171 83 6836
172 83 4831
173 83 6390
174 83 4170
175 83 7179
176 83 4820
177 83 3637
178 83 5207
179 83 7805
180 83 5080
181 83 4877
182 83 3421
183 83 8068
184 83 5556
185 83 3212
186 83 3155
187 83 2994
188 83 3388
189 83 5051
190 83 1320
191 83 3264
192 83 5573
193 83 4080
194 83 5228
195 83 7047
196 83 4734
197 83 5847
198 83 3829
199 83 2235
200 83 4512
201 83 4599
202 83 4096
203 83 3912
204 83 4069
205 83 7524
206 83 2402
207 83 3332
208 83 2843
209 83 2515
210 83 1762
211 83 4594
212 83 2093
213 83 5118
214 83 6968
215 83 4878
216 83 4961
217 83 2869
218 83 2885
219 83 2799
220 83 8654
221 83 3956
222 83 3199
223 83 3347
224 83 2480
225 83 4990
226 83 3483
227 83 1876
228 83 3004
229 83 3980
230 83 4200
231 83 4494
232 83 5046
233 83 6280
234 83 3531
235 83 5476
236 83 8719
237 83 2876
238 83 2953
239 83 5165
240 83 2925
241 83 2991
242 83 3771
243 83 3174
244 83 2377
245 83 5872
246 83 6058
247 83 8061
248 83 5146
249 83 4648
250 83 4506
251 83 5078
252 83 1703
253 83 4616
254 83 5611
255 83 8893
256 83 5308
257 83 2731
258 83 4673
259 83 4177
260 83 3284
261 83 4141
262 83 5234
263 83 2296
264 83 4350
265 83 4458
266 83 5188
267 83 5271
268 83 5343
269 83 4462
270 83 2363
271 83 3437
272 83 5283
273 83 4552
274 83 4784
275 83 5040
276 83 2935
277 83 2524
278 83 4327
279 83 2265
280 83 5298
281 83 5834
282 83 6129
283 83 2408
284 83 2357
285 83 4220
286 83 2740
287 83 3800
288 83 4584
289 83 5043
290 83 2834
291 83 5251
292 83 4416
293 83 5428
294 83 7835
295 83 5359
296 83 5175
297 83 2930
298 83 10158
299 83 4000
300 83 4376
301 83 7702
302 83 7001
303 83 5589
304 83 3365
305 83 7759
306 83 4993
307 83 5074
308 83 3830
309 83 5436
310 83 8886
311 83 4943
312 83 4111
313 83 1766
314 83 6894
315 83 7148
316 83 6750
317 83 6883
318 83 1922
319 83 4931
320 83 6581
321 83 1857
322 83 3349
323 83 3329
324 83 2268
325 83 3894
326 83 1327
327 83 3890
328 83 2166
329 83 3380
330 83 5682
331 83 4568
332 83 6951
333 83 2627
334 83 3854
335 83 2829
336 83 4762
337 83 4301
338 83 2494
339 83 4115
340 83 4635
341 83 1885
342 83 5069
343 83 3783
344 83 5074
345 83 4222
346 83 5222
347 83 5761
348 83 4289
349 83 8655
350 83 6914
351 83 3004
352 83 6127
353 83 4512
354 83 2305
355 83 2156
356 83 3604
357 83 6444
358 83 4374
359 83 2447
360 83 6165
361 83 4297
362 83 2897
363 83 3394
364 83 5740
365 83 3458
366 83 3020
367 83 2334
368 83 3780
369 83 6969
370 83 2688
371 83 6534
372 83 5640
373 83 3480
374 83 4039
375 83 6064
376 83 4299
377 83 3733
378 83 3713
379 83 1954
380 83 5652
381 83 5077
382 83 4743
383 83 5703
384 83 5214
385 83 4739
386 83 5343
387 83 5323
388 83 5651
389 83 5941
390 83 6839
391 83 3629
392 83 5616
393 83 5852
394 83 3438
395 83 6714
396 83 3373
397 83 5065
398 83 2607
399 83 5624
400 83 3924
401 83 4037
402 83 5132
403 83 2490
404 83 4815
405 83 6951
406 83 3913
407 83 4326
408 83 4899
409 83 3948
410 83 4955
411 83 4214
412 83 6861
413 83 5829
414 83 4527
415 83 6213
416 83 2743
417 83 3857
418 83 5792
419 83 2869
420 83 5127
421 83 4683
422 83 4981
423 83 4728
424 83 1697
425 83 5321
426 83 5252
427 83 2880
428 83 3735
429 83 4402
430 83 5482
431 83 4872
432 83 6180
433 83 3253
434 83 4776
435 83 7420
436 83 5030
437 83 2863
438 83 7632
439 83 5086
440 83 3024
441 83 3150
442 83 3340
443 83 9386
444 83 9318
445 83 4329
446 83 3815
447 83 4189
448 83 4868
449 83 2720
450 83 4663
451 83 3135
452 83 4109
453 83 4728
454 83 2780
455 83 7731
456 83 1651
457 83 5301
458 83 4936
459 83 2683
460 83 6120
461 83 4366
462 83 7272
463 83 5012
464 83 3956
465 83 3729
466 83 4768
467 83 2495
468 83 5793
469 83 6695
470 83 6806
471 83 6596
472 83 4989
473 83 4871
474 83 5025
475 83 4081
476 83 7607
477 83 3852
478 83 6271
479 83 3121
480 83 5756
481 83 6416
482 83 3200
483 83 5621
484 83 3964
485 83 4738
486 83 7196
487 83 4327
488 83 4549
489 83 5594
490 83 5216
491 83 4458
492 83 3741
493 83 5280
494 83 1415
495 83 4683
496 83 3993
497 83 3959
498 83 3657
499 83 4789
500 83 7602
1 84 3449
2 84 2275
3 84 3103
5 84 1986
7 84 3365
8 84 2688
9 84 2419
10 84 4287
11 84 4755
12 84 3993
14 84 2206
16 84 2953
19 84 2918
20 84 2858
21 84 3121
24 84 2379
25 84 4044
26 84 4097
29 84 2654
31 84 8
32 84 2361
33 84 3993
35 84 21
39 84 7
40 84 3755
41 84 2244
42 84 4
43 84 2775
44 84 2652
51 84 2363
55 84 3817
57 84 4549
60 84 3196
61 84 3127
63 84 2651
65 84 1919
66 84 9
67 84 747
68 84 3542
69 84 4310
70 84 3645
71 84 2566
73 84 5373
74 84 2084
76 84 18
78 84 2576
79 84 3366
82 84 3375
84 84 1848
85 84 4892
86 84 3868
88 84 2525
89 84 297
90 84 4418
91 84 3628
93 84 3538
96 84 5841
98 84 2127
99 84 2412
106 84 2928
108 84 3333
109 84 1815
110 84 3880
111 84 3375
112 84 2571
113 84 3739
114 84 3
115 84 2864
116 84 6794
118 84 2905
119 84 2096
120 84 3989
121 84 2137
124 84 4023
125 84 2742
126 84 4700
127 84 2247
129 84 5030
130 84 4907
134 84 5
136 84 48
137 84 1712
139 84 3704
141 84 4505
146 84 3702
147 84 4365
148 84 3567
149 84 1372
151 84 3445
152 84 6
154 84 4375
155 84 2132
156 84 9
158 84 5
159 84 2042
160 84 82
161 84 1605
163 84 1589
164 84 3
165 84 7
168 84 2731
171 84 2
172 84 3420
173 84 288
174 84 4050
175 84 3532
177 84 5
178 84 3874
179 84 122
182 84 4130
183 84 3504
184 84 3
185 84 5355
187 84 4087
188 84 3042
191 84 1648
192 84 2848
199 84 3534
200 84 2959
201 84 3313
205 84 7
207 84 1203
211 84 3191
213 84 4685
214 84 4336
215 84 4764
217 84 4303
218 84 3224
221 84 119
222 84 103
224 84 991
225 84 6242
226 84 3300
228 84 4093
229 84 3860
230 84 3055
231 84 5664
232 84 89
234 84 3474
235 84 2294
238 84 1683
239 84 3157
240 84 146
242 84 1528
243 84 2540
244 84 1729
245 84 4868
246 84 2345
250 84 3997
251 84 11
255 84 20
257 84 3886
258 84 5
259 84 3485
260 84 4246
261 84 1490
266 84 4
267 84 3513
270 84 1720
272 84 10
273 84 3083
274 84 3296
275 84 3275
276 84 4115
278 84 4547
279 84 158
280 84 2485
282 84 3846
283 84 3214
284 84 2564
285 84 2769
286 84 1946
288 84 2856
292 84 36
294 84 4073
296 84 3319
297 84 3099
298 84 7
299 84 3285
301 84 3335
302 84 3599
303 84 3897
304 84 1177
307 84 6
308 84 4034
310 84 32
312 84 3969
314 84 4569
319 84 4442
321 84 1200
323 84 4434
325 84 4002
330 84 3012
332 84 3595
334 84 3463
335 84 2786
337 84 3149
338 84 4609
339 84 2485
340 84 3815
342 84 2757
343 84 3655
344 84 2625
345 84 2896
346 84 2397
347 84 1809
349 84 3549
350 84 4398
352 84 3857
353 84 3825
355 84 3485
356 84 3110
357 84 1858
358 84 968
362 84 9
363 84 137
366 84 2631
368 84 9
370 84 384
371 84 4449
372 84 6
373 84 43
375 84 2
376 84 203
377 84 2820
378 84 2416
380 84 1964
382 84 5663
383 84 174
384 84 4788
385 84 11
387 84 1749
389 84 8
391 84 5277
392 84 3871
393 84 192
395 84 8
398 84 3598
399 84 3261
400 84 2380
401 84 3146
402 84 3232
404 84 3904
405 84 2853
406 84 5648
407 84 2463
408 84 3842
409 84 12
411 84 5887
412 84 2081
414 84 3089
417 84 2663
418 84 4660
419 84 2747
420 84 3972
421 84 2540
425 84 3162
426 84 76
428 84 3128
430 84 1242
433 84 2584
435 84 5689
436 84 1551
438 84 268
440 84 4
441 84 4
445 84 2915
446 84 3541
447 84 3973
450 84 1819
451 84 2194
453 84 2706
454 84 3227
455 84 22
457 84 3053
458 84 2771
459 84 1000
461 84 1995
463 84 5
464 84 1916
465 84 1882
466 84 2933
467 84 19
468 84 4210
470 84 2997
472 84 97
473 84 4044
474 84 3673
475 84 103
476 84 3051
477 84 2629
478 84 1532
479 84 2965
480 84 5402
484 84 757
485 84 2126
489 84 298
494 84 2
495 84 3218
496 84 3
497 84 1526
499 84 2549
500 84 287
1 85 3163
2 85 3803
3 85 3143
4 85 5
5 85 1561
7 85 1889
8 85 2060
9 85 1788
10 85 1419
11 85 3943
12 85 2114
13 85 9
14 85 1939
15 85 32
16 85 2321
17 85 29
19 85 2048
20 85 2205
21 85 2812
22 85 133
24 85 1704
25 85 4093
26 85 1997
28 85 77
29 85 2319
30 85 102
31 85 16
32 85 3437
33 85 2005
34 85 179
35 85 97
36 85 115
39 85 361
40 85 4065
41 85 1629
42 85 85
43 85 3385
44 85 1776
46 85 4
47 85 4
49 85 24
50 85 15
51 85 1804
55 85 3977
56 85 5
57 85 2281
58 85 133
59 85 91
60 85 2643
61 85 2329
62 85 32
63 85 2587
64 85 7
65 85 1499
66 85 234
67 85 1996
68 85 1933
69 85 2868
70 85 3070
71 85 1810
72 85 353
73 85 3391
74 85 3441
75 85 83
76 85 174
77 85 35
78 85 2872
79 85 4203
80 85 6
82 85 2679
83 85 4
84 85 2658
85 85 3962
86 85 3117
87 85 54
88 85 1643
89 85 1893
90 85 1243
91 85 2400
92 85 68
93 85 3052
94 85 60
96 85 3044
97 85 59
98 85 3026
99 85 2138
102 85 8
103 85 230
106 85 3330
107 85 73
108 85 2837
109 85 3214
110 85 1701
111 85 1838
112 85 2039
113 85 3789
114 85 200
115 85 2243
116 85 2956
118 85 2221
119 85 2102
120 85 3162
121 85 1916
122 85 9
124 85 866
125 85 3449
126 85 3710
127 85 1974
128 85 190
129 85 2226
130 85 4484
132 85 75
134 85 86
135 85 178
136 85 611
137 85 2124
138 85 48
139 85 1104
141 85 4465
144 85 54
145 85 398
146 85 2662
147 85 2235
148 85 2922
149 85 1743
150 85 208
151 85 2781
152 85 281
154 85 2435
155 85 2670
156 85 3
158 85 147
159 85 2122
160 85 990
161 85 2886
163 85 1426
164 85 274
165 85 356
166 85 141
167 85 52
168 85 2967
170 85 5
171 85 9
172 85 2373
173 85 1265
174 85 2021
175 85 2193
176 85 143
177 85 128
178 85 3543
179 85 348
181 85 114
182 85 2846
183 85 1656
184 85 257
185 85 2331
186 85 7
187 85 2157
188 85 1876
189 85 237
191 85 1268
192 85 2922
193 85 20
194 85 3
195 85 217
197 85 251
198 85 64
199 85 2898
200 85 2148
201 85 2288
204 85 174
205 85 289
207 85 1644
208 85 174
211 85 2415
213 85 2696
214 85 2209
215 85 2060
216 85 59
217 85 2873
218 85 3117
219 85 78
220 85 68
221 85 298
222 85 412
223 85 19
224 85 1419
225 85 2880
226 85 2213
228 85 4377
229 85 3630
230 85 2876
231 85 2519
232 85 330
233 85 26
234 85 1518
235 85 3314
236 85 168
237 85 72
238 85 2628
239 85 2466
240 85 842
241 85 166
242 85 2656
243 85 2385
244 85 1866
245 85 1657
246 85 1292
247 85 9
248 85 173
250 85 3220
251 85 216
253 85 11
254 85 22
255 85 474
256 85 4
257 85 1766
259 85 2213
260 85 1712
261 85 2483
262 85 4
264 85 175
265 85 116
266 85 6
267 85 3330
268 85 66
269 85 162
270 85 1218
271 85 155
272 85 115
273 85 2203
274 85 3659
275 85 3126
276 85 4385
278 85 2382
279 85 856
280 85 1621
281 85 7
282 85 1340
283 85 1992
284 85 4000
285 85 1649
286 85 1868
287 85 169
288 85 2223
289 85 52
290 85 162
291 85 9
292 85 143
293 85 112
294 85 2701
295 85 124
296 85 2961
297 85 1468
298 85 245
299 85 3006
300 85 102
301 85 2602
302 85 2933
303 85 2597
304 85 1685
306 85 69
307 85 46
308 85 2889
310 85 433
311 85 3
312 85 3345
314 85 4272
315 85 131
316 85 4
317 85 60
319 85 3648
320 85 99
321 85 1954
323 85 2337
325 85 3253
327 85 75
328 85 10
329 85 136
330 85 2230
331 85 23
332 85 2974
334 85 2323
335 85 2391
336 85 52
337 85 1992
338 85 1775
339 85 2408
340 85 2636
342 85 2281
343 85 1081
344 85 2429
345 85 3064
346 85 1250
347 85 2698
348 85 1191
349 85 4364
350 85 3378
351 85 97
352 85 3143
353 85 2145
355 85 2822
356 85 2350
357 85 1607
358 85 1052
361 85 117
362 85 59
363 85 648
364 85 54
366 85 2420
368 85 380
369 85 462
370 85 1079
371 85 2628
372 85 379
373 85 189
374 85 6
375 85 165
376 85 1180
377 85 1335
378 85 1966
380 85 3776
382 85 3060
383 85 1166
384 85 3481
385 85 189
386 85 247
387 85 3815
389 85 127
390 85 4
391 85 1869
392 85 2288
393 85 1167
395 85 230
398 85 1360
399 85 2883
400 85 2158
401 85 3495
402 85 2922
404 85 3148
405 85 2628
406 85 4048
407 85 3221
408 85 3066
409 85 1231
411 85 2354
412 85 3172
414 85 2328
415 85 5
416 85 17
417 85 1641
418 85 2814
419 85 1806
420 85 4113
421 85 1796
422 85 102
423 85 55
425 85 3495
426 85 222
427 85 12
428 85 3903
429 85 28
430 85 5456
431 85 59
432 85 5
433 85 2478
434 85 8
435 85 1760
436 85 1358
437 85 3
438 85 1200
439 85 7
440 85 153
441 85 290
443 85 207
445 85 4330
446 85 2023
447 85 3569
448 85 56
449 85 19
450 85 2247
451 85 2032
452 85 7
453 85 1969
454 85 1108
455 85 368
457 85 3338
458 85 4164
459 85 1575
460 85 276
461 85 1680
462 85 30
463 85 583
464 85 2153
465 85 2580
466 85 2330
467 85 49
468 85 1846
469 85 304
470 85 3265
472 85 302
473 85 1635
474 85 3541
475 85 795
476 85 2671
477 85 2140
478 85 2875
479 85 1375
480 85 3445
481 85 56
482 85 120
484 85 1205
485 85 1935
486 85 201
488 85 24
489 85 788
491 85 6
492 85 5
493 85 141
494 85 77
495 85 2380
496 85 44
497 85 2007
499 85 2356
500 85 1231
1 86 672
2 86 480
3 86 905
5 86 1350
7 86 1450
8 86 1404
9 86 940
10 86 2754
11 86 1709
12 86 1706
14 86 1153
16 86 1196
19 86 996
20 86 1279
21 86 1445
24 86 851
25 86 1191
26 86 814
29 86 597
32 86 1357
33 86 340
39 86 6
40 86 1958
41 86 908
42 86 13
43 86 2060
44 86 1323
51 86 970
55 86 1066
57 86 864
60 86 1885
61 86 1898
63 86 936
65 86 1391
67 86 235
68 86 433
69 86 3012
70 86 1026
71 86 1804
72 86 5
73 86 2282
74 86 1873
76 86 3
78 86 1900
79 86 1188
82 86 1187
83 86 10
84 86 1011
85 86 545
86 86 1539
88 86 898
89 86 174
90 86 1243
91 86 734
93 86 1302
96 86 939
98 86 1942
99 86 806
106 86 1622
108 86 1199
109 86 628
110 86 1363
111 86 498
112 86 1036
113 86 1177
114 86 4
115 86 1098
116 86 761
118 86 1460
119 86 1782
120 86 1908
121 86 1007
124 86 1650
125 86 1360
126 86 640
127 86 331
129 86 850
130 86 994
137 86 572
139 86 923
141 86 1664
146 86 1436
147 86 1144
148 86 1293
149 86 287
151 86 1986
152 86 5
154 86 923
155 86 864
159 86 1202
160 86 61
161 86 513
163 86 575
164 86 5
168 86 613
172 86 444
173 86 24
174 86 918
175 86 1136
178 86 853
182 86 1362
183 86 993
185 86 1216
187 86 2153
188 86 667
191 86 224
192 86 470
198 86 15
199 86 1520
200 86 1084
201 86 455
205 86 79
207 86 99
211 86 1035
213 86 1213
214 86 974
215 86 1556
216 86 7
217 86 1171
218 86 506
219 86 4
222 86 6
224 86 93
225 86 1439
226 86 914
228 86 989
229 86 879
230 86 1143
231 86 2475
234 86 620
235 86 1069
238 86 1509
239 86 784
240 86 7
242 86 1199
243 86 1218
244 86 1268
245 86 1233
246 86 1261
250 86 974
251 86 9
255 86 4
257 86 750
259 86 2250
260 86 513
261 86 854
267 86 1191
270 86 316
273 86 936
274 86 1755
275 86 1451
276 86 939
278 86 931
279 86 2
280 86 909
282 86 1096
283 86 530
284 86 460
285 86 502
286 86 1524
288 86 1016
289 86 3
292 86 4
294 86 484
296 86 1347
297 86 989
299 86 1358
301 86 1864
302 86 1392
303 86 1479
304 86 120
308 86 561
310 86 29
312 86 624
314 86 708
317 86 9
319 86 2330
321 86 946
323 86 933
325 86 731
330 86 1011
332 86 1322
334 86 1580
335 86 923
337 86 307
338 86 1213
339 86 1037
340 86 934
342 86 1070
343 86 934
344 86 1554
345 86 622
346 86 1130
347 86 852
348 86 4
349 86 738
350 86 1616
352 86 1111
353 86 2385
355 86 1523
356 86 345
357 86 279
358 86 471
363 86 142
366 86 1230
368 86 5
370 86 319
371 86 1065
376 86 67
377 86 792
378 86 771
380 86 1182
382 86 1104
383 86 29
384 86 676
385 86 2
387 86 1147
391 86 1136
392 86 1546
393 86 13
398 86 507
399 86 630
400 86 624
401 86 1781
402 86 1485
404 86 1063
405 86 301
406 86 328
407 86 515
408 86 1490
409 86 4
411 86 1222
412 86 1950
414 86 701
417 86 1372
418 86 1085
419 86 709
420 86 1131
421 86 1961
425 86 1078
426 86 4
428 86 792
430 86 1417
433 86 1456
435 86 2375
436 86 139
445 86 818
446 86 1145
447 86 1101
448 86 2
450 86 715
451 86 309
453 86 767
454 86 925
455 86 18
457 86 1311
458 86 431
459 86 397
461 86 454
464 86 474
465 86 1081
466 86 543
468 86 2053
469 86 7
470 86 832
473 86 394
474 86 2027
475 86 39
476 86 2080
477 86 1180
478 86 294
479 86 774
480 86 2208
484 86 187
485 86 1031
489 86 70
495 86 1426
497 86 145
499 86 2459
500 86 240
1 87 1362
2 87 2569
3 87 723
5 87 1381
7 87 1087
8 87 1515
9 87 1437
10 87 1239
11 87 1355
12 87 1392
14 87 1333
15 87 5
16 87 1211
17 87 7
19 87 2195
20 87 1891
21 87 1907
24 87 1984
25 87 1233
26 87 2011
29 87 1688
32 87 1473
33 87 1602
36 87 107
39 87 210
40 87 2216
41 87 2157
42 87 107
43 87 1309
44 87 2034
46 87 7
49 87 61
50 87 16
51 87 1288
55 87 1931
57 87 860
58 87 27
60 87 1329
61 87 2340
63 87 892
65 87 1351
66 87 151
67 87 638
68 87 1476
69 87 3250
70 87 1676
71 87 1865
72 87 188
73 87 3593
74 87 2059
76 87 32
77 87 24
78 87 2308
79 87 858
82 87 1418
83 87 6
84 87 1429
85 87 1335
86 87 2091
88 87 1913
89 87 482
90 87 1374
91 87 2047
92 87 3
93 87 1832
96 87 2292
98 87 2546
99 87 1646
103 87 21
106 87 3380
108 87 2082
109 87 1429
110 87 2132
111 87 2405
112 87 978
113 87 1826
114 87 1
115 87 1697
116 87 3464
118 87 2425
119 87 1348
120 87 1121
121 87 620
124 87 1514
125 87 1955
126 87 1087
127 87 1993
128 87 58
129 87 1271
130 87 1460
131 87 2
134 87 8
136 87 382
137 87 1294
138 87 3
139 87 804
141 87 1474
145 87 21
146 87 1190
147 87 1874
148 87 938
149 87 1204
150 87 53
151 87 1560
152 87 2
154 87 1322
155 87 2353
157 87 4
158 87 9
159 87 1156
160 87 351
161 87 2192
163 87 1232
164 87 6
165 87 289
166 87 21
168 87 928
172 87 948
173 87 829
174 87 2435
175 87 2260
176 87 23
178 87 2065
179 87 197
181 87 105
182 87 3171
183 87 2247
184 87 143
185 87 1465
187 87 1546
188 87 2184
191 87 1704
192 87 1471
195 87 27
197 87 28
198 87 24
199 87 885
200 87 946
201 87 968
204 87 41
205 87 104
207 87 610
208 87 25
211 87 1826
213 87 1894
214 87 2467
215 87 2007
217 87 2536
218 87 1605
219 87 23
220 87 8
221 87 188
222 87 79
224 87 976
225 87 2309
226 87 1164
228 87 1510
229 87 1548
230 87 1346
231 87 2086
232 87 163
234 87 1614
235 87 1448
236 87 31
237 87 12
238 87 771
239 87 966
240 87 942
242 87 1195
243 87 1373
244 87 2183
245 87 1455
246 87 1513
247 87 3
248 87 87
250 87 2042
251 87 73
255 87 152
257 87 2089
259 87 1435
260 87 1671
261 87 1261
264 87 66
265 87 7
267 87 1468
269 87 41
270 87 698
272 87 62
273 87 2625
274 87 749
275 87 1925
276 87 1602
278 87 2322
279 87 1209
280 87 1881
282 87 1805
283 87 2626
284 87 983
285 87 1302
286 87 1566
287 87 51
288 87 1661
291 87 4
292 87 44
293 87 7
294 87 2318
296 87 1942
297 87 1477
298 87 20
299 87 2036
301 87 1393
302 87 1347
303 87 2766
304 87 579
306 87 24
307 87 3
308 87 1545
310 87 347
311 87 7
312 87 2331
314 87 1171
315 87 9
319 87 647
320 87 27
321 87 1049
323 87 1328
325 87 1592
327 87 4
328 87 12
329 87 19
330 87 1243
332 87 1370
334 87 1363
335 87 812
337 87 1618
338 87 1705
339 87 1680
340 87 1465
342 87 855
343 87 856
344 87 1601
345 87 2145
346 87 2555
347 87 1678
348 87 6
349 87 2576
350 87 830
351 87 2
352 87 1261
353 87 1829
355 87 949
356 87 1731
357 87 784
358 87 1023
361 87 70
362 87 14
363 87 1542
366 87 1766
368 87 194
369 87 71
370 87 1508
371 87 2609
372 87 244
373 87 200
375 87 55
376 87 591
377 87 2293
378 87 1208
380 87 3041
382 87 1863
383 87 815
384 87 2268
385 87 28
386 87 28
387 87 1608
391 87 1553
392 87 1963
393 87 556
395 87 19
398 87 873
399 87 1537
400 87 860
401 87 1390
402 87 1968
404 87 3020
405 87 1478
406 87 3304
407 87 2199
408 87 2077
409 87 316
411 87 1750
412 87 2184
414 87 1628
415 87 22
417 87 2039
418 87 3514
419 87 3072
420 87 1222
421 87 1382
422 87 129
424 87 3
425 87 1408
426 87 263
427 87 14
428 87 1369
430 87 2695
433 87 2014
435 87 2751
436 87 1919
438 87 615
440 87 29
441 87 106
443 87 119
445 87 2626
446 87 1672
447 87 2204
448 87 7
450 87 1248
451 87 2129
453 87 1066
454 87 1395
455 87 118
456 87 4
457 87 1573
458 87 2709
459 87 1188
460 87 4
461 87 864
462 87 5
463 87 106
464 87 1792
465 87 1124
466 87 1512
467 87 39
468 87 2301
469 87 61
470 87 1535
472 87 151
473 87 2036
474 87 1232
475 87 280
476 87 2000
477 87 694
478 87 2184
479 87 2795
480 87 3672
481 87 5
484 87 1032
485 87 1266
486 87 1
489 87 154
493 87 9
494 87 75
495 87 1579
497 87 711
499 87 3321
500 87 1069
1 88 2346
2 88 2766
3 88 1856
4 88 78
5 88 201
6 88 57
7 88 2845
8 88 1783
9 88 1338
10 88 2473
11 88 2377
12 88 2282
13 88 146
14 88 2410
15 88 3606
16 88 1627
17 88 5
18 88 201
19 88 2068
20 88 2111
21 88 2707
22 88 2791
23 88 68
24 88 347
25 88 3454
26 88 2825
27 88 6
28 88 260
29 88 917
30 88 158
31 88 891
32 88 1928
33 88 2029
34 88 258
35 88 124
36 88 428
37 88 69
39 88 469
40 88 2922
41 88 324
42 88 45
43 88 3789
44 88 2417
45 88 126
46 88 3411
47 88 27
48 88 53
49 88 114
50 88 22
51 88 535
52 88 39
53 88 203
54 88 2
55 88 1840
56 88 234
57 88 2428
58 88 318
59 88 215
60 88 1991
61 88 3872
62 88 114
63 88 2743
64 88 3
65 88 205
66 88 60
67 88 4088
68 88 3526
69 88 3638
70 88 2167
71 88 1706
72 88 3225
73 88 3147
74 88 1859
75 88 1115
76 88 89
77 88 203
78 88 2242
79 88 2233
80 88 241
81 88 37
82 88 1750
83 88 95
84 88 375
85 88 1755
86 88 2279
87 88 1975
88 88 2014
89 88 2086
90 88 4138
91 88 3171
92 88 260
93 88 1909
94 88 128
95 88 64
96 88 1926
97 88 52
98 88 2413
99 88 1331
100 88 138
101 88 3
102 88 260
103 88 469
104 88 697
105 88 7
106 88 1847
107 88 1196
108 88 2167
109 88 2954
110 88 3013
111 88 349
112 88 1491
113 88 5430
114 88 764
115 88 2033
116 88 3117
117 88 6
118 88 2322
119 88 2120
120 88 1505
121 88 663
123 88 25
124 88 950
125 88 1142
126 88 2108
127 88 596
128 88 18
129 88 2380
130 88 2597
131 88 10
132 88 271
133 88 24
134 88 47
135 88 123
136 88 55
138 88 24
139 88 2272
140 88 37
141 88 1385
142 88 5
144 88 153
145 88 1208
146 88 2237
147 88 2512
148 88 1418
149 88 2792
150 88 155
151 88 2057
152 88 3073
153 88 22
154 88 3138
155 88 1859
156 88 2236
157 88 54
158 88 238
159 88 1845
160 88 104
161 88 803
162 88 33
163 88 77
164 88 3190
165 88 2707
166 88 31
167 88 80
168 88 1771
169 88 63
170 88 56
171 88 2363
172 88 2278
173 88 3360
174 88 3124
175 88 1925
176 88 63
177 88 77
178 88 2074
179 88 1465
180 88 6
181 88 96
182 88 1162
183 88 1881
184 88 87
185 88 2225
186 88 74
187 88 4277
188 88 437
189 88 1941
190 88 39
191 88 878
192 88 3391
193 88 121
194 88 264
195 88 426
196 88 325
197 88 1717
198 88 95
199 88 1920
200 88 2597
201 88 2392
202 88 133
203 88 47
204 88 142
205 88 1905
206 88 79
207 88 22
208 88 242
209 88 69
210 88 65
211 88 3426
212 88 31
213 88 1001
214 88 1343
215 88 1012
216 88 318
217 88 4196
218 88 785
219 88 26
220 88 1432
221 88 1993
222 88 79
223 88 35
224 88 5
225 88 3538
226 88 2079
227 88 59
228 88 1290
229 88 1279
230 88 2877
231 88 2637
232 88 44
233 88 23
234 88 2682
235 88 2220
236 88 2378
237 88 5
238 88 2122
239 88 3515
240 88 70
241 88 109
242 88 4336
243 88 2357
244 88 1025
245 88 2018
246 88 2486
247 88 186
248 88 324
249 88 165
250 88 2970
251 88 2340
252 88 68
253 88 89
254 88 178
255 88 2135
256 88 256
257 88 2745
258 88 122
259 88 1390
260 88 201
261 88 3570
262 88 323
263 88 33
264 88 56
265 88 932
266 88 2257
267 88 2542
268 88 1999
269 88 153
270 88 203
271 88 212
272 88 120
273 88 5201
274 88 2346
275 88 3454
276 88 1347
277 88 6
278 88 2910
279 88 70
280 88 2087
281 88 508
282 88 2837
283 88 4890
284 88 3446
285 88 1626
286 88 2440
287 88 139
288 88 2029
289 88 376
290 88 2
291 88 240
292 88 90
293 88 122
294 88 2495
295 88 125
296 88 2548
297 88 903
298 88 4346
299 88 2656
300 88 154
301 88 2161
302 88 2924
303 88 2210
304 88 22
305 88 189
306 88 270
307 88 488
308 88 2204
309 88 291
310 88 2956
311 88 250
312 88 1681
313 88 77
314 88 2268
315 88 292
316 88 394
317 88 176
319 88 3285
320 88 3180
321 88 1643
322 88 84
323 88 3124
324 88 39
325 88 1339
326 88 39
327 88 184
328 88 23
329 88 27
330 88 2461
331 88 565
332 88 2886
333 88 6
334 88 3764
335 88 354
336 88 262
337 88 1608
338 88 2667
339 88 390
340 88 1637
341 88 58
342 88 2175
343 88 2258
344 88 3507
345 88 2686
346 88 2757
347 88 3843
348 88 386
349 88 2205
350 88 1691
351 88 229
352 88 2058
353 88 3864
354 88 28
355 88 1817
356 88 2637
357 88 2579
358 88 123
359 88 88
361 88 115
362 88 37
363 88 184
364 88 50
365 88 34
366 88 3065
367 88 20
368 88 65
369 88 2240
370 88 105
371 88 3418
372 88 3150
373 88 11
374 88 32
375 88 757
376 88 2287
377 88 1704
378 88 2371
379 88 53
380 88 2248
381 88 132
382 88 1518
383 88 2108
384 88 2684
385 88 2893
386 88 2937
387 88 3020
388 88 2
389 88 403
390 88 1252
391 88 2450
392 88 1783
393 88 3712
394 88 35
395 88 2005
396 88 119
397 88 99
398 88 3
399 88 1733
400 88 1555
401 88 1613
402 88 3428
403 88 71
404 88 2209
405 88 1483
406 88 2939
407 88 2270
408 88 2258
409 88 3256
410 88 48
411 88 2012
412 88 2421
413 88 1495
414 88 3124
415 88 3616
416 88 54
417 88 3393
418 88 4499
419 88 2906
420 88 3428
421 88 1773
422 88 202
423 88 259
424 88 16
425 88 2272
426 88 4228
427 88 58
428 88 2140
430 88 3048
431 88 24
432 88 114
433 88 1369
435 88 3187
436 88 160
438 88 1806
439 88 320
440 88 148
441 88 397
442 88 97
443 88 156
444 88 369
445 88 1924
446 88 881
447 88 3890
448 88 288
449 88 50
450 88 673
451 88 619
452 88 202
453 88 2329
454 88 1504
455 88 3027
456 88 55
457 88 2315
458 88 3389
459 88 144
460 88 1211
461 88 94
462 88 4721
463 88 12
464 88 132
465 88 2461
466 88 2191
467 88 46
468 88 2471
469 88 1104
470 88 5698
471 88 2659
472 88 57
473 88 2985
474 88 4868
475 88 92
476 88 2081
477 88 2012
478 88 2087
479 88 2354
480 88 3126
481 88 125
482 88 9
483 88 1
484 88 80
485 88 2362
486 88 1235
487 88 92
488 88 83
489 88 1536
490 88 805
491 88 30
492 88 136
493 88 102
494 88 98
495 88 1557
496 88 80
497 88 5
498 88 219
499 88 3595
500 88 4500
1 89 1338
2 89 2636
3 89 808
7 89 1453
8 89 2149
9 89 6
10 89 1599
11 89 1762
12 89 1100
14 89 351
15 89 274
19 89 319
20 89 485
21 89 852
22 89 9
25 89 1529
26 89 1288
29 89 925
31 89 3
32 89 1019
33 89 1291
40 89 742
43 89 1970
44 89 1713
46 89 242
55 89 634
57 89 1680
60 89 1826
61 89 709
63 89 887
67 89 1453
68 89 1260
69 89 1650
70 89 480
71 89 1354
72 89 363
73 89 1374
74 89 1910
75 89 179
76 89 6
78 89 1080
79 89 1411
82 89 2568
85 89 1128
86 89 1011
87 89 20
88 89 580
89 89 1720
90 89 1072
91 89 1195
93 89 956
96 89 620
98 89 954
99 89 1313
106 89 994
108 89 1306
109 89 1001
110 89 2037
112 89 74
113 89 1692
115 89 1392
116 89 2238
118 89 1185
119 89 508
120 89 1404
122 89 6
124 89 813
125 89 1022
126 89 1838
127 89 11
129 89 873
130 89 1537
139 89 923
141 89 1494
145 89 66
146 89 1108
147 89 1565
148 89 1853
149 89 498
151 89 1430
152 89 454
154 89 1209
155 89 724
156 89 138
159 89 637
164 89 423
165 89 1860
168 89 936
171 89 178
172 89 2506
173 89 802
174 89 341
175 89 2130
178 89 1707
179 89 4
182 89 1407
183 89 2253
185 89 1045
187 89 1848
192 89 1058
197 89 417
199 89 340
200 89 1479
201 89 2526
205 89 494
211 89 1923
213 89 365
214 89 1090
215 89 95
217 89 1287
220 89 62
221 89 1471
225 89 1419
226 89 130
228 89 1416
229 89 1740
230 89 504
231 89 998
234 89 575
235 89 838
236 89 523
238 89 503
239 89 801
242 89 1250
243 89 1179
244 89 80
245 89 1304
246 89 467
250 89 990
251 89 454
255 89 1823
257 89 1906
259 89 1083
261 89 747
265 89 4
266 89 131
267 89 1077
268 89 25
273 89 1290
274 89 2219
275 89 2079
276 89 1339
278 89 627
280 89 567
281 89 61
282 89 904
283 89 1901
284 89 702
285 89 1224
286 89 400
288 89 1384
294 89 545
296 89 409
298 89 540
299 89 305
301 89 605
302 89 574
303 89 1508
308 89 1248
310 89 1761
312 89 307
314 89 839
319 89 1393
320 89 477
321 89 119
323 89 1178
325 89 937
330 89 1717
332 89 599
334 89 944
337 89 1349
338 89 764
339 89 5
340 89 782
342 89 1156
343 89 906
344 89 464
345 89 1036
346 89 1094
347 89 862
349 89 2159
350 89 764
352 89 337
353 89 867
355 89 341
356 89 1328
357 89 1082
366 89 1495
369 89 775
371 89 1427
372 89 1227
376 89 860
377 89 960
378 89 1484
380 89 1044
382 89 1234
383 89 1764
384 89 2603
385 89 180
386 89 267
387 89 1611
391 89 580
392 89 443
393 89 2302
395 89 702
399 89 958
400 89 763
401 89 1276
402 89 2057
404 89 1151
405 89 192
406 89 674
407 89 632
408 89 1031
409 89 1297
410 89 5
411 89 894
412 89 378
413 89 6
414 89 704
415 89 5
417 89 2575
418 89 1117
419 89 1661
420 89 1591
421 89 1482
425 89 1103
426 89 881
428 89 848
430 89 1582
433 89 1048
435 89 475
438 89 1115
445 89 1316
446 89 609
447 89 821
450 89 6
451 89 8
453 89 1343
454 89 867
455 89 2207
457 89 1016
458 89 1502
462 89 313
465 89 627
466 89 900
468 89 1160
470 89 1421
473 89 2198
474 89 636
476 89 2322
477 89 391
478 89 1005
479 89 1291
480 89 1336
485 89 567
489 89 681
495 89 1393
499 89 1407
500 89 1244
1 90 16346
2 90 15076
3 90 12955
5 90 4
7 90 7476
8 90 22369
9 90 142
10 90 7196
11 90 12292
12 90 6725
14 90 9296
15 90 3200
16 90 146
19 90 3259
20 90 5660
21 90 12476
22 90 546
25 90 12632
26 90 10149
29 90 9720
30 90 5
31 90 184
32 90 16400
33 90 6988
34 90 8
36 90 2
37 90 8
39 90 3
40 90 12200
43 90 6523
44 90 5108
46 90 885
51 90 46
55 90 18038
57 90 11540
60 90 7194
61 90 14055
63 90 11166
65 90 4
67 90 9394
68 90 10675
69 90 13767
70 90 6154
71 90 10116
72 90 4426
73 90 10990
74 90 8623
75 90 810
78 90 7511
79 90 7759
82 90 10974
84 90 24
85 90 15310
86 90 8192
87 90 316
88 90 4204
89 90 19038
90 90 8332
91 90 7601
93 90 7761
96 90 12602
98 90 7325
99 90 14079
104 90 64
106 90 10189
107 90 215
108 90 8426
109 90 10320
110 90 8149
112 90 172
113 90 13492
114 90 231
115 90 7065
116 90 16360
118 90 7592
119 90 14378
120 90 8807
124 90 4816
125 90 13378
126 90 13998
127 90 128
129 90 8219
130 90 10172
139 90 15245
141 90 9982
145 90 464
146 90 21756
147 90 8323
148 90 19255
149 90 12851
151 90 6917
152 90 9617
154 90 14692
155 90 12627
156 90 602
159 90 8765
161 90 21
164 90 9733
165 90 5495
168 90 16490
171 90 1817
172 90 12840
173 90 12689
174 90 6583
175 90 9627
178 90 7884
179 90 684
181 90 100
182 90 21028
183 90 12680
185 90 7791
187 90 9518
189 90 270
191 90 18
192 90 8585
194 90 21
195 90 175
197 90 4168
199 90 5065
200 90 8866
201 90 12785
204 90 7
205 90 9866
211 90 17300
213 90 1273
214 90 7863
215 90 1059
217 90 7895
218 90 127
219 90 7
220 90 1551
221 90 10332
225 90 26948
226 90 1118
228 90 6375
229 90 14559
230 90 5880
231 90 15565
234 90 6012
235 90 6773
236 90 6991
238 90 3609
239 90 10932
242 90 9790
243 90 7124
244 90 169
245 90 16786
246 90 12036
250 90 12724
251 90 5048
255 90 8454
256 90 29
257 90 17822
259 90 9164
261 90 10719
265 90 379
266 90 615
267 90 14775
268 90 302
273 90 5976
274 90 7771
275 90 11084
276 90 6435
278 90 26049
280 90 4216
281 90 179
282 90 28468
283 90 7259
284 90 7554
285 90 9161
286 90 4329
288 90 7108
290 90 4
294 90 7397
296 90 11424
297 90 5
298 90 2950
299 90 4435
300 90 3
301 90 5654
302 90 10447
303 90 13640
306 90 2
307 90 177
308 90 10441
310 90 13086
312 90 14391
314 90 6558
316 90 7
319 90 10393
320 90 5852
321 90 372
323 90 14690
325 90 8246
330 90 5562
331 90 19
332 90 10494
334 90 15614
336 90 65
337 90 12115
338 90 12220
339 90 19
340 90 17855
342 90 11841
343 90 15305
344 90 7977
345 90 9602
346 90 13023
347 90 8667
348 90 9
349 90 13750
350 90 10114
352 90 9145
353 90 10140
355 90 5013
356 90 9750
357 90 14737
366 90 13544
369 90 5260
371 90 8374
372 90 7377
376 90 12035
377 90 12044
378 90 6614
380 90 13425
382 90 9707
383 90 7549
384 90 10460
385 90 1016
386 90 3097
387 90 10573
389 90 77
390 90 92
391 90 13691
392 90 19157
393 90 8263
395 90 6223
399 90 19716
400 90 12509
401 90 14723
402 90 11113
404 90 8030
405 90 2142
406 90 8971
407 90 14186
408 90 8234
409 90 9524
411 90 12157
412 90 14308
413 90 158
414 90 11887
415 90 1383
416 90 7
417 90 10338
418 90 18252
419 90 6132
420 90 12583
421 90 10599
423 90 74
425 90 10087
426 90 13326
427 90 7
428 90 14994
430 90 12373
433 90 19493
435 90 11255
438 90 13188
441 90 83
444 90 4
445 90 11552
446 90 3042
447 90 13327
448 90 7
449 90 3
451 90 100
453 90 15574
454 90 3789
455 90 9609
457 90 16203
458 90 6994
459 90 5
460 90 22
462 90 3387
464 90 4
465 90 4432
466 90 8169
468 90 19029
469 90 194
470 90 18104
471 90 599
473 90 10170
474 90 14484
476 90 17526
477 90 2300
478 90 10878
479 90 15110
480 90 11016
485 90 5873
486 90 651
489 90 11059
490 90 141
495 90 10672
496 90 10
498 90 3
499 90 7887
500 90 14742
1 91 2085
2 91 4149
3 91 3061
4 91 2430
5 91 3072
6 91 1233
7 91 2821
8 91 3094
9 91 3633
10 91 2983
11 91 2401
12 91 2920
13 91 2099
14 91 2524
15 91 4187
16 91 2438
17 91 2993
18 91 3092
19 91 1673
20 91 3160
21 91 2465
22 91 5422
23 91 2099
24 91 2990
25 91 3001
26 91 2216
27 91 1011
28 91 3455
29 91 4246
30 91 2668
31 91 4200
32 91 3864
33 91 2598
34 91 2664
35 91 2261
36 91 3830
37 91 3111
38 91 1412
39 91 5099
40 91 3720
41 91 3084
42 91 1494
43 91 2532
44 91 2691
45 91 2130
46 91 4081
47 91 1905
48 91 1217
49 91 3343
50 91 3619
51 91 2079
52 91 2276
53 91 3225
54 91 1635
55 91 1572
56 91 1849
57 91 2974
58 91 4328
59 91 3885
60 91 2864
61 91 2267
62 91 2823
63 91 3922
64 91 2150
65 91 3164
66 91 2102
67 91 4442
68 91 3392
69 91 2338
70 91 2646
71 91 3116
72 91 2269
73 91 3590
74 91 3355
75 91 3246
76 91 1914
77 91 2235
78 91 3604
79 91 5653
80 91 2856
81 91 2049
82 91 2090
83 91 2569
84 91 1402
85 91 3281
86 91 1977
87 91 1761
88 91 4026
89 91 5397
90 91 2748
91 91 1980
92 91 3359
93 91 2966
94 91 2759
95 91 1252
96 91 2386
97 91 2961
98 91 1779
99 91 2130
100 91 2675
101 91 3571
102 91 2578
103 91 3260
104 91 1508
105 91 954
106 91 3628
107 91 4152
108 91 3026
109 91 2520
110 91 1414
111 91 4116
112 91 1344
113 91 2561
114 91 4653
115 91 1830
116 91 5362
117 91 1479
118 91 2047
119 91 2353
120 91 2950
121 91 1668
122 91 3330
123 91 2594
124 91 2180
125 91 1704
126 91 2834
127 91 1708
128 91 3739
129 91 2657
130 91 2420
131 91 2606
132 91 3329
133 91 1076
134 91 2670
135 91 3146
136 91 3157
137 91 2615
138 91 3813
139 91 2308
140 91 1292
141 91 3412
142 91 1042
143 91 1516
144 91 3078
145 91 3019
146 91 3727
147 91 3177
148 91 2231
149 91 2333
150 91 3202
151 91 2285
152 91 3500
153 91 1091
154 91 3752
155 91 3049
156 91 5260
157 91 2053
158 91 2561
159 91 3131
160 91 701
161 91 1781
162 91 1272
163 91 2515
164 91 3458
165 91 2401
166 91 1945
167 91 2132
168 91 3082
169 91 1240
170 91 4214
171 91 3481
172 91 1424
173 91 2713
174 91 1820
175 91 2609
176 91 1739
177 91 3084
178 91 3048
179 91 3221
180 91 3157
181 91 4941
182 91 1576
183 91 1229
184 91 2122
185 91 1443
186 91 2661
187 91 2262
188 91 1997
189 91 2062
190 91 850
191 91 1812
192 91 3369
193 91 2368
194 91 4883
195 91 4336
196 91 2857
197 91 5164
198 91 2956
199 91 3639
200 91 2537
201 91 1416
202 91 1757
203 91 2997
204 91 2766
205 91 1604
206 91 2024
207 91 1680
208 91 2251
209 91 2108
210 91 1659
211 91 5021
212 91 1824
213 91 2300
214 91 3311
215 91 2799
216 91 1872
217 91 3149
218 91 2697
219 91 3374
220 91 2946
221 91 4453
222 91 2103
223 91 2782
224 91 994
225 91 2931
226 91 1993
227 91 1243
228 91 3089
229 91 3237
230 91 3233
231 91 4504
232 91 3144
233 91 2936
234 91 2293
235 91 3379
236 91 4626
237 91 1198
238 91 1689
239 91 2812
240 91 2924
241 91 3138
242 91 3031
243 91 2161
244 91 1881
245 91 2711
246 91 2599
247 91 1946
248 91 2794
249 91 3288
250 91 2560
251 91 4339
252 91 1042
253 91 2561
254 91 2291
255 91 5038
256 91 4732
257 91 1816
258 91 2591
259 91 3859
260 91 2465
261 91 2433
262 91 3520
263 91 1903
264 91 2843
265 91 2349
266 91 5416
267 91 1147
268 91 1665
269 91 2631
270 91 1411
271 91 2516
272 91 4105
273 91 2634
274 91 1511
275 91 3795
276 91 2901
277 91 1488
278 91 1765
279 91 2807
280 91 3845
281 91 3809
282 91 2277
283 91 3183
284 91 5556
285 91 2940
286 91 1058
287 91 1987
288 91 1816
289 91 1831
290 91 1801
291 91 1704
292 91 1979
293 91 2926
294 91 2160
295 91 6079
296 91 2911
297 91 1863
298 91 4436
299 91 2202
300 91 2680
301 91 3816
302 91 3055
303 91 2618
304 91 1721
305 91 3484
306 91 2843
307 91 2107
308 91 3621
309 91 3113
310 91 4546
311 91 3676
312 91 2830
313 91 1046
314 91 4176
315 91 2906
316 91 2231
317 91 2809
318 91 2439
319 91 1251
320 91 4412
321 91 4206
322 91 1263
323 91 3814
324 91 1930
325 91 2091
326 91 898
327 91 2237
328 91 3682
329 91 1049
330 91 2515
331 91 1308
332 91 3122
333 91 1465
334 91 2327
335 91 2041
336 91 2033
337 91 2421
338 91 1958
339 91 1785
340 91 3189
341 91 1231
342 91 1965
343 91 2270
344 91 4070
345 91 3923
346 91 4296
347 91 1616
348 91 4025
349 91 4021
350 91 3480
351 91 3289
352 91 2281
353 91 3606
354 91 1960
355 91 3699
356 91 3271
357 91 2146
358 91 2394
359 91 2121
360 91 2391
361 91 2085
362 91 1555
363 91 2705
364 91 3028
365 91 1256
366 91 1984
367 91 1944
368 91 2505
369 91 2497
370 91 3069
371 91 4356
372 91 3785
373 91 4762
374 91 3502
375 91 4854
376 91 4557
377 91 2627
378 91 1436
379 91 1311
380 91 4690
381 91 3494
382 91 4240
383 91 3830
384 91 3428
385 91 4173
386 91 1580
387 91 2905
388 91 1608
389 91 3674
390 91 2821
391 91 2817
392 91 3314
393 91 2934
394 91 2546
395 91 4460
396 91 1217
397 91 3484
398 91 1513
399 91 2844
400 91 3642
401 91 4856
402 91 3763
403 91 2046
404 91 3791
405 91 2207
406 91 4215
407 91 2051
408 91 2100
409 91 5150
410 91 2031
411 91 3248
412 91 2227
413 91 1808
414 91 2427
415 91 3715
416 91 2675
417 91 2922
418 91 2502
419 91 2210
420 91 2867
421 91 3041
422 91 2572
423 91 1930
424 91 1492
425 91 3551
426 91 2327
427 91 3609
428 91 3449
429 91 3028
430 91 2502
431 91 5029
432 91 2479
433 91 2486
434 91 3010
435 91 2750
436 91 2259
437 91 2280
438 91 4568
439 91 3428
440 91 2682
441 91 3331
442 91 1237
443 91 3226
444 91 2982
445 91 2696
446 91 1463
447 91 3541
448 91 4132
449 91 2673
450 91 702
451 91 1841
452 91 2920
453 91 2477
454 91 2144
455 91 2442
456 91 2033
457 91 1340
458 91 3245
459 91 1978
460 91 4428
461 91 1728
462 91 4644
463 91 4109
464 91 2126
465 91 2697
466 91 2930
467 91 2214
468 91 2383
469 91 3273
470 91 4442
471 91 2634
472 91 3244
473 91 2439
474 91 4500
475 91 2539
476 91 3105
477 91 1437
478 91 3516
479 91 2950
480 91 3608
481 91 3087
482 91 2686
483 91 1588
484 91 3221
485 91 1665
486 91 3148
487 91 2715
488 91 4974
489 91 3212
490 91 3627
491 91 2902
492 91 2502
493 91 2886
494 91 1392
495 91 4299
496 91 2318
497 91 1941
498 91 2848
499 91 2029
500 91 2874
1 92 3576
2 92 5613
3 92 3536
4 92 2728
5 92 1458
6 92 1618
7 92 3438
8 92 2158
9 92 3379
10 92 3125
11 92 2448
12 92 3140
13 92 3310
14 92 3731
15 92 6862
16 92 2297
17 92 1989
18 92 3293
19 92 4295
20 92 2856
21 92 3285
22 92 4981
23 92 2814
24 92 2263
25 92 2919
26 92 2481
27 92 1957
28 92 2603
29 92 3899
30 92 5290
31 92 3422
32 92 2590
33 92 2167
34 92 4591
35 92 2775
36 92 4279
37 92 3915
38 92 2274
39 92 3796
40 92 2543
41 92 2275
42 92 2091
43 92 4028
44 92 2615
45 92 2680
46 92 5576
47 92 2980
48 92 1646
49 92 2033
50 92 2292
51 92 2337
52 92 1980
53 92 3180
54 92 2238
55 92 2961
56 92 3120
57 92 4445
58 92 3594
59 92 2083
60 92 2640
61 92 4675
62 92 3587
63 92 3070
64 92 4632
65 92 1586
66 92 2652
67 92 3779
68 92 2118
69 92 4873
70 92 3331
71 92 3758
72 92 3283
73 92 3554
74 92 3162
75 92 7020
76 92 2120
77 92 4583
78 92 3179
79 92 3022
80 92 3836
81 92 4973
82 92 3695
83 92 2668
84 92 2470
85 92 2947
86 92 2551
87 92 4810
88 92 2434
89 92 4692
90 92 2828
91 92 4207
92 92 3676
93 92 2636
94 92 3177
95 92 1637
96 92 3011
97 92 4250
98 92 3774
99 92 1951
100 92 6786
101 92 4445
102 92 3548
103 92 2976
104 92 3492
105 92 1993
106 92 2757
107 92 3384
108 92 3136
109 92 1836
110 92 5005
111 92 1846
112 92 4784
113 92 4849
114 92 3786
115 92 2468
116 92 3987
117 92 1103
118 92 2928
119 92 3143
120 92 3530
121 92 1862
122 92 1709
123 92 2856
124 92 2391
125 92 2723
126 92 2818
127 92 3260
128 92 2341
129 92 3210
130 92 1832
131 92 3941
132 92 2639
133 92 1607
134 92 2712
135 92 3455
136 92 3520
137 92 2189
138 92 4168
139 92 2743
140 92 1201
141 92 4184
142 92 1981
143 92 2455
144 92 3170
145 92 4267
146 92 2810
147 92 3579
148 92 4835
149 92 2591
150 92 3938
151 92 3227
152 92 4993
153 92 1573
154 92 2252
155 92 2052
156 92 6064
157 92 2654
158 92 2776
159 92 4367
160 92 2361
161 92 2022
162 92 1190
163 92 1881
164 92 5185
165 92 4312
166 92 4509
167 92 3879
168 92 3472
169 92 1644
170 92 2958
171 92 3629
172 92 2829
173 92 3834
174 92 1552
175 92 2709
176 92 2925
177 92 2434
178 92 4421
179 92 1586
180 92 3535
181 92 4753
182 92 3986
183 92 3988
184 92 2616
185 92 2424
186 92 2232
187 92 2770
188 92 3081
189 92 2746
190 92 1982
191 92 2046
192 92 4589
193 92 3019
194 92 3602
195 92 5302
196 92 3564
197 92 7188
198 92 2806
199 92 3525
200 92 2121
201 92 2815
202 92 3099
203 92 2315
204 92 3474
205 92 4342
206 92 2025
207 92 3417
208 92 1968
209 92 2075
210 92 2298
211 92 4310
212 92 1186
213 92 2116
214 92 3587
215 92 2318
216 92 4043
217 92 3354
218 92 2059
219 92 4879
220 92 4756
221 92 2746
222 92 2987
223 92 2972
224 92 2798
225 92 2432
226 92 3658
227 92 1716
228 92 2869
229 92 2683
230 92 6299
231 92 2594
232 92 2554
233 92 2504
234 92 4314
235 92 3877
236 92 4739
237 92 1568
238 92 3395
239 92 1992
240 92 3433
241 92 3480
242 92 2444
243 92 3653
244 92 2455
245 92 4698
246 92 2216
247 92 3314
248 92 2976
249 92 3782
250 92 5005
251 92 4606
252 92 1956
253 92 3247
254 92 2229
255 92 5422
256 92 3564
257 92 3814
258 92 3835
259 92 4549
260 92 2986
261 92 2618
262 92 3610
263 92 1851
264 92 5285
265 92 5223
266 92 5880
267 92 3498
268 92 4747
269 92 3341
270 92 1585
271 92 3979
272 92 2436
273 92 3396
274 92 2262
275 92 3704
276 92 2710
277 92 1132
278 92 3342
279 92 1788
280 92 2381
281 92 3582
282 92 2561
283 92 4215
284 92 2535
285 92 2463
286 92 3642
287 92 2516
288 92 2611
289 92 3966
290 92 3428
291 92 3389
292 92 2549
293 92 3295
294 92 3102
295 92 2363
296 92 2277
297 92 2702
298 92 2955
299 92 3444
300 92 3983
301 92 2527
302 92 2779
303 92 3323
304 92 3411
305 92 6023
306 92 3971
307 92 5246
308 92 3548
309 92 2822
310 92 4894
311 92 2613
312 92 4766
313 92 1987
314 92 2654
315 92 3302
316 92 3052
317 92 3071
318 92 2502
319 92 3880
320 92 7988
321 92 1535
322 92 1631
323 92 2088
324 92 1949
325 92 3334
326 92 1946
327 92 5342
328 92 2299
329 92 1785
330 92 2702
331 92 2380
332 92 2777
333 92 1094
334 92 2764
335 92 2026
336 92 4588
337 92 4254
338 92 5637
339 92 2618
340 92 2593
341 92 1670
342 92 2160
343 92 2738
344 92 4217
345 92 2305
346 92 4134
347 92 3617
348 92 3994
349 92 3867
350 92 2815
351 92 2710
352 92 2020
353 92 4110
354 92 1919
355 92 3394
356 92 2860
357 92 4337
358 92 2984
359 92 2001
360 92 3471
361 92 4808
362 92 3238
363 92 2046
364 92 4139
365 92 1168
366 92 4079
367 92 2016
368 92 2471
369 92 3573
370 92 1742
371 92 4057
372 92 8314
373 92 1898
374 92 2744
375 92 3762
376 92 3632
377 92 2861
378 92 3585
379 92 1653
380 92 3877
381 92 3367
382 92 3218
383 92 3236
384 92 2478
385 92 3461
386 92 7261
387 92 4814
388 92 2258
389 92 4135
390 92 4773
391 92 2118
392 92 2635
393 92 5315
394 92 2561
395 92 4891
396 92 1718
397 92 3305
398 92 2192
399 92 2878
400 92 1780
401 92 2664
402 92 3566
403 92 2059
404 92 4067
405 92 2958
406 92 3196
407 92 3656
408 92 2594
409 92 4409
410 92 3421
411 92 3300
412 92 2554
413 92 3363
414 92 3321
415 92 2981
416 92 2560
417 92 5196
418 92 3375
419 92 3218
420 92 2898
421 92 2186
422 92 2916
423 92 4613
424 92 1894
425 92 1778
426 92 2773
427 92 3160
428 92 2934
429 92 2734
430 92 6168
431 92 4244
432 92 2099
433 92 2819
434 92 2205
435 92 3576
436 92 1834
437 92 2289
438 92 3938
439 92 3483
440 92 1819
441 92 3424
442 92 1824
443 92 2566
444 92 1810
445 92 2636
446 92 2669
447 92 4185
448 92 4893
449 92 2587
450 92 2369
451 92 3194
452 92 2549
453 92 4198
454 92 4297
455 92 3173
456 92 2565
457 92 2826
458 92 3967
459 92 2701
460 92 3453
461 92 1523
462 92 9177
463 92 2082
464 92 1990
465 92 2798
466 92 2838
467 92 3524
468 92 2735
469 92 3441
470 92 8335
471 92 4010
472 92 2550
473 92 3189
474 92 3471
475 92 1304
476 92 4040
477 92 3765
478 92 3752
479 92 3093
480 92 3514
481 92 3754
482 92 2630
483 92 2271
484 92 2556
485 92 2132
486 92 5482
487 92 3708
488 92 3648
489 92 4757
490 92 5604
491 92 1953
492 92 3981
493 92 3424
494 92 1739
495 92 3877
496 92 2674
497 92 2635
498 92 3752
499 92 3604
500 92 3747
1 93 4696
2 93 4965
3 93 3175
4 93 2816
5 93 3275
6 93 3536
7 93 6106
8 93 3748
9 93 4823
10 93 4592
11 93 5821
12 93 4855
13 93 5554
14 93 3213
15 93 9866
16 93 3027
17 93 3277
18 93 7586
19 93 2778
20 93 4939
21 93 3237
22 93 8316
23 93 4777
24 93 4634
25 93 6584
26 93 2836
27 93 2086
28 93 7190
29 93 4302
30 93 3572
31 93 6979
32 93 6432
33 93 4535
34 93 4930
35 93 3297
36 93 5526
37 93 2861
38 93 2744
39 93 3419
40 93 4726
41 93 4756
42 93 2136
43 93 5308
44 93 8372
45 93 3886
46 93 5343
47 93 5118
48 93 3536
49 93 5186
50 93 1319
51 93 2959
52 93 3155
53 93 7790
54 93 3839
55 93 3467
56 93 4621
57 93 5725
58 93 5680
59 93 6837
60 93 8487
61 93 4778
62 93 3026
63 93 3600
64 93 4191
65 93 3211
66 93 3649
67 93 5277
68 93 3337
69 93 4970
70 93 3080
71 93 5418
72 93 6099
73 93 5119
74 93 3805
75 93 5054
76 93 2331
77 93 4221
78 93 5128
79 93 7137
80 93 2838
81 93 4313
82 93 2935
83 93 5665
84 93 5033
85 93 7477
86 93 5174
87 93 3748
88 93 3350
89 93 5386
90 93 3776
91 93 6796
92 93 4544
93 93 4719
94 93 3546
95 93 3428
96 93 4307
97 93 3759
98 93 3793
99 93 5237
100 93 4748
101 93 5410
102 93 3849
103 93 4539
104 93 4099
105 93 1995
106 93 4233
107 93 4239
108 93 4383
109 93 5840
110 93 2633
111 93 3552
112 93 2739
113 93 3740
114 93 5848
115 93 3550
116 93 7397
117 93 1806
118 93 3921
119 93 5340
120 93 4375
121 93 3502
122 93 3181
123 93 5861
124 93 4214
125 93 4880
126 93 4515
127 93 1639
128 93 5280
129 93 5648
130 93 5362
131 93 3700
132 93 7377
133 93 1695
134 93 4055
135 93 3643
136 93 3731
137 93 3581
138 93 2489
139 93 3918
140 93 1490
141 93 6403
142 93 2048
143 93 2906
144 93 3570
145 93 4632
146 93 6103
147 93 5305
148 93 2781
149 93 3422
150 93 3832
151 93 5114
152 93 6633
153 93 1641
154 93 4013
155 93 3822
156 93 4641
157 93 3939
158 93 4270
159 93 3623
160 93 2670
161 93 3278
162 93 1510
163 93 2042
164 93 7059
165 93 6533
166 93 5315
167 93 5899
168 93 4790
169 93 3447
170 93 4459
171 93 7794
172 93 5524
173 93 6677
174 93 2411
175 93 5520
176 93 3402
177 93 4123
178 93 3513
179 93 3402
180 93 4134
181 93 5376
182 93 3119
183 93 5028
184 93 3650
185 93 4090
186 93 3413
187 93 5088
188 93 3477
189 93 3706
190 93 3487
191 93 2632
192 93 3966
193 93 2624
194 93 4075
195 93 5055
196 93 4954
197 93 6327
198 93 5265
199 93 4056
200 93 3457
201 93 5497
202 93 3894
203 93 3490
204 93 2879
205 93 6085
206 93 3190
207 93 1889
208 93 3528
209 93 3032
210 93 2182
211 93 3071
212 93 2109
213 93 3683
214 93 4328
215 93 3404
216 93 4769
217 93 4317
218 93 3587
219 93 5045
220 93 6866
221 93 5153
222 93 2462
223 93 5179
224 93 2434
225 93 4657
226 93 1895
227 93 3681
228 93 3655
229 93 5395
230 93 4097
231 93 6069
232 93 3422
233 93 4716
234 93 2334
235 93 5324
236 93 5321
237 93 2375
238 93 3023
239 93 7089
240 93 3231
241 93 3809
242 93 2983
243 93 3777
244 93 3545
245 93 3532
246 93 4766
247 93 5939
248 93 4045
249 93 4106
250 93 5145
251 93 5846
252 93 3626
253 93 3558
254 93 4604
255 93 6511
256 93 4152
257 93 3597
258 93 10503
259 93 3682
260 93 3120
261 93 3412
262 93 3510
263 93 1901
264 93 4483
265 93 5574
266 93 4658
267 93 4076
268 93 3823
269 93 3505
270 93 3431
271 93 3527
272 93 3128
273 93 4632
274 93 4977
275 93 3151
276 93 3499
277 93 1770
278 93 3581
279 93 2786
280 93 3343
281 93 5136
282 93 3565
283 93 1868
284 93 4309
285 93 4640
286 93 2511
287 93 2542
288 93 3609
289 93 4870
290 93 4860
291 93 3234
292 93 2418
293 93 4063
294 93 5633
295 93 5981
296 93 5520
297 93 3304
298 93 5498
299 93 3972
300 93 6528
301 93 5667
302 93 5297
303 93 5359
304 93 1881
305 93 4889
306 93 5833
307 93 6990
308 93 3219
309 93 4145
310 93 4444
311 93 4075
312 93 6459
313 93 3611
314 93 5660
315 93 4699
316 93 3544
317 93 3683
318 93 2990
319 93 4115
320 93 6738
321 93 2144
322 93 3200
323 93 3912
324 93 1890
325 93 3131
326 93 3408
327 93 2400
328 93 1369
329 93 2895
330 93 5542
331 93 5102
332 93 5390
333 93 1821
334 93 2910
335 93 4046
336 93 3283
337 93 5289
338 93 3169
339 93 3206
340 93 3743
341 93 3644
342 93 5033
343 93 3950
344 93 5069
345 93 3987
346 93 2801
347 93 4101
348 93 7960
349 93 7118
350 93 5717
351 93 3006
352 93 4307
353 93 4449
354 93 1946
355 93 4130
356 93 3137
357 93 6947
358 93 3237
359 93 3098
360 93 4099
361 93 4380
362 93 2887
363 93 3543
364 93 3683
365 93 1494
366 93 5924
367 93 1986
368 93 4408
369 93 5578
370 93 2745
371 93 8977
372 93 4814
373 93 3140
374 93 5618
375 93 5225
376 93 3811
377 93 4525
378 93 5252
379 93 3518
380 93 5713
381 93 3176
382 93 3613
383 93 6564
384 93 5979
385 93 2951
386 93 5607
387 93 4868
388 93 3874
389 93 3360
390 93 5038
391 93 3156
392 93 4539
393 93 6068
394 93 2277
395 93 6697
396 93 3196
397 93 5247
398 93 3935
399 93 3457
400 93 2801
401 93 5102
402 93 3023
403 93 3015
404 93 4117
405 93 4121
406 93 6798
407 93 3785
408 93 5349
409 93 5160
410 93 4198
411 93 2996
412 93 4606
413 93 5852
414 93 4768
415 93 5380
416 93 3360
417 93 9212
418 93 4658
419 93 3747
420 93 6541
421 93 6073
422 93 3282
423 93 3253
424 93 2202
425 93 2423
426 93 5228
427 93 4240
428 93 5325
429 93 3603
430 93 5359
431 93 4533
432 93 4498
433 93 4755
434 93 7083
435 93 7578
436 93 3348
437 93 4508
438 93 3919
439 93 3651
440 93 5033
441 93 6019
442 93 3270
443 93 4350
444 93 5415
445 93 3022
446 93 3683
447 93 6194
448 93 4438
449 93 3232
450 93 3632
451 93 1685
452 93 4084
453 93 4328
454 93 2495
455 93 3549
456 93 3764
457 93 4004
458 93 4168
459 93 3964
460 93 7513
461 93 2416
462 93 7593
463 93 2975
464 93 2497
465 93 3997
466 93 3382
467 93 3676
468 93 2966
469 93 5904
470 93 7845
471 93 8409
472 93 3310
473 93 4277
474 93 5246
475 93 4135
476 93 3884
477 93 2691
478 93 6418
479 93 4415
480 93 5176
481 93 3282
482 93 3003
483 93 3794
484 93 2831
485 93 2918
486 93 5551
487 93 7028
488 93 3625
489 93 5217
490 93 5438
491 93 5837
492 93 3930
493 93 4069
494 93 1572
495 93 4671
496 93 2974
497 93 2176
498 93 5280
499 93 4354
500 93 5648
1 94 5618
2 94 9566
3 94 5357
4 94 6133
5 94 4518
6 94 4070
7 94 6321
8 94 5159
9 94 5964
10 94 4263
11 94 8318
12 94 7081
13 94 7528
14 94 5461
15 94 13604
16 94 7346
17 94 5374
18 94 6596
19 94 5524
20 94 7585
21 94 3962
22 94 10506
23 94 5663
24 94 4174
25 94 6009
26 94 10242
27 94 2176
28 94 5958
29 94 8077
30 94 3956
31 94 8031
32 94 5339
33 94 6658
34 94 7725
35 94 6548
36 94 9699
37 94 10192
38 94 3435
39 94 7547
40 94 3731
41 94 4278
42 94 6986
43 94 6515
44 94 12428
45 94 10912
46 94 9168
47 94 7891
48 94 4089
49 94 6266
50 94 2727
51 94 4990
52 94 2365
53 94 6572
54 94 5203
55 94 16336
56 94 12678
57 94 6562
58 94 7187
59 94 6923
60 94 4746
61 94 9452
62 94 5191
63 94 6790
64 94 3396
65 94 4311
66 94 7607
67 94 9123
68 94 4885
69 94 7688
70 94 4549
71 94 5955
72 94 9309
73 94 7360
74 94 8477
75 94 12934
76 94 6201
77 94 6413
78 94 6467
79 94 8576
80 94 8803
81 94 10470
82 94 9891
83 94 5409
84 94 4282
85 94 8729
86 94 9342
87 94 5580
88 94 4637
89 94 9426
90 94 10601
91 94 4476
92 94 6514
93 94 4681
94 94 8887
95 94 4050
96 94 8564
97 94 7997
98 94 7811
99 94 6851
100 94 5596
101 94 9180
102 94 5842
103 94 9071
104 94 7171
105 94 2183
106 94 7221
107 94 7888
108 94 7298
109 94 6727
110 94 11334
111 94 8646
112 94 7431
113 94 7029
114 94 8290
115 94 5509
116 94 8545
117 94 8271
118 94 5951
119 94 5153
120 94 5781
121 94 4632
122 94 6064
123 94 6047
124 94 8660
125 94 7579
126 94 5383
127 94 3628
128 94 6875
129 94 9812
130 94 6723
131 94 7450
132 94 5904
133 94 2956
134 94 8394
135 94 5437
136 94 3884
137 94 8410
138 94 5783
139 94 7177
140 94 2649
141 94 3315
142 94 2229
143 94 3498
144 94 5922
145 94 11233
146 94 6071
147 94 6384
148 94 6326
149 94 8200
150 94 13017
151 94 4224
152 94 11185
153 94 3025
154 94 8893
155 94 5791
156 94 9454
157 94 5998
158 94 5282
159 94 7170
160 94 6652
161 94 2893
162 94 2657
163 94 4202
164 94 11331
165 94 9916
166 94 8059
167 94 5228
168 94 7735
169 94 4141
170 94 6382
171 94 9179
172 94 3998
173 94 11367
174 94 6340
175 94 11297
176 94 5756
177 94 6536
178 94 9485
179 94 8820
180 94 5886
181 94 5899
182 94 5562
183 94 4472
184 94 7477
185 94 4720
186 94 5547
187 94 8748
188 94 4571
189 94 6846
190 94 4095
191 94 7145
192 94 7659
193 94 4764
194 94 6724
195 94 10989
196 94 5997
197 94 10857
198 94 3536
199 94 13645
200 94 9749
201 94 4148
202 94 6772
203 94 5576
204 94 6375
205 94 7299
206 94 4380
207 94 6086
208 94 4942
209 94 4566
210 94 4117
211 94 6464
212 94 3345
213 94 7114
214 94 6669
215 94 9562
216 94 7925
217 94 3382
218 94 8700
219 94 7828
220 94 10173
221 94 11171
222 94 5986
223 94 8229
224 94 5317
225 94 12580
226 94 5954
227 94 4091
228 94 5422
229 94 3991
230 94 4621
231 94 7469
232 94 6819
233 94 9629
234 94 5476
235 94 6568
236 94 11040
237 94 2630
238 94 8822
239 94 4415
240 94 6460
241 94 5439
242 94 6071
243 94 5654
244 94 4551
245 94 8847
246 94 4434
247 94 5925
248 94 5608
249 94 4623
250 94 5062
251 94 9229
252 94 4098
253 94 7541
254 94 4913
255 94 10346
256 94 6834
257 94 5339
258 94 6487
259 94 9030
260 94 6042
261 94 4023
262 94 9556
263 94 3438
264 94 6815
265 94 6678
266 94 9517
267 94 5308
268 94 5612
269 94 8303
270 94 5859
271 94 7144
272 94 10863
273 94 8074
274 94 7956
275 94 5128
276 94 5346
277 94 8315
278 94 6038
279 94 3502
280 94 4636
281 94 6723
282 94 5361
283 94 12634
284 94 6871
285 94 6426
286 94 5548
287 94 11425
288 94 5620
289 94 7834
290 94 5254
291 94 10271
292 94 3157
293 94 7833
294 94 6885
295 94 10569
296 94 5428
297 94 3156
298 94 8091
299 94 9136
300 94 8086
301 94 6789
302 94 8144
303 94 5712
304 94 6253
305 94 4701
306 94 6593
307 94 4610
308 94 8253
309 94 6567
310 94 13042
311 94 4848
312 94 7240
313 94 4115
314 94 8375
315 94 8896
316 94 7356
317 94 7214
318 94 5910
319 94 6987
320 94 8365
321 94 8827
322 94 4732
323 94 8921
324 94 3474
325 94 5333
326 94 4007
327 94 6370
328 94 2700
329 94 5048
330 94 4932
331 94 7808
332 94 8317
333 94 8439
334 94 6888
335 94 10105
336 94 6013
337 94 6206
338 94 3463
339 94 6340
340 94 8351
341 94 4213
342 94 6453
343 94 7043
344 94 6306
345 94 7861
346 94 4156
347 94 6505
348 94 6876
349 94 9162
350 94 8013
351 94 5894
352 94 4879
353 94 4798
354 94 3493
355 94 13759
356 94 5422
357 94 8135
358 94 7143
359 94 4427
360 94 9051
361 94 7433
362 94 4036
363 94 4341
364 94 8008
365 94 2627
366 94 7575
367 94 3466
368 94 5574
369 94 8294
370 94 8548
371 94 7930
372 94 7557
373 94 5009
374 94 3447
375 94 7521
376 94 8138
377 94 6882
378 94 5081
379 94 4167
380 94 6216
381 94 6180
382 94 7225
383 94 8672
384 94 6327
385 94 8857
386 94 8338
387 94 7894
388 94 5024
389 94 6196
390 94 7553
391 94 6222
392 94 5802
393 94 15614
394 94 6197
395 94 7163
396 94 4587
397 94 5196
398 94 4622
399 94 6814
400 94 7038
401 94 10323
402 94 4926
403 94 4439
404 94 6770
405 94 7065
406 94 14393
407 94 6720
408 94 9018
409 94 11429
410 94 6798
411 94 6585
412 94 5336
413 94 8274
414 94 4761
415 94 6735
416 94 5193
417 94 8680
418 94 9415
419 94 6662
420 94 5973
421 94 11198
422 94 4692
423 94 5990
424 94 2333
425 94 5909
426 94 8241
427 94 7659
428 94 8383
429 94 7653
430 94 8859
431 94 5822
432 94 10695
433 94 4924
434 94 6617
435 94 4879
436 94 6151
437 94 4552
438 94 6828
439 94 9443
440 94 6568
441 94 5349
442 94 4659
443 94 6280
444 94 6919
445 94 6024
446 94 6965
447 94 10745
448 94 8134
449 94 5156
450 94 5038
451 94 3491
452 94 4310
453 94 6439
454 94 5472
455 94 6773
456 94 6126
457 94 8119
458 94 3621
459 94 3528
460 94 7382
461 94 5356
462 94 6578
463 94 7272
464 94 4763
465 94 9117
466 94 5057
467 94 5287
468 94 6268
469 94 7019
470 94 15233
471 94 6184
472 94 6844
473 94 7179
474 94 8218
475 94 5319
476 94 5634
477 94 4310
478 94 9629
479 94 6831
480 94 7381
481 94 6237
482 94 8336
483 94 5050
484 94 6080
485 94 5832
486 94 8376
487 94 5716
488 94 8172
489 94 5653
490 94 6972
491 94 7735
492 94 10191
493 94 8079
494 94 3598
495 94 7507
496 94 5024
497 94 4062
498 94 6493
499 94 6946
500 94 7522
1 95 1189
2 95 1507
3 95 1292
4 95 2628
5 95 1104
6 95 771
7 95 675
8 95 1169
9 95 1480
10 95 2960
11 95 1135
12 95 887
13 95 1759
14 95 1244
15 95 781
16 95 2199
17 95 993
18 95 2853
19 95 919
20 95 1835
21 95 828
22 95 2788
23 95 1106
24 95 1536
25 95 1700
26 95 1189
27 95 495
28 95 1724
29 95 1842
30 95 3538
31 95 1755
32 95 1494
33 95 1016
34 95 1506
35 95 559
36 95 2349
37 95 1454
38 95 322
39 95 1076
40 95 1635
41 95 1489
42 95 721
43 95 1368
44 95 1264
45 95 911
46 95 1167
47 95 1305
48 95 698
49 95 1454
50 95 569
51 95 1188
52 95 904
53 95 2862
54 95 894
55 95 749
56 95 561
57 95 1562
58 95 830
59 95 867
60 95 1306
61 95 2465
62 95 480
63 95 951
64 95 620
65 95 1116
66 95 1718
67 95 2321
68 95 816
69 95 1041
70 95 1564
71 95 2166
72 95 2526
73 95 1330
74 95 1451
75 95 3443
76 95 917
77 95 1324
78 95 1099
79 95 2420
80 95 1898
81 95 637
82 95 985
83 95 2002
84 95 1134
85 95 1508
86 95 861
87 95 341
88 95 996
89 95 1571
90 95 1320
91 95 1458
92 95 1050
93 95 673
94 95 1567
95 95 770
96 95 1280
97 95 943
98 95 918
99 95 798
100 95 2446
101 95 2047
102 95 1098
103 95 1505
104 95 655
105 95 466
106 95 2881
107 95 1948
108 95 1514
109 95 1204
110 95 2129
111 95 1501
112 95 961
113 95 1875
114 95 2060
115 95 1614
116 95 1064
117 95 725
118 95 989
119 95 927
120 95 1012
121 95 969
122 95 519
123 95 1062
124 95 1533
125 95 1165
126 95 1546
127 95 839
128 95 2630
129 95 1973
130 95 871
131 95 1370
132 95 1607
133 95 985
134 95 700
135 95 1445
136 95 1480
137 95 664
138 95 618
139 95 1251
140 95 687
141 95 377
142 95 475
143 95 293
144 95 1249
145 95 2365
146 95 2021
147 95 828
148 95 1058
149 95 1563
150 95 1004
151 95 1696
152 95 1376
153 95 1031
154 95 708
155 95 575
156 95 3228
157 95 857
158 95 1116
159 95 1422
160 95 1123
161 95 1034
162 95 680
163 95 756
164 95 1433
165 95 1261
166 95 315
167 95 1483
168 95 1192
169 95 778
170 95 502
171 95 1831
172 95 1011
173 95 1470
174 95 803
175 95 1536
176 95 274
177 95 1709
178 95 2301
179 95 1758
180 95 1883
181 95 1351
182 95 875
183 95 914
184 95 1771
185 95 910
186 95 897
187 95 430
188 95 1917
189 95 1268
190 95 854
191 95 681
192 95 2432
193 95 897
194 95 1776
195 95 1933
196 95 2036
197 95 1689
198 95 909
199 95 1037
200 95 1103
201 95 1056
202 95 1039
203 95 1809
204 95 1061
205 95 1616
206 95 897
207 95 1156
208 95 1041
209 95 880
210 95 1184
211 95 1512
212 95 332
213 95 823
214 95 1304
215 95 595
216 95 1743
217 95 1350
218 95 1108
219 95 1608
220 95 1533
221 95 831
222 95 537
223 95 1270
224 95 886
225 95 1284
226 95 1004
227 95 735
228 95 1512
229 95 1484
230 95 2149
231 95 570
232 95 1370
233 95 1277
234 95 1146
235 95 980
236 95 765
237 95 596
238 95 1483
239 95 1470
240 95 1409
241 95 1474
242 95 941
243 95 754
244 95 1267
245 95 2111
246 95 1349
247 95 2174
248 95 968
249 95 668
250 95 1741
251 95 1768
252 95 605
253 95 1701
254 95 1449
255 95 571
256 95 1802
257 95 866
258 95 358
259 95 1482
260 95 1321
261 95 1529
262 95 1825
263 95 653
264 95 1694
265 95 803
266 95 3175
267 95 852
268 95 377
269 95 1082
270 95 787
271 95 919
272 95 1214
273 95 671
274 95 2005
275 95 2907
276 95 1552
277 95 791
278 95 1330
279 95 413
280 95 1019
281 95 2600
282 95 937
283 95 1746
284 95 673
285 95 1721
286 95 739
287 95 1732
288 95 1632
289 95 1769
290 95 980
291 95 1892
292 95 1164
293 95 1482
294 95 1559
295 95 2589
296 95 1109
297 95 1466
298 95 949
299 95 1112
300 95 3244
301 95 1521
302 95 1652
303 95 1672
304 95 1208
305 95 955
306 95 2075
307 95 1629
308 95 923
309 95 1200
310 95 2751
311 95 576
312 95 772
313 95 616
314 95 1339
315 95 661
316 95 753
317 95 377
318 95 1567
319 95 2160
320 95 1863
321 95 1024
322 95 1045
323 95 728
324 95 647
325 95 475
326 95 893
327 95 1091
328 95 565
329 95 505
330 95 1877
331 95 670
332 95 1687
333 95 729
334 95 1016
335 95 542
336 95 2043
337 95 1042
338 95 1109
339 95 1257
340 95 471
341 95 829
342 95 2012
343 95 1146
344 95 455
345 95 2116
346 95 1533
347 95 832
348 95 1063
349 95 1597
350 95 1290
351 95 2413
352 95 1631
353 95 1287
354 95 646
355 95 1051
356 95 861
357 95 1517
358 95 931
359 95 834
360 95 1593
361 95 2313
362 95 810
363 95 1698
364 95 952
365 95 640
366 95 1610
367 95 729
368 95 1318
369 95 1765
370 95 717
371 95 2844
372 95 1457
373 95 608
374 95 888
375 95 1783
376 95 1304
377 95 2385
378 95 948
379 95 800
380 95 1543
381 95 2639
382 95 1070
383 95 2906
384 95 1425
385 95 3058
386 95 1371
387 95 1037
388 95 918
389 95 1962
390 95 1214
391 95 1080
392 95 1739
393 95 2516
394 95 1375
395 95 1161
396 95 1138
397 95 915
398 95 799
399 95 2756
400 95 769
401 95 2243
402 95 2861
403 95 898
404 95 1618
405 95 543
406 95 2534
407 95 2753
408 95 843
409 95 1178
410 95 336
411 95 1153
412 95 1701
413 95 1972
414 95 1019
415 95 1186
416 95 1982
417 95 475
418 95 1107
419 95 1353
420 95 1760
421 95 1099
422 95 790
423 95 2064
424 95 618
425 95 1274
426 95 808
427 95 854
428 95 1435
429 95 1206
430 95 1545
431 95 834
432 95 1007
433 95 1528
434 95 1568
435 95 1376
436 95 1043
437 95 444
438 95 1135
439 95 1769
440 95 1082
441 95 643
442 95 1035
443 95 302
444 95 1646
445 95 1281
446 95 589
447 95 1647
448 95 828
449 95 2039
450 95 1462
451 95 780
452 95 2206
453 95 1169
454 95 338
455 95 1626
456 95 880
457 95 797
458 95 1005
459 95 1034
460 95 1335
461 95 632
462 95 2925
463 95 1562
464 95 823
465 95 901
466 95 1611
467 95 1446
468 95 518
469 95 1124
470 95 2792
471 95 1194
472 95 1332
473 95 1123
474 95 780
475 95 434
476 95 1543
477 95 1922
478 95 1972
479 95 401
480 95 1342
481 95 1600
482 95 883
483 95 893
484 95 831
485 95 1221
486 95 1539
487 95 2200
488 95 1845
489 95 2597
490 95 1814
491 95 2191
492 95 1697
493 95 1550
494 95 546
495 95 1686
496 95 926
497 95 1092
498 95 444
499 95 1500
500 95 2650
1 96 6867
2 96 9122
3 96 10091
4 96 9883
5 96 7923
6 96 4604
7 96 7107
8 96 6467
9 96 5824
10 96 7882
11 96 10687
12 96 5814
13 96 9750
14 96 5898
15 96 10428
16 96 6230
17 96 6611
18 96 6353
19 96 9372
20 96 10150
21 96 8837
22 96 14524
23 96 9056
24 96 6126
25 96 5063
26 96 7612
27 96 12543
28 96 5902
29 96 8837
30 96 6796
31 96 5833
32 96 7622
33 96 7430
34 96 9442
35 96 5902
36 96 7166
37 96 8311
38 96 6972
39 96 7615
40 96 9490
41 96 6155
42 96 6161
43 96 6723
44 96 7769
45 96 6445
46 96 8485
47 96 7075
48 96 4691
49 96 7963
50 96 5440
51 96 4217
52 96 6647
53 96 6476
54 96 8926
55 96 9905
56 96 9928
57 96 9474
58 96 11699
59 96 6984
60 96 9814
61 96 6791
62 96 9436
63 96 6048
64 96 2976
65 96 8055
66 96 6746
67 96 11518
68 96 7468
69 96 10869
70 96 6404
71 96 8950
72 96 9375
73 96 6418
74 96 9727
75 96 15103
76 96 4303
77 96 7789
78 96 10629
79 96 8514
80 96 7619
81 96 7051
82 96 6263
83 96 8171
84 96 6200
85 96 11341
86 96 8959
87 96 10248
88 96 11142
89 96 6887
90 96 6808
91 96 4308
92 96 5948
93 96 5319
94 96 6035
95 96 4553
96 96 7070
97 96 7149
98 96 6874
99 96 10231
100 96 3848
101 96 9509
102 96 6485
103 96 6845
104 96 7630
105 96 11967
106 96 5357
107 96 10829
108 96 6988
109 96 13445
110 96 6703
111 96 7556
112 96 8059
113 96 10665
114 96 11701
115 96 6244
116 96 8446
117 96 6053
118 96 12992
119 96 9838
120 96 5594
121 96 4028
122 96 4154
123 96 6281
124 96 11135
125 96 9790
126 96 9691
127 96 5889
128 96 7252
129 96 8151
130 96 9533
131 96 9531
132 96 5980
133 96 2634
134 96 6150
135 96 7809
136 96 5621
137 96 3888
138 96 11184
139 96 9049
140 96 2894
141 96 7647
142 96 12367
143 96 7115
144 96 5558
145 96 10721
146 96 15002
147 96 6166
148 96 8720
149 96 6389
150 96 12616
151 96 9923
152 96 10433
153 96 2678
154 96 5563
155 96 5746
156 96 7593
157 96 13019
158 96 8305
159 96 11402
160 96 10663
161 96 5676
162 96 2872
163 96 8163
164 96 10537
165 96 9562
166 96 10668
167 96 6096
168 96 9249
169 96 4701
170 96 8524
171 96 10694
172 96 8237
173 96 9396
174 96 6277
175 96 7211
176 96 8003
177 96 8596
178 96 6701
179 96 7432
180 96 6239
181 96 15405
182 96 7169
183 96 7257
184 96 7003
185 96 8664
186 96 11346
187 96 8279
188 96 4730
189 96 12213
190 96 3934
191 96 8076
192 96 11682
193 96 14103
194 96 7970
195 96 6010
196 96 6529
197 96 7327
198 96 5899
199 96 15064
200 96 10947
201 96 8043
202 96 13455
203 96 9613
204 96 6076
205 96 7726
206 96 11163
207 96 3844
208 96 4774
209 96 11331
210 96 4471
211 96 7393
212 96 2681
213 96 7657
214 96 6976
215 96 4052
216 96 5860
217 96 6805
218 96 5962
219 96 9756
220 96 13471
221 96 9651
222 96 8931
223 96 6862
224 96 5610
225 96 8357
226 96 4022
227 96 4924
228 96 6570
229 96 8265
230 96 8338
231 96 10724
232 96 13148
233 96 12978
234 96 8042
235 96 8882
236 96 7866
237 96 3040
238 96 6336
239 96 6836
240 96 7930
241 96 7867
242 96 15236
243 96 7644
244 96 8774
245 96 7745
246 96 3208
247 96 10595
248 96 3667
249 96 7061
250 96 9453
251 96 7852
252 96 3775
253 96 15807
254 96 6111
255 96 12101
256 96 8027
257 96 7538
258 96 9091
259 96 9980
260 96 5116
261 96 6918
262 96 9843
263 96 3387
264 96 6038
265 96 12257
266 96 7470
267 96 8361
268 96 10206
269 96 4685
270 96 5068
271 96 10890
272 96 10020
273 96 8857
274 96 10582
275 96 8385
276 96 6570
277 96 6052
278 96 7773
279 96 7397
280 96 10923
281 96 11654
282 96 12460
283 96 6850
284 96 10612
285 96 4796
286 96 11293
287 96 7833
288 96 6317
289 96 6020
290 96 7133
291 96 6544
292 96 7364
293 96 8290
294 96 10001
295 96 9504
296 96 10982
297 96 3958
298 96 10212
299 96 6922
300 96 5155
301 96 6480
302 96 12715
303 96 9567
304 96 3843
305 96 14464
306 96 9162
307 96 8719
308 96 10122
309 96 6806
310 96 8222
311 96 12173
312 96 8627
313 96 3908
314 96 7284
315 96 6427
316 96 12338
317 96 9854
318 96 6239
319 96 5916
320 96 11886
321 96 4351
322 96 2378
323 96 5637
324 96 3464
325 96 5419
326 96 3986
327 96 6106
328 96 5593
329 96 7945
330 96 7682
331 96 7155
332 96 12889
333 96 6176
334 96 7219
335 96 6691
336 96 6363
337 96 9462
338 96 9523
339 96 5291
340 96 16868
341 96 4835
342 96 6666
343 96 9453
344 96 8531
345 96 8426
346 96 6761
347 96 8051
348 96 6147
349 96 11125
350 96 8906
351 96 7566
352 96 14313
353 96 10594
354 96 3527
355 96 15104
356 96 8940
357 96 8008
358 96 10896
359 96 11336
360 96 10548
361 96 11435
362 96 6878
363 96 7925
364 96 7148
365 96 2869
366 96 5546
367 96 3573
368 96 9016
369 96 5937
370 96 6559
371 96 7866
372 96 10266
373 96 4810
374 96 10820
375 96 8946
376 96 10748
377 96 5910
378 96 9330
379 96 4822
380 96 8765
381 96 11198
382 96 10675
383 96 6632
384 96 6232
385 96 5765
386 96 9799
387 96 9468
388 96 8884
389 96 19313
390 96 12942
391 96 4975
392 96 10827
393 96 7490
394 96 7169
395 96 9030
396 96 2355
397 96 10822
398 96 7245
399 96 8418
400 96 5806
401 96 6597
402 96 8549
403 96 11298
404 96 3904
405 96 5114
406 96 11888
407 96 10578
408 96 8875
409 96 5984
410 96 7386
411 96 5143
412 96 6328
413 96 10982
414 96 7075
415 96 10247
416 96 9980
417 96 7556
418 96 9092
419 96 5159
420 96 5025
421 96 6327
422 96 10088
423 96 6417
424 96 5902
425 96 10687
426 96 7840
427 96 8634
428 96 9407
429 96 12775
430 96 11024
431 96 8243
432 96 6754
433 96 10943
434 96 6283
435 96 7247
436 96 6204
437 96 9857
438 96 7206
439 96 9763
440 96 4692
441 96 8606
442 96 2390
443 96 3951
444 96 7422
445 96 8348
446 96 4169
447 96 9251
448 96 8441
449 96 10140
450 96 5770
451 96 5916
452 96 17515
453 96 7322
454 96 6515
455 96 7167
456 96 12901
457 96 8852
458 96 4893
459 96 5628
460 96 8449
461 96 7629
462 96 10544
463 96 6282
464 96 4787
465 96 6913
466 96 5953
467 96 9000
468 96 6779
469 96 6082
470 96 18821
471 96 10350
472 96 12865
473 96 6738
474 96 9431
475 96 8275
476 96 10021
477 96 10500
478 96 7309
479 96 5905
480 96 6417
481 96 10566
482 96 4850
483 96 9141
484 96 7599
485 96 15478
486 96 10560
487 96 9298
488 96 7081
489 96 11889
490 96 6983
491 96 7489
492 96 10185
493 96 8313
494 96 3010
495 96 8066
496 96 11752
497 96 4001
498 96 7871
499 96 5521
500 96 14684
1 97 1444
2 97 2841
3 97 2235
4 97 3951
5 97 2085
6 97 1546
7 97 3668
8 97 2704
9 97 1864
10 97 4908
11 97 1581
12 97 3861
13 97 2255
14 97 3525
15 97 4067
16 97 1871
17 97 2090
18 97 2321
19 97 2596
20 97 2472
21 97 2698
22 97 4169
23 97 2216
24 97 1976
25 97 1656
26 97 2178
27 97 1287
28 97 2416
29 97 2795
30 97 2279
31 97 5434
32 97 2646
33 97 2422
34 97 2674
35 97 2908
36 97 3497
37 97 2083
38 97 1480
39 97 3712
40 97 2598
41 97 1901
42 97 2212
43 97 3278
44 97 2997
45 97 2987
46 97 3192
47 97 3135
48 97 1591
49 97 3805
50 97 1533
51 97 1029
52 97 1568
53 97 2403
54 97 2032
55 97 2403
56 97 3769
57 97 3130
58 97 3551
59 97 2909
60 97 2996
61 97 3879
62 97 2886
63 97 5151
64 97 3239
65 97 2144
66 97 4014
67 97 5825
68 97 3267
69 97 4205
70 97 2688
71 97 3083
72 97 3527
73 97 3204
74 97 1879
75 97 2941
76 97 2510
77 97 5453
78 97 3071
79 97 4060
80 97 3584
81 97 3266
82 97 3084
83 97 3167
84 97 2185
85 97 2834
86 97 2102
87 97 4241
88 97 1975
89 97 5804
90 97 4129
91 97 3388
92 97 3340
93 97 4141
94 97 4096
95 97 1521
96 97 3447
97 97 6085
98 97 3131
99 97 2144
100 97 4294
101 97 2711
102 97 3617
103 97 2766
104 97 3311
105 97 1245
106 97 2405
107 97 2735
108 97 2362
109 97 4521
110 97 2290
111 97 1811
112 97 1899
113 97 2913
114 97 2146
115 97 4196
116 97 3638
117 97 2140
118 97 4004
119 97 3459
120 97 3235
121 97 2172
122 97 3091
123 97 2737
124 97 3085
125 97 2398
126 97 4609
127 97 2385
128 97 1683
129 97 2823
130 97 3517
131 97 3866
132 97 2412
133 97 1828
134 97 3382
135 97 2323
136 97 2152
137 97 3033
138 97 3891
139 97 2854
140 97 1527
141 97 1947
142 97 1310
143 97 1604
144 97 2340
145 97 3541
146 97 1567
147 97 1636
148 97 2026
149 97 5118
150 97 3182
151 97 2431
152 97 4506
153 97 1901
154 97 3335
155 97 1830
156 97 3906
157 97 1548
158 97 3581
159 97 2745
160 97 2391
161 97 1395
162 97 1503
163 97 1752
164 97 4486
165 97 2724
166 97 2125
167 97 2638
168 97 2610
169 97 1577
170 97 3616
171 97 4181
172 97 2316
173 97 3311
174 97 3526
175 97 2630
176 97 1628
177 97 2043
178 97 1804
179 97 3322
180 97 2875
181 97 3025
182 97 2431
183 97 1291
184 97 3973
185 97 2464
186 97 2375
187 97 1614
188 97 2249
189 97 2699
190 97 3871
191 97 1340
192 97 1699
193 97 2579
194 97 3139
195 97 2713
196 97 3079
197 97 4489
198 97 1907
199 97 2250
200 97 3000
201 97 2259
202 97 2437
203 97 3105
204 97 2326
205 97 2926
206 97 2501
207 97 2383
208 97 2534
209 97 2508
210 97 1493
211 97 3614
212 97 1068
213 97 2805
214 97 2298
215 97 2068
216 97 2148
217 97 3122
218 97 1638
219 97 3860
220 97 4531
221 97 1852
222 97 3148
223 97 2254
224 97 2003
225 97 3963
226 97 2456
227 97 1629
228 97 1471
229 97 2580
230 97 1914
231 97 1945
232 97 2524
233 97 3201
234 97 1755
235 97 5575
236 97 4610
237 97 1190
238 97 1548
239 97 3569
240 97 1832
241 97 2262
242 97 1929
243 97 2915
244 97 2722
245 97 2452
246 97 3279
247 97 3567
248 97 2888
249 97 2819
250 97 3468
251 97 3552
252 97 1362
253 97 3376
254 97 2930
255 97 3566
256 97 3146
257 97 3481
258 97 3319
259 97 3409
260 97 2515
261 97 3868
262 97 6144
263 97 2038
264 97 3940
265 97 2812
266 97 3977
267 97 3562
268 97 4177
269 97 1874
270 97 1521
271 97 2865
272 97 1623
273 97 2313
274 97 3453
275 97 2739
276 97 1570
277 97 2200
278 97 3362
279 97 1772
280 97 2016
281 97 2978
282 97 1714
283 97 1630
284 97 1799
285 97 2743
286 97 2611
287 97 1783
288 97 4158
289 97 2184
290 97 4322
291 97 3305
292 97 1989
293 97 1871
294 97 2773
295 97 5116
296 97 2249
297 97 2008
298 97 5005
299 97 1667
300 97 3965
301 97 2545
302 97 5147
303 97 3199
304 97 2357
305 97 3445
306 97 3166
307 97 3072
308 97 2918
309 97 2737
310 97 7564
311 97 3692
312 97 1539
313 97 1383
314 97 3484
315 97 2663
316 97 3589
317 97 2356
318 97 2094
319 97 3140
320 97 3442
321 97 1930
322 97 1401
323 97 3388
324 97 1912
325 97 2548
326 97 3890
327 97 2772
328 97 1591
329 97 2205
330 97 2028
331 97 2936
332 97 5357
333 97 2199
334 97 2990
335 97 1925
336 97 2035
337 97 2644
338 97 2509
339 97 2413
340 97 2575
341 97 1624
342 97 1948
343 97 2935
344 97 2149
345 97 3292
346 97 3160
347 97 4105
348 97 3581
349 97 4539
350 97 3043
351 97 3196
352 97 1597
353 97 2879
354 97 1927
355 97 2171
356 97 2335
357 97 3286
358 97 2592
359 97 2541
360 97 4468
361 97 4558
362 97 3349
363 97 3043
364 97 6184
365 97 1517
366 97 3554
367 97 1950
368 97 2075
369 97 2961
370 97 2845
371 97 3539
372 97 3552
373 97 1510
374 97 2473
375 97 3381
376 97 3117
377 97 2094
378 97 3361
379 97 1643
380 97 5100
381 97 4614
382 97 2646
383 97 2955
384 97 4382
385 97 4186
386 97 4270
387 97 3996
388 97 2134
389 97 3165
390 97 2083
391 97 3079
392 97 1999
393 97 2264
394 97 1763
395 97 4063
396 97 1361
397 97 3270
398 97 2074
399 97 3544
400 97 1881
401 97 3199
402 97 2750
403 97 2481
404 97 2825
405 97 1703
406 97 1596
407 97 2545
408 97 2030
409 97 3445
410 97 2396
411 97 3231
412 97 3484
413 97 2878
414 97 2405
415 97 2651
416 97 2362
417 97 2687
418 97 4308
419 97 3567
420 97 1628
421 97 2835
422 97 2245
423 97 2030
424 97 1767
425 97 3167
426 97 2218
427 97 1708
428 97 1139
429 97 1492
430 97 5929
431 97 4188
432 97 1564
433 97 2982
434 97 2567
435 97 2943
436 97 3303
437 97 2839
438 97 4286
439 97 6344
440 97 2601
441 97 3586
442 97 1394
443 97 2900
444 97 2853
445 97 2657
446 97 3054
447 97 3912
448 97 2996
449 97 2260
450 97 1959
451 97 2261
452 97 3262
453 97 3377
454 97 1924
455 97 4632
456 97 1666
457 97 4287
458 97 4416
459 97 3569
460 97 3274
461 97 3978
462 97 4145
463 97 1529
464 97 2335
465 97 2280
466 97 2055
467 97 2512
468 97 3460
469 97 3326
470 97 4433
471 97 4204
472 97 2461
473 97 4714
474 97 4052
475 97 2521
476 97 3905
477 97 2137
478 97 3732
479 97 2470
480 97 3127
481 97 2986
482 97 3155
483 97 2092
484 97 2525
485 97 3477
486 97 2005
487 97 3547
488 97 4076
489 97 3901
490 97 2940
491 97 2322
492 97 2854
493 97 1816
494 97 2416
495 97 1719
496 97 2396
497 97 2433
498 97 3656
499 97 2484
500 97 5370
1 98 4129
2 98 4795
3 98 2934
4 98 3574
5 98 1726
6 98 2598
7 98 3355
8 98 4504
9 98 3449
10 98 5650
11 98 4475
12 98 3970
13 98 4645
14 98 3446
15 98 3962
16 98 3001
17 98 3533
18 98 2782
19 98 3206
20 98 2859
21 98 3442
22 98 6253
23 98 925
24 98 3048
25 98 2914
26 98 3744
27 98 1362
28 98 7011
29 98 4520
30 98 5615
31 98 3086
32 98 4570
33 98 2598
34 98 3997
35 98 5375
36 98 2271
37 98 4564
38 98 1609
39 98 4404
40 98 3280
41 98 3032
42 98 1958
43 98 5743
44 98 3771
45 98 5390
46 98 2677
47 98 4289
48 98 2640
49 98 5084
50 98 1442
51 98 2655
52 98 2299
53 98 2880
54 98 2236
55 98 2183
56 98 3964
57 98 4565
58 98 3678
59 98 3626
60 98 2623
61 98 3506
62 98 3688
63 98 4270
64 98 3967
65 98 1740
66 98 1852
67 98 3251
68 98 3313
69 98 3367
70 98 2811
71 98 3988
72 98 5253
73 98 4210
74 98 8414
75 98 6926
76 98 2811
77 98 3407
78 98 3777
79 98 4860
80 98 2892
81 98 3828
82 98 3550
83 98 4992
84 98 1992
85 98 3089
86 98 4896
87 98 4143
88 98 2587
89 98 3346
90 98 3927
91 98 2593
92 98 3305
93 98 2968
94 98 2279
95 98 2615
96 98 3189
97 98 3406
98 98 3346
99 98 3966
100 98 5095
101 98 4195
102 98 4755
103 98 3756
104 98 3212
105 98 1351
106 98 4787
107 98 3550
108 98 3746
109 98 3570
110 98 3710
111 98 2164
112 98 2371
113 98 5272
114 98 3900
115 98 3911
116 98 4098
117 98 2075
118 98 3405
119 98 2977
120 98 4141
121 98 2285
122 98 2346
123 98 2537
124 98 5073
125 98 2124
126 98 5683
127 98 5302
128 98 6410
129 98 3479
130 98 5224
131 98 4439
132 98 6766
133 98 1287
134 98 3500
135 98 2644
136 98 2970
137 98 2396
138 98 1784
139 98 2344
140 98 2966
141 98 4925
142 98 1364
143 98 1660
144 98 2663
145 98 6081
146 98 4335
147 98 5376
148 98 4672
149 98 4706
150 98 3313
151 98 3779
152 98 4072
153 98 1313
154 98 2846
155 98 2947
156 98 5126
157 98 2154
158 98 5689
159 98 3229
160 98 1944
161 98 2834
162 98 2905
163 98 1940
164 98 4347
165 98 7219
166 98 3828
167 98 3810
168 98 4709
169 98 2598
170 98 3291
171 98 4998
172 98 3500
173 98 4430
174 98 4439
175 98 5545
176 98 3059
177 98 6301
178 98 4159
179 98 4241
180 98 2477
181 98 5095
182 98 3239
183 98 5057
184 98 1817
185 98 5091
186 98 3019
187 98 3100
188 98 1421
189 98 3817
190 98 1948
191 98 5651
192 98 5077
193 98 3331
194 98 3222
195 98 3816
196 98 4148
197 98 5693
198 98 3131
199 98 5095
200 98 4291
201 98 3566
202 98 3111
203 98 3150
204 98 1672
205 98 4832
206 98 2479
207 98 2575
208 98 3075
209 98 2404
210 98 2357
211 98 3932
212 98 1590
213 98 3527
214 98 3877
215 98 4234
216 98 4341
217 98 3104
218 98 2924
219 98 4893
220 98 6407
221 98 3910
222 98 1848
223 98 3170
224 98 3133
225 98 5053
226 98 3003
227 98 2694
228 98 2436
229 98 2079
230 98 4469
231 98 5222
232 98 2908
233 98 3706
234 98 2800
235 98 3325
236 98 4413
237 98 1730
238 98 3199
239 98 2158
240 98 3060
241 98 2696
242 98 4347
243 98 4398
244 98 1641
245 98 3326
246 98 3485
247 98 4199
248 98 3432
249 98 3631
250 98 2284
251 98 3850
252 98 2814
253 98 3298
254 98 2999
255 98 2987
256 98 3317
257 98 5444
258 98 2806
259 98 5613
260 98 2572
261 98 2594
262 98 4772
263 98 2160
264 98 4022
265 98 4349
266 98 5076
267 98 3825
268 98 4260
269 98 3498
270 98 2290
271 98 4113
272 98 4723
273 98 2556
274 98 5095
275 98 4697
276 98 2267
277 98 2037
278 98 2379
279 98 3189
280 98 2610
281 98 2933
282 98 3890
283 98 4661
284 98 3174
285 98 2415
286 98 2372
287 98 2773
288 98 3893
289 98 4456
290 98 2398
291 98 6124
292 98 2432
293 98 4612
294 98 7141
295 98 7877
296 98 4304
297 98 4725
298 98 4100
299 98 2310
300 98 4215
301 98 5113
302 98 4389
303 98 2571
304 98 2562
305 98 4711
306 98 4687
307 98 4078
308 98 6422
309 98 5212
310 98 7034
311 98 3088
312 98 4020
313 98 3072
314 98 4952
315 98 3526
316 98 4005
317 98 3707
318 98 1960
319 98 5974
320 98 4672
321 98 3948
322 98 1931
323 98 2873
324 98 2209
325 98 6000
326 98 1928
327 98 3478
328 98 1379
329 98 2413
330 98 3840
331 98 2372
332 98 4410
333 98 2119
334 98 3210
335 98 2412
336 98 4097
337 98 5665
338 98 5260
339 98 2198
340 98 4472
341 98 2650
342 98 2569
343 98 2302
344 98 2877
345 98 4256
346 98 3137
347 98 1744
348 98 5117
349 98 5482
350 98 3388
351 98 2441
352 98 3543
353 98 3326
354 98 2294
355 98 5213
356 98 4519
357 98 3101
358 98 2092
359 98 2412
360 98 5710
361 98 4863
362 98 3889
363 98 3770
364 98 3265
365 98 3039
366 98 3492
367 98 2290
368 98 3005
369 98 3889
370 98 2050
371 98 6033
372 98 6316
373 98 2649
374 98 6228
375 98 3908
376 98 4203
377 98 3268
378 98 4523
379 98 2772
380 98 4768
381 98 3958
382 98 2710
383 98 5329
384 98 3188
385 98 5555
386 98 5222
387 98 4700
388 98 2220
389 98 4167
390 98 5810
391 98 2714
392 98 3921
393 98 5124
394 98 3371
395 98 3387
396 98 2033
397 98 5061
398 98 1945
399 98 5268
400 98 2882
401 98 3945
402 98 4514
403 98 2429
404 98 2574
405 98 2326
406 98 5340
407 98 2653
408 98 4758
409 98 4458
410 98 4350
411 98 6844
412 98 4071
413 98 4917
414 98 4340
415 98 3136
416 98 3102
417 98 4762
418 98 3980
419 98 4002
420 98 2915
421 98 4124
422 98 3890
423 98 3958
424 98 1699
425 98 3811
426 98 3698
427 98 5092
428 98 3869
429 98 2818
430 98 5951
431 98 5039
432 98 3214
433 98 3737
434 98 5683
435 98 4036
436 98 3124
437 98 2644
438 98 4079
439 98 4826
440 98 4387
441 98 5974
442 98 2003
443 98 5038
444 98 4864
445 98 4758
446 98 2479
447 98 5475
448 98 3865
449 98 3013
450 98 1456
451 98 5274
452 98 3749
453 98 4506
454 98 3395
455 98 3886
456 98 2154
457 98 3167
458 98 3865
459 98 2416
460 98 5765
461 98 1519
462 98 6017
463 98 2749
464 98 3464
465 98 3025
466 98 4591
467 98 2421
468 98 3770
469 98 5555
470 98 4037
471 98 4684
472 98 2946
473 98 4642
474 98 3859
475 98 2464
476 98 4579
477 98 1746
478 98 4204
479 98 3928
480 98 4227
481 98 4640
482 98 2672
483 98 2294
484 98 3371
485 98 3437
486 98 3584
487 98 3027
488 98 4077
489 98 4800
490 98 2822
491 98 1927
492 98 3427
493 98 4753
494 98 2126
495 98 4533
496 98 2342
497 98 2115
498 98 5175
499 98 5654
500 98 4307
1 99 2747
2 99 5148
3 99 3139
4 99 3328
5 99 2418
6 99 1190
7 99 2362
8 99 2257
9 99 3491
10 99 4788
11 99 5014
12 99 5210
13 99 3939
14 99 3259
15 99 4830
16 99 1485
17 99 3259
18 99 2102
19 99 4150
20 99 1933
21 99 3042
22 99 5570
23 99 1357
24 99 1692
25 99 5258
26 99 3048
27 99 1455
28 99 5739
29 99 2979
30 99 6169
31 99 3821
32 99 3700
33 99 3721
34 99 4042
35 99 2549
36 99 3269
37 99 4068
38 99 2248
39 99 2847
40 99 6264
41 99 1637
42 99 1760
43 99 4414
44 99 3766
45 99 2017
46 99 4146
47 99 4812
48 99 1197
49 99 3402
50 99 1101
51 99 2820
52 99 1370
53 99 2129
54 99 1550
55 99 2727
56 99 5976
57 99 2474
58 99 4441
59 99 6597
60 99 3931
61 99 1814
62 99 3230
63 99 2352
64 99 2708
65 99 2362
66 99 2527
67 99 3728
68 99 3415
69 99 3745
70 99 2236
71 99 4619
72 99 4216
73 99 4834
74 99 2506
75 99 5362
76 99 2792
77 99 4737
78 99 3093
79 99 5169
80 99 5957
81 99 3167
82 99 3874
83 99 4885
84 99 2178
85 99 5270
86 99 2892
87 99 3254
88 99 2449
89 99 5504
90 99 4729
91 99 2931
92 99 2977
93 99 3292
94 99 2441
95 99 1125
96 99 3287
97 99 4550
98 99 1799
99 99 3315
100 99 4992
101 99 4633
102 99 4544
103 99 4202
104 99 4833
105 99 1405
106 99 4692
107 99 6153
108 99 4868
109 99 4179
110 99 3937
111 99 2889
112 99 2308
113 99 3716
114 99 2516
115 99 4617
116 99 5782
117 99 2021
118 99 5191
119 99 3867
120 99 3714
121 99 1969
122 99 3236
123 99 6485
124 99 3495
125 99 2564
126 99 4284
127 99 2222
128 99 3361
129 99 4437
130 99 7114
131 99 3602
132 99 5741
133 99 2890
134 99 4508
135 99 2016
136 99 2634
137 99 2726
138 99 3515
139 99 3682
140 99 1554
141 99 2208
142 99 1362
143 99 2314
144 99 3948
145 99 7028
146 99 2501
147 99 4722
148 99 2313
149 99 3529
150 99 6789
151 99 4097
152 99 5816
153 99 2926
154 99 3916
155 99 4493
156 99 5346
157 99 2836
158 99 4623
159 99 4027
160 99 3079
161 99 2095
162 99 1530
163 99 1882
164 99 5879
165 99 3994
166 99 2346
167 99 3822
168 99 4374
169 99 1193
170 99 4050
171 99 8564
172 99 4575
173 99 3578
174 99 3878
175 99 3098
176 99 2952
177 99 4987
178 99 4338
179 99 2960
180 99 3412
181 99 5179
182 99 2896
183 99 4257
184 99 2484
185 99 5645
186 99 2387
187 99 3643
188 99 2601
189 99 4840
190 99 1859
191 99 2084
192 99 2387
193 99 3995
194 99 4188
195 99 5715
196 99 4671
197 99 6016
198 99 3613
199 99 3639
200 99 2912
201 99 4632
202 99 1790
203 99 2481
204 99 3049
205 99 4417
206 99 2502
207 99 2178
208 99 1902
209 99 2612
210 99 1559
211 99 2873
212 99 801
213 99 4033
214 99 3125
215 99 3364
216 99 5462
217 99 4013
218 99 2744
219 99 3606
220 99 4821
221 99 4757
222 99 4607
223 99 4834
224 99 2729
225 99 3343
226 99 2693
227 99 1218
228 99 3386
229 99 4001
230 99 3209
231 99 4742
232 99 3125
233 99 4627
234 99 2928
235 99 4032
236 99 5760
237 99 1902
238 99 2770
239 99 2744
240 99 3231
241 99 1956
242 99 4289
243 99 4705
244 99 1944
245 99 2506
246 99 4030
247 99 5820
248 99 2099
249 99 2610
250 99 3871
251 99 5118
252 99 3913
253 99 3309
254 99 3855
255 99 3592
256 99 4107
257 99 2719
258 99 3398
259 99 4811
260 99 4669
261 99 3057
262 99 2899
263 99 1898
264 99 3352
265 99 4931
266 99 5368
267 99 4208
268 99 3163
269 99 2168
270 99 2535
271 99 3313
272 99 4460
273 99 3640
274 99 5322
275 99 3762
276 99 3477
277 99 1929
278 99 3162
279 99 2267
280 99 2526
281 99 4498
282 99 3224
283 99 2824
284 99 2801
285 99 4708
286 99 2804
287 99 3592
288 99 4507
289 99 5526
290 99 2375
291 99 5493
292 99 3552
293 99 3753
294 99 3814
295 99 2579
296 99 3742
297 99 2597
298 99 3317
299 99 3965
300 99 3834
301 99 4600
302 99 3072
303 99 3539
304 99 2214
305 99 4579
306 99 5585
307 99 5205
308 99 3359
309 99 6211
310 99 7447
311 99 4809
312 99 3193
313 99 3916
314 99 3500
315 99 2869
316 99 5667
317 99 2971
318 99 2356
319 99 2395
320 99 4640
321 99 3077
322 99 1887
323 99 3860
324 99 1925
325 99 2860
326 99 1769
327 99 5945
328 99 1077
329 99 4011
330 99 4026
331 99 3520
332 99 3092
333 99 1986
334 99 5945
335 99 2101
336 99 4233
337 99 2613
338 99 4086
339 99 3029
340 99 3627
341 99 1287
342 99 2178
343 99 3616
344 99 5960
345 99 3171
346 99 4917
347 99 3496
348 99 6020
349 99 5406
350 99 2891
351 99 2936
352 99 4250
353 99 3132
354 99 2029
355 99 3693
356 99 5998
357 99 3548
358 99 1843
359 99 2560
360 99 3110
361 99 4097
362 99 3360
363 99 1837
364 99 4727
365 99 1638
366 99 3145
367 99 2129
368 99 3631
369 99 4626
370 99 4239
371 99 5878
372 99 5127
373 99 3383
374 99 3987
375 99 7810
376 99 2952
377 99 2726
378 99 3515
379 99 1239
380 99 5287
381 99 3339
382 99 4589
383 99 6062
384 99 4275
385 99 5613
386 99 3470
387 99 4296
388 99 1627
389 99 3724
390 99 5746
391 99 3201
392 99 4189
393 99 2982
394 99 2578
395 99 2730
396 99 1837
397 99 4981
398 99 2743
399 99 3570
400 99 5018
401 99 4487
402 99 3814
403 99 2630
404 99 2909
405 99 1523
406 99 4514
407 99 3361
408 99 2822
409 99 5693
410 99 3219
411 99 3654
412 99 3458
413 99 2314
414 99 3815
415 99 5250
416 99 2166
417 99 2610
418 99 4914
419 99 3390
420 99 5277
421 99 4520
422 99 4992
423 99 4183
424 99 2483
425 99 4658
426 99 3120
427 99 3902
428 99 4628
429 99 3262
430 99 6355
431 99 6033
432 99 2354
433 99 4209
434 99 3406
435 99 5426
436 99 3022
437 99 3610
438 99 3658
439 99 2968
440 99 4297
441 99 3342
442 99 1863
443 99 2353
444 99 2839
445 99 3008
446 99 2450
447 99 6200
448 99 3648
449 99 2140
450 99 2028
451 99 2322
452 99 3266
453 99 2442
454 99 3616
455 99 3809
456 99 2847
457 99 3433
458 99 3399
459 99 3758
460 99 2953
461 99 2471
462 99 4649
463 99 3198
464 99 2150
465 99 2952
466 99 4374
467 99 1961
468 99 3684
469 99 4181
470 99 4747
471 99 5015
472 99 3114
473 99 2396
474 99 4741
475 99 3166
476 99 4051
477 99 1574
478 99 4830
479 99 3012
480 99 4968
481 99 4113
482 99 1499
483 99 1595
484 99 2388
485 99 3627
486 99 5189
487 99 4590
488 99 2310
489 99 3320
490 99 4434
491 99 4000
492 99 4045
493 99 3749
494 99 1805
495 99 5357
496 99 3487
497 99 2059
498 99 3103
499 99 4028
500 99 3899
1 100 34
2 100 193
3 100 62
4 100 3
5 100 35
6 100 31
7 100 145
8 100 26
9 100 10
10 100 31
11 100 93
12 100 54
13 100 65
14 100 121
15 100 105
16 100 49
17 100 8
18 100 89
19 100 25
20 100 79
22 100 168
23 100 76
24 100 48
25 100 202
26 100 7
27 100 40
28 100 28
29 100 73
30 100 66
31 100 106
32 100 17
33 100 188
34 100 67
35 100 4
36 100 55
37 100 100
38 100 34
39 100 77
40 100 216
41 100 39
42 100 52
43 100 27
44 100 134
45 100 105
46 100 64
47 100 26
48 100 37
49 100 50
50 100 21
51 100 39
52 100 21
53 100 96
54 100 34
55 100 64
56 100 71
57 100 25
58 100 31
59 100 58
60 100 67
62 100 178
63 100 147
64 100 25
65 100 47
66 100 99
67 100 99
68 100 5
69 100 53
70 100 52
71 100 53
72 100 28
73 100 131
74 100 117
76 100 15
78 100 28
79 100 79
80 100 173
81 100 26
82 100 124
83 100 155
84 100 30
85 100 180
86 100 32
87 100 24
88 100 4
89 100 224
90 100 178
91 100 71
92 100 109
93 100 26
94 100 115
95 100 40
96 100 155
97 100 109
98 100 153
99 100 107
100 100 56
101 100 84
102 100 131
103 100 63
104 100 27
105 100 44
106 100 64
107 100 54
108 100 99
109 100 44
110 100 60
111 100 18
112 100 5
113 100 170
114 100 193
115 100 16
116 100 181
117 100 40
118 100 139
119 100 49
120 100 145
121 100 92
122 100 103
123 100 28
124 100 8
125 100 65
126 100 67
127 100 63
128 100 22
129 100 31
130 100 52
131 100 48
132 100 24
133 100 49
134 100 50
135 100 60
136 100 5
137 100 124
138 100 3
139 100 42
140 100 73
141 100 86
142 100 43
143 100 29
144 100 93
145 100 230
146 100 138
147 100 138
148 100 25
149 100 185
150 100 111
151 100 139
152 100 116
153 100 35
154 100 49
155 100 6
156 100 70
157 100 62
158 100 164
159 100 20
160 100 89
161 100 18
162 100 62
163 100 44
164 100 138
165 100 11
166 100 152
167 100 24
168 100 90
169 100 30
170 100 107
171 100 6
172 100 145
173 100 103
174 100 111
175 100 41
176 100 133
177 100 68
179 100 89
180 100 151
181 100 75
182 100 21
183 100 88
184 100 108
185 100 29
186 100 183
187 100 149
188 100 22
189 100 68
190 100 145
191 100 56
192 100 19
193 100 71
194 100 96
195 100 110
196 100 129
197 100 31
198 100 8
199 100 64
200 100 110
201 100 184
202 100 83
203 100 113
205 100 93
206 100 69
207 100 114
208 100 91
209 100 67
210 100 49
211 100 140
212 100 45
213 100 53
214 100 5
215 100 53
216 100 184
217 100 128
218 100 70
219 100 109
220 100 82
221 100 191
222 100 3
223 100 104
224 100 20
225 100 17
226 100 73
227 100 21
228 100 6
229 100 79
230 100 7
232 100 114
233 100 3
234 100 103
235 100 99
236 100 257
237 100 81
238 100 25
239 100 52
240 100 89
241 100 53
242 100 73
243 100 100
244 100 90
245 100 107
246 100 125
247 100 122
248 100 114
249 100 123
250 100 124
251 100 73
252 100 67
253 100 7
254 100 48
255 100 70
256 100 89
257 100 47
258 100 141
259 100 59
260 100 32
261 100 46
262 100 7
263 100 56
264 100 30
265 100 218
266 100 68
267 100 71
268 100 32
269 100 99
270 100 74
271 100 147
272 100 50
273 100 2
274 100 29
275 100 70
276 100 7
277 100 30
278 100 8
279 100 39
280 100 7
281 100 25
282 100 50
283 100 139
284 100 60
285 100 101
286 100 5
287 100 56
288 100 24
289 100 195
290 100 83
291 100 66
292 100 22
293 100 119
295 100 67
296 100 137
297 100 19
298 100 115
299 100 24
300 100 55
301 100 141
302 100 6
303 100 108
304 100 110
306 100 255
307 100 149
308 100 120
309 100 5
310 100 91
311 100 159
312 100 2
313 100 64
314 100 7
315 100 218
316 100 166
317 100 78
318 100 75
319 100 208
320 100 90
322 100 3
323 100 56
324 100 55
325 100 146
326 100 153
327 100 58
328 100 18
329 100 80
330 100 109
331 100 139
332 100 6
333 100 29
334 100 104
335 100 48
336 100 63
337 100 75
338 100 48
339 100 39
340 100 130
341 100 30
342 100 4
343 100 71
344 100 193
345 100 3
346 100 102
347 100 94
348 100 19
349 100 176
350 100 111
351 100 56
352 100 59
353 100 112
354 100 56
355 100 76
356 100 34
357 100 9
358 100 46
359 100 75
360 100 97
361 100 104
362 100 7
363 100 55
364 100 97
365 100 74
366 100 116
367 100 54
368 100 26
369 100 235
370 100 105
371 100 130
373 100 18
374 100 5
375 100 23
376 100 77
377 100 30
378 100 91
379 100 39
380 100 53
381 100 7
382 100 72
383 100 33
384 100 102
385 100 3
386 100 3
387 100 133
388 100 33
389 100 2
390 100 144
391 100 51
392 100 80
393 100 27
394 100 34
395 100 107
396 100 2
397 100 17
398 100 39
399 100 115
400 100 100
401 100 186
402 100 61
403 100 71
404 100 74
405 100 45
406 100 146
407 100 56
408 100 30
409 100 110
410 100 29
411 100 157
412 100 89
413 100 196
414 100 16
415 100 188
416 100 41
417 100 63
418 100 114
419 100 40
420 100 209
421 100 8
422 100 78
423 100 75
424 100 4
425 100 141
426 100 241
427 100 47
428 100 43
429 100 149
430 100 66
431 100 107
432 100 156
433 100 8
434 100 148
435 100 7
436 100 73
437 100 49
438 100 197
439 100 5
440 100 7
441 100 10
442 100 4
443 100 89
444 100 54
445 100 114
447 100 122
448 100 88
449 100 44
450 100 65
451 100 64
452 100 137
453 100 54
454 100 83
455 100 24
456 100 74
457 100 107
458 100 76
459 100 141
460 100 81
461 100 54
462 100 182
463 100 156
464 100 86
465 100 44
466 100 57
467 100 93
468 100 71
469 100 5
470 100 263
471 100 28
472 100 106
473 100 6
474 100 124
475 100 82
476 100 172
477 100 92
478 100 4
479 100 46
480 100 125
481 100 25
482 100 21
483 100 29
484 100 22
485 100 67
486 100 3
487 100 93
488 100 1
489 100 69
490 100 123
491 100 25
492 100 81
493 100 113
494 100 56
495 100 80
496 100 72
497 100 92
498 100 106
499 100 22
500 100 34
2 101 13
28 101 9
30 101 7
49 101 10
50 101 6
56 101 7
78 101 4
88 101 3
96 101 3
98 101 2
104 101 8
132 101 2
135 101 5
148 101 8
155 101 2
167 101 7
174 101 5
181 101 8
186 101 5
200 101 2
211 101 2
213 101 7
217 101 3
240 101 5
241 101 7
264 101 6
267 101 10
280 101 4
292 101 5
296 101 26
306 101 6
311 101 10
328 101 4
373 101 8
382 101 7
384 101 1
387 101 5
390 101 3
404 101 7
406 101 5
410 101 8
418 101 4
419 101 11
421 101 6
437 101 4
469 101 4
488 101 6
491 101 8
1 102 2379
2 102 2947
3 102 1850
4 102 1728
5 102 1340
6 102 1730
7 102 1440
8 102 1830
9 102 1849
10 102 1847
11 102 1965
12 102 2343
13 102 1859
14 102 2324
15 102 1929
16 102 2671
17 102 2302
18 102 2541
19 102 2168
20 102 1962
21 102 3167
22 102 2960
23 102 1867
24 102 1869
25 102 3915
26 102 3157
27 102 935
28 102 1927
29 102 1605
30 102 1294
31 102 1826
32 102 1555
33 102 1883
34 102 2593
35 102 2159
36 102 2078
37 102 3769
38 102 1050
39 102 3369
40 102 3414
41 102 1854
42 102 769
43 102 3216
44 102 1850
45 102 431
46 102 1946
47 102 3024
48 102 1758
49 102 2086
50 102 538
51 102 1545
52 102 1181
53 102 2630
54 102 1366
55 102 2020
56 102 1974
57 102 2861
58 102 1798
59 102 2180
60 102 1632
61 102 3196
62 102 2292
63 102 3722
64 102 2260
65 102 1369
66 102 2133
67 102 2960
68 102 2695
69 102 3550
70 102 2211
71 102 1572
72 102 2476
73 102 2148
74 102 2445
75 102 3638
76 102 1785
77 102 1911
78 102 1757
79 102 1172
80 102 1431
81 102 2898
82 102 2158
83 102 806
84 102 1148
85 102 3396
86 102 3085
87 102 2136
88 102 1187
89 102 1578
90 102 1860
91 102 2540
92 102 3652
93 102 1640
94 102 2000
95 102 1746
96 102 2611
97 102 2966
98 102 2782
99 102 2283
100 102 2924
101 102 2161
102 102 1976
103 102 2417
104 102 1666
105 102 960
106 102 1932
107 102 904
108 102 798
109 102 2381
110 102 2105
111 102 1161
112 102 1135
113 102 2141
114 102 506
115 102 1407
116 102 3106
117 102 1539
118 102 3131
119 102 2382
120 102 2152
121 102 1494
122 102 1712
123 102 2263
124 102 1976
125 102 3126
126 102 3330
127 102 1852
128 102 1708
129 102 2356
130 102 2190
131 102 1370
132 102 2055
133 102 1256
134 102 2046
135 102 2066
136 102 2008
137 102 2449
138 102 2049
139 102 2229
140 102 767
141 102 2560
142 102 1001
143 102 1120
144 102 2601
145 102 1977
146 102 1995
147 102 2674
148 102 1812
149 102 2485
150 102 1731
151 102 1885
152 102 1917
153 102 1185
154 102 2829
155 102 2504
156 102 1972
157 102 2353
158 102 3110
159 102 2911
160 102 2111
161 102 2170
162 102 768
163 102 1577
164 102 1946
165 102 2169
166 102 2444
167 102 2341
168 102 1583
169 102 1712
170 102 2338
171 102 2443
172 102 2806
173 102 3689
174 102 1737
175 102 2361
176 102 1459
177 102 2093
178 102 2636
179 102 2177
180 102 1720
181 102 2419
182 102 1634
183 102 2453
184 102 2028
185 102 1923
186 102 2341
187 102 1990
188 102 1565
189 102 2607
190 102 1087
191 102 2741
192 102 2013
193 102 1232
194 102 1900
195 102 3554
196 102 1656
197 102 2333
198 102 1381
199 102 1471
200 102 1925
201 102 2818
202 102 2388
203 102 1727
204 102 1496
205 102 819
206 102 833
207 102 1797
208 102 1245
209 102 840
210 102 887
211 102 2275
212 102 1008
213 102 2353
214 102 1888
215 102 1648
216 102 1666
217 102 2065
218 102 2303
219 102 2324
220 102 2983
221 102 2078
222 102 1134
223 102 2339
224 102 1207
225 102 2482
226 102 2352
227 102 1744
228 102 2299
229 102 1018
230 102 1560
231 102 3617
232 102 1144
233 102 1845
234 102 2141
235 102 1824
236 102 1810
237 102 1078
238 102 2157
239 102 2074
240 102 1828
241 102 1935
242 102 2004
243 102 1733
244 102 1103
245 102 2221
246 102 3621
247 102 2801
248 102 1874
249 102 2147
250 102 1999
251 102 2403
252 102 1679
253 102 1188
254 102 1776
255 102 3322
256 102 1905
257 102 2051
258 102 2348
259 102 2288
260 102 2179
261 102 3579
262 102 1636
263 102 1508
264 102 3679
265 102 2767
266 102 1937
267 102 1198
268 102 2097
269 102 1565
270 102 1212
271 102 1704
272 102 3069
273 102 1913
274 102 1695
275 102 2542
276 102 2224
277 102 1484
278 102 2048
279 102 1506
280 102 1286
281 102 1781
282 102 1828
283 102 2069
284 102 886
285 102 2684
286 102 1716
287 102 1451
288 102 1385
289 102 1690
290 102 2845
291 102 1840
292 102 1733
293 102 2663
294 102 1717
295 102 2875
296 102 1626
297 102 1301
298 102 2696
299 102 3096
300 102 1707
301 102 1868
302 102 1298
303 102 1441
304 102 1758
305 102 2174
306 102 1551
307 102 3643
308 102 2817
309 102 1310
310 102 2194
311 102 3836
312 102 1701
313 102 1743
314 102 3160
315 102 4095
316 102 2802
317 102 2629
318 102 635
319 102 3273
320 102 2876
321 102 2046
322 102 1051
323 102 2785
324 102 1547
325 102 2316
326 102 1084
327 102 2654
328 102 551
329 102 1248
330 102 2334
331 102 2037
332 102 1296
333 102 1457
334 102 2053
335 102 1943
336 102 1668
337 102 1929
338 102 2575
339 102 1035
340 102 1963
341 102 1758
342 102 3215
343 102 2304
344 102 2445
345 102 2934
346 102 2633
347 102 2726
348 102 2909
349 102 3567
350 102 1366
351 102 1636
352 102 3346
353 102 1437
354 102 1496
355 102 1475
356 102 2693
357 102 2547
358 102 896
359 102 807
360 102 2801
361 102 2677
362 102 2305
363 102 1865
364 102 2971
365 102 742
366 102 1927
367 102 1603
368 102 1483
369 102 845
370 102 2184
371 102 3577
372 102 2122
373 102 907
374 102 1554
375 102 2430
376 102 3682
377 102 1608
378 102 3353
379 102 1752
380 102 3379
381 102 2094
382 102 3661
383 102 3232
384 102 2301
385 102 2455
386 102 1844
387 102 2532
388 102 1272
389 102 3476
390 102 1614
391 102 2317
392 102 1160
393 102 3966
394 102 1118
395 102 1463
396 102 1005
397 102 2027
398 102 1272
399 102 2178
400 102 1458
401 102 4454
402 102 2632
403 102 789
404 102 3395
405 102 2016
406 102 4398
407 102 2280
408 102 3009
409 102 2389
410 102 1777
411 102 2586
412 102 1402
413 102 2757
414 102 2218
415 102 3518
416 102 3034
417 102 2641
418 102 3409
419 102 1418
420 102 3962
421 102 2567
422 102 2681
423 102 1740
424 102 1094
425 102 2901
426 102 2104
427 102 2129
428 102 1704
429 102 1194
430 102 3492
431 102 2463
432 102 1178
433 102 1538
434 102 2533
435 102 2102
436 102 2099
437 102 2751
438 102 2177
439 102 1628
440 102 2217
441 102 1544
442 102 1018
443 102 2492
444 102 2182
445 102 2040
446 102 2902
447 102 2327
448 102 2472
449 102 3040
450 102 1645
451 102 1826
452 102 1466
453 102 1826
454 102 1527
455 102 2358
456 102 2271
457 102 2330
458 102 2299
459 102 1587
460 102 1681
461 102 790
462 102 3029
463 102 1910
464 102 1038
465 102 912
466 102 2416
467 102 1666
468 102 2278
469 102 2834
470 102 4691
471 102 3034
472 102 1152
473 102 2569
474 102 2545
475 102 1664
476 102 1641
477 102 2184
478 102 2559
479 102 1946
480 102 2176
481 102 2473
482 102 1447
483 102 1343
484 102 2059
485 102 2186
486 102 2064
487 102 3224
488 102 1359
489 102 2418
490 102 2982
491 102 1752
492 102 2141
493 102 2655
494 102 1019
495 102 2262
496 102 2269
497 102 1229
498 102 1972
499 102 2633
500 102 4550
1 103 23268
2 103 20476
3 103 12702
4 103 11712
5 103 24906
6 103 27636
7 103 20230
8 103 12783
9 103 19454
10 103 20409
11 103 11413
12 103 14156
13 103 10214
14 103 29297
15 103 25798
16 103 14448
17 103 45271
18 103 16818
19 103 21670
20 103 14986
21 103 25054
22 103 22595
23 103 7293
24 103 13641
25 103 16874
26 103 31742
27 103 11076
28 103 10415
29 103 19362
30 103 21611
31 103 13946
32 103 24232
33 103 25640
34 103 20036
35 103 21613
36 103 13623
37 103 11572
38 103 8772
39 103 17352
40 103 12954
41 103 13834
42 103 9058
43 103 9887
44 103 20375
45 103 8179
46 103 16123
47 103 23619
48 103 28072
49 103 20057
50 103 17549
51 103 12218
52 103 20381
53 103 16963
54 103 18308
55 103 18534
56 103 11802
57 103 17835
58 103 20888
59 103 22163
60 103 41308
61 103 29010
62 103 9617
63 103 14779
64 103 12521
65 103 25075
66 103 17443
67 103 12437
68 103 25381
69 103 14768
70 103 43663
71 103 13995
72 103 23024
73 103 9143
74 103 17820
75 103 20728
76 103 32372
77 103 12816
78 103 15615
79 103 20207
80 103 13415
81 103 20352
82 103 17567
83 103 32843
84 103 26737
85 103 10392
86 103 15320
87 103 11916
88 103 16825
89 103 18543
90 103 25754
91 103 17053
92 103 13692
93 103 9721
94 103 43462
95 103 28100
96 103 23147
97 103 18428
98 103 9110
99 103 36653
100 103 9510
101 103 18222
102 103 24367
103 103 14433
104 103 17656
105 103 11020
106 103 13089
107 103 12843
108 103 22910
109 103 12594
110 103 13053
111 103 17912
112 103 13111
113 103 14778
114 103 14652
115 103 7595
116 103 13585
117 103 11819
118 103 16257
119 103 8410
120 103 16656
121 103 13219
122 103 33506
123 103 26262
124 103 20717
125 103 24373
126 103 17980
127 103 31112
128 103 22194
129 103 14621
130 103 12936
131 103 15673
132 103 10380
133 103 8459
134 103 20154
135 103 14897
136 103 17101
137 103 10348
138 103 14091
139 103 24137
140 103 26119
141 103 9622
142 103 10873
143 103 8727
144 103 33086
145 103 21172
146 103 15601
147 103 13444
148 103 11808
149 103 10939
150 103 12477
151 103 27900
152 103 23999
153 103 8266
154 103 12371
155 103 9245
156 103 16179
157 103 7075
158 103 13500
159 103 15247
160 103 36121
161 103 15480
162 103 26466
163 103 10409
164 103 24303
165 103 25139
166 103 17031
167 103 11565
168 103 17434
169 103 28498
170 103 10511
171 103 19055
172 103 16234
173 103 16803
174 103 25933
175 103 34318
176 103 26508
177 103 27919
178 103 24656
179 103 19050
180 103 21967
181 103 16290
182 103 8911
183 103 13203
184 103 17205
185 103 33517
186 103 18488
187 103 21355
188 103 19082
189 103 19238
190 103 16677
191 103 15344
192 103 11123
193 103 17822
194 103 12467
195 103 11208
196 103 22755
197 103 12481
198 103 11873
199 103 25351
200 103 7849
201 103 16152
202 103 31718
203 103 24158
204 103 23691
205 103 31374
206 103 21745
207 103 32281
208 103 27078
209 103 21827
210 103 17267
211 103 18215
212 103 18277
213 103 16113
214 103 15074
215 103 10672
216 103 25379
217 103 8149
218 103 13349
219 103 11667
220 103 18088
221 103 26667
222 103 17983
223 103 16110
224 103 28307
225 103 14578
226 103 21584
227 103 29408
228 103 7600
229 103 23708
230 103 21837
231 103 22140
232 103 15722
233 103 13566
234 103 22685
235 103 13757
236 103 15982
237 103 11967
238 103 13616
239 103 15204
240 103 18776
241 103 14918
242 103 10935
243 103 12596
244 103 33057
245 103 22669
246 103 22315
247 103 11330
248 103 9137
249 103 16129
250 103 15611
251 103 18211
252 103 15811
253 103 16176
254 103 19022
255 103 13948
256 103 12285
257 103 27249
258 103 26351
259 103 12213
260 103 18561
261 103 6853
262 103 14324
263 103 6189
264 103 22683
265 103 17974
266 103 16415
267 103 17813
268 103 11984
269 103 5864
270 103 16023
271 103 20195
272 103 19926
273 103 17134
274 103 12578
275 103 15108
276 103 7492
277 103 11723
278 103 21844
279 103 16398
280 103 16869
281 103 18368
282 103 28768
283 103 20208
284 103 16378
285 103 17130
286 103 15667
287 103 14142
288 103 7702
289 103 25241
290 103 51405
291 103 19793
292 103 19150
293 103 13099
294 103 13058
295 103 9687
296 103 14505
297 103 15763
298 103 10952
299 103 27503
300 103 12946
301 103 30452
302 103 13231
303 103 18426
304 103 32555
305 103 12436
306 103 12844
307 103 18697
308 103 13602
309 103 10460
310 103 10527
311 103 13829
312 103 14596
313 103 16123
314 103 10211
315 103 16725
316 103 12546
317 103 8581
318 103 6985
319 103 24475
320 103 18052
321 103 15853
322 103 11864
323 103 12387
324 103 6374
325 103 47791
326 103 16711
327 103 25741
328 103 18120
329 103 9013
330 103 43950
331 103 10814
332 103 13193
333 103 11538
334 103 8409
335 103 24069
336 103 21473
337 103 23360
338 103 23265
339 103 13449
340 103 6734
341 103 29778
342 103 27102
343 103 24068
344 103 16351
345 103 23491
346 103 13827
347 103 10203
348 103 17006
349 103 21126
350 103 18410
351 103 18078
352 103 14645
353 103 13365
354 103 6510
355 103 25434
356 103 13020
357 103 13126
358 103 16539
359 103 21904
360 103 15712
361 103 17880
362 103 14373
363 103 22240
364 103 18552
365 103 26240
366 103 10688
367 103 6360
368 103 13340
369 103 23824
370 103 14582
371 103 18228
372 103 26095
373 103 5795
374 103 16681
375 103 16117
376 103 11676
377 103 25071
378 103 17851
379 103 29747
380 103 10734
381 103 13340
382 103 10341
383 103 22950
384 103 17142
385 103 15567
386 103 24182
387 103 19409
388 103 18349
389 103 17899
390 103 12310
391 103 14173
392 103 27687
393 103 13307
394 103 14516
395 103 13873
396 103 11907
397 103 11461
398 103 16628
399 103 22445
400 103 15736
401 103 12558
402 103 15114
403 103 22102
404 103 17741
405 103 11968
406 103 18472
407 103 21619
408 103 15515
409 103 22831
410 103 12532
411 103 9519
412 103 11023
413 103 15530
414 103 10162
415 103 15672
416 103 34422
417 103 18214
418 103 11416
419 103 16807
420 103 16962
421 103 25794
422 103 16652
423 103 21609
424 103 4532
425 103 23506
426 103 11475
427 103 15450
428 103 27085
429 103 18199
430 103 18844
431 103 20214
432 103 21931
433 103 27607
434 103 8140
435 103 19840
436 103 36000
437 103 25761
438 103 14395
439 103 14215
440 103 10993
441 103 11335
442 103 11921
443 103 22937
444 103 12719
445 103 15435
446 103 36374
447 103 10734
448 103 24842
449 103 34552
450 103 18662
451 103 31327
452 103 15713
453 103 15848
454 103 22469
455 103 9162
456 103 7133
457 103 20720
458 103 12833
459 103 24360
460 103 9952
461 103 8402
462 103 39898
463 103 13226
464 103 11860
465 103 25849
466 103 26798
467 103 23544
468 103 19140
469 103 19948
470 103 13410
471 103 9498
472 103 15838
473 103 25579
474 103 14820
475 103 16991
476 103 24463
477 103 32363
478 103 11839
479 103 26688
480 103 9192
481 103 21094
482 103 14935
483 103 18090
484 103 11897
485 103 10486
486 103 15628
487 103 14191
488 103 13413
489 103 11991
490 103 18399
491 103 17484
492 103 22918
493 103 12809
494 103 22167
495 103 15358
496 103 24174
497 103 10726
498 103 22720
499 103 15679
500 103 20488
4 104 71
6 104 5
8 104 7
9 104 23
14 104 5
17 104 5
25 104 5
26 104 4
30 104 5
33 104 5
34 104 3
43 104 13
45 104 26
48 104 5
51 104 9
60 104 23
61 104 6
62 104 7
64 104 4
66 104 8
67 104 74
70 104 4
71 104 10
74 104 26
79 104 24
80 104 25
83 104 35
85 104 9
87 104 6
88 104 15
89 104 3
91 104 2
94 104 4
95 104 5
97 104 30
98 104 5
101 104 4
102 104 2
103 104 19
104 104 4
107 104 6
112 104 14
116 104 6
118 104 30
122 104 27
127 104 5
128 104 56
133 104 3
134 104 3
136 104 6
137 104 5
140 104 5
141 104 6
144 104 6
145 104 32
147 104 7
148 104 9
150 104 7
153 104 4
154 104 7
158 104 31
160 104 8
161 104 8
162 104 6
169 104 5
170 104 9
171 104 2
173 104 7
175 104 4
183 104 5
184 104 4
186 104 6
196 104 4
199 104 3
204 104 48
206 104 7
207 104 7
209 104 5
212 104 2
216 104 5
217 104 3
218 104 25
221 104 70
223 104 10
225 104 5
227 104 12
232 104 29
233 104 73
234 104 1
238 104 22
240 104 7
243 104 5
246 104 4
247 104 10
250 104 6
251 104 6
252 104 3
255 104 6
257 104 4
259 104 32
262 104 5
268 104 2
270 104 4
275 104 4
278 104 2
280 104 7
285 104 4
289 104 5
290 104 3
294 104 25
298 104 7
301 104 5
304 104 8
309 104 4
310 104 3
312 104 8
313 104 2
318 104 7
321 104 5
322 104 11
323 104 4
325 104 34
327 104 5
334 104 3
336 104 6
341 104 4
342 104 5
344 104 4
345 104 10
346 104 26
347 104 10
351 104 29
355 104 3
357 104 4
358 104 5
359 104 6
360 104 6
363 104 8
364 104 19
365 104 4
366 104 5
370 104 5
371 104 7
376 104 7
379 104 9
381 104 8
389 104 3
392 104 5
393 104 22
396 104 10
402 104 4
403 104 8
405 104 20
412 104 8
416 104 7
420 104 9
422 104 2
423 104 2
429 104 10
432 104 8
433 104 21
437 104 4
439 104 3
440 104 9
441 104 6
442 104 6
443 104 4
444 104 6
446 104 26
448 104 10
449 104 5
450 104 14
451 104 7
462 104 31
463 104 3
468 104 8
470 104 3
472 104 23
474 104 25
484 104 9
486 104 6
487 104 5
490 104 7
491 104 5
494 104 7
495 104 3
496 104 3
497 104 6
1 105 2699
2 105 2132
3 105 3001
4 105 2173
5 105 1234
6 105 1763
7 105 2761
8 105 1442
9 105 1530
10 105 1950
11 105 2197
12 105 2192
13 105 1373
14 105 1665
15 105 4298
16 105 1905
17 105 1545
18 105 2059
19 105 1048
20 105 1295
21 105 1173
22 105 2800
23 105 1521
24 105 1833
25 105 2790
26 105 1393
27 105 1239
28 105 2905
29 105 1704
30 105 1019
31 105 3477
32 105 2958
33 105 2087
34 105 2571
35 105 1486
36 105 2650
37 105 2381
38 105 1103
39 105 4186
40 105 1328
41 105 1838
42 105 1915
43 105 1490
44 105 2293
45 105 2359
46 105 1877
47 105 2980
48 105 1790
49 105 2026
50 105 1440
51 105 1786
52 105 1171
53 105 1990
54 105 1481
55 105 1290
56 105 1801
57 105 1368
58 105 3099
59 105 2621
60 105 1762
61 105 1573
62 105 2373
63 105 1334
64 105 2254
65 105 1273
66 105 2425
67 105 3322
68 105 2003
69 105 2242
70 105 1565
71 105 2559
72 105 3846
73 105 3613
74 105 3033
75 105 2550
76 105 1624
77 105 1924
78 105 1481
79 105 1416
80 105 1714
81 105 2413
82 105 2822
83 105 1571
84 105 1079
85 105 1328
86 105 1561
87 105 2881
88 105 1768
89 105 1933
90 105 1871
91 105 1039
92 105 1862
93 105 1599
94 105 947
95 105 1813
96 105 2229
97 105 2024
98 105 1987
99 105 1895
100 105 3399
101 105 2014
102 105 1274
103 105 3175
104 105 2889
105 105 1136
106 105 1899
107 105 3110
108 105 3237
109 105 2467
110 105 1516
111 105 881
112 105 604
113 105 2692
114 105 2164
115 105 3154
116 105 2135
117 105 1558
118 105 2178
119 105 3023
120 105 3368
121 105 1751
122 105 1868
123 105 3104
124 105 1602
125 105 2721
126 105 1460
127 105 1985
128 105 1298
129 105 2557
130 105 1191
131 105 1502
132 105 2790
133 105 797
134 105 2086
135 105 1275
136 105 1881
137 105 1399
138 105 1595
139 105 745
140 105 1487
141 105 2474
142 105 1188
143 105 1155
144 105 3780
145 105 2968
146 105 3460
147 105 2534
148 105 1923
149 105 1765
150 105 2893
151 105 3179
152 105 2634
153 105 740
154 105 705
155 105 935
156 105 1433
157 105 937
158 105 2078
159 105 1674
160 105 2084
161 105 1165
162 105 1522
163 105 1318
164 105 2766
165 105 2050
166 105 1771
167 105 1671
168 105 1542
169 105 1793
170 105 1915
171 105 3192
172 105 939
173 105 873
174 105 1416
175 105 2063
176 105 1628
177 105 2017
178 105 1466
179 105 1851
180 105 1506
181 105 2949
182 105 388
183 105 1955
184 105 2439
185 105 2002
186 105 1528
187 105 2268
188 105 1710
189 105 3023
190 105 1369
191 105 1213
192 105 2739
193 105 1785
194 105 2699
195 105 3231
196 105 2850
197 105 4069
198 105 2236
199 105 1935
200 105 1577
201 105 958
202 105 1186
203 105 2860
204 105 1423
205 105 2248
206 105 908
207 105 2493
208 105 2293
209 105 917
210 105 1627
211 105 1388
212 105 740
213 105 2630
214 105 2227
215 105 1851
216 105 2968
217 105 3195
218 105 1211
219 105 1127
220 105 1807
221 105 2724
222 105 1666
223 105 2854
224 105 1534
225 105 2667
226 105 1817
227 105 1846
228 105 2201
229 105 1619
230 105 2299
231 105 2869
232 105 2382
233 105 2625
234 105 2781
235 105 1029
236 105 3203
237 105 1472
238 105 1505
239 105 913
240 105 1924
241 105 1259
242 105 725
243 105 2057
244 105 1992
245 105 2265
246 105 2012
247 105 1189
248 105 1196
249 105 2076
250 105 1799
251 105 2451
252 105 1250
253 105 1695
254 105 1437
255 105 3041
256 105 2647
257 105 1846
258 105 1117
259 105 1632
260 105 1684
261 105 1602
262 105 2158
263 105 1204
264 105 1345
265 105 2241
266 105 1460
267 105 1682
268 105 2898
269 105 1746
270 105 1333
271 105 1575
272 105 3016
273 105 1963
274 105 2405
275 105 2020
276 105 2202
277 105 1603
278 105 1583
279 105 2176
280 105 1685
281 105 3408
282 105 2987
283 105 1806
284 105 2532
285 105 1778
286 105 1453
287 105 1334
288 105 3044
289 105 2988
290 105 1297
291 105 1246
292 105 1896
293 105 1984
294 105 2535
295 105 1668
296 105 2764
297 105 1524
298 105 2530
299 105 1520
300 105 2275
301 105 3610
302 105 2661
303 105 2906
304 105 2396
305 105 2979
306 105 2065
307 105 4265
308 105 3839
309 105 1461
310 105 1576
311 105 3209
312 105 1869
313 105 1321
314 105 1475
315 105 1761
316 105 1311
317 105 2477
318 105 1052
319 105 3413
320 105 2805
321 105 1221
322 105 1295
323 105 673
324 105 1242
325 105 1743
326 105 1327
327 105 2573
328 105 1506
329 105 1567
330 105 2370
331 105 2529
332 105 2691
333 105 1603
334 105 1392
335 105 2148
336 105 1514
337 105 1451
338 105 1566
339 105 1387
340 105 2168
341 105 1839
342 105 2110
343 105 776
344 105 2370
345 105 2867
346 105 1684
347 105 2061
348 105 2953
349 105 3360
350 105 2130
351 105 2644
352 105 2801
353 105 2824
354 105 1238
355 105 1892
356 105 3084
357 105 3398
358 105 1342
359 105 913
360 105 2022
361 105 2084
362 105 1887
363 105 2026
364 105 2117
365 105 1531
366 105 1068
367 105 1274
368 105 1202
369 105 1727
370 105 1611
371 105 1615
372 105 2951
373 105 2606
374 105 2940
375 105 3348
376 105 1707
377 105 1889
378 105 2494
379 105 1898
380 105 2952
381 105 1890
382 105 986
383 105 2453
384 105 3364
385 105 3923
386 105 2102
387 105 2465
388 105 1521
389 105 2495
390 105 1360
391 105 2830
392 105 1599
393 105 2163
394 105 1814
395 105 1477
396 105 1343
397 105 3169
398 105 1251
399 105 2697
400 105 1479
401 105 2102
402 105 2061
403 105 865
404 105 1236
405 105 1236
406 105 3369
407 105 2619
408 105 1486
409 105 1782
410 105 2038
411 105 2579
412 105 1102
413 105 2483
414 105 2114
415 105 1971
416 105 1847
417 105 2858
418 105 1754
419 105 1223
420 105 2821
421 105 1611
422 105 1464
423 105 1543
424 105 629
425 105 2433
426 105 3266
427 105 1100
428 105 2045
429 105 1175
430 105 1856
431 105 2342
432 105 1267
433 105 2103
434 105 1965
435 105 2339
436 105 2307
437 105 1168
438 105 3320
439 105 2129
440 105 2192
441 105 2684
442 105 1364
443 105 1089
444 105 997
445 105 2546
446 105 2137
447 105 2105
448 105 935
449 105 1743
450 105 2440
451 105 1965
452 105 1256
453 105 1838
454 105 1444
455 105 1168
456 105 934
457 105 1399
458 105 1078
459 105 1086
460 105 3109
461 105 1079
462 105 3157
463 105 3123
464 105 1293
465 105 2321
466 105 2424
467 105 2152
468 105 1945
469 105 2386
470 105 5289
471 105 2811
472 105 2477
473 105 1178
474 105 4285
475 105 1782
476 105 2642
477 105 874
478 105 4089
479 105 1190
480 105 3695
481 105 2436
482 105 1821
483 105 1574
484 105 1444
485 105 1696
486 105 2417
487 105 2615
488 105 1128
489 105 2224
490 105 3098
491 105 2421
492 105 2096
493 105 2064
494 105 965
495 105 2098
496 105 2259
497 105 878
498 105 1345
499 105 1725
500 105 2382
1 106 2073
2 106 2340
3 106 1911
4 106 2131
5 106 1454
6 106 1311
7 106 1390
8 106 1238
9 106 1418
10 106 2443
11 106 2225
12 106 2300
13 106 2103
14 106 1392
15 106 1806
16 106 1380
17 106 1194
18 106 2688
19 106 2238
20 106 1398
21 106 1330
22 106 4573
23 106 1230
24 106 2396
25 106 1292
26 106 2592
27 106 1005
28 106 1996
29 106 1376
30 106 1900
31 106 2020
32 106 1628
33 106 1901
34 106 1652
35 106 1756
36 106 2297
37 106 2811
38 106 740
39 106 607
40 106 2215
41 106 2395
42 106 954
43 106 2098
44 106 869
45 106 2250
46 106 3287
47 106 1118
48 106 1193
49 106 2085
50 106 856
51 106 1181
52 106 867
53 106 2773
54 106 974
55 106 2113
56 106 1517
57 106 2842
58 106 1220
59 106 2398
60 106 2230
61 106 1762
62 106 2100
63 106 2951
64 106 1682
65 106 1448
66 106 2032
67 106 1868
68 106 1156
69 106 2644
70 106 1808
71 106 3595
72 106 3382
73 106 1783
74 106 2164
75 106 3942
76 106 826
77 106 2164
78 106 2058
79 106 1130
80 106 2672
81 106 1591
82 106 2623
83 106 2350
84 106 901
85 106 2192
86 106 1320
87 106 2432
88 106 1520
89 106 4453
90 106 1686
91 106 1804
92 106 2237
93 106 2277
94 106 1510
95 106 1193
96 106 1658
97 106 1034
98 106 1370
99 106 1482
100 106 1535
101 106 1357
102 106 2655
103 106 2270
104 106 2283
105 106 1024
106 106 1831
107 106 2352
108 106 2965
109 106 1213
110 106 1435
111 106 1761
112 106 1370
113 106 3847
114 106 1788
115 106 1358
116 106 2630
117 106 650
118 106 1829
119 106 951
120 106 2512
121 106 1854
122 106 1627
123 106 1965
124 106 2684
125 106 1295
126 106 3292
127 106 1050
128 106 1580
129 106 2003
130 106 3828
131 106 2026
132 106 2136
133 106 1621
134 106 2065
135 106 1680
136 106 911
137 106 1951
138 106 1716
139 106 2235
140 106 834
141 106 2183
142 106 957
143 106 773
144 106 2246
145 106 2259
146 106 1855
147 106 1716
148 106 2593
149 106 2730
150 106 2065
151 106 1202
152 106 2655
153 106 1575
154 106 2439
155 106 2038
156 106 2188
157 106 933
158 106 1970
159 106 1575
160 106 1042
161 106 1471
162 106 825
163 106 716
164 106 2734
165 106 1321
166 106 2055
167 106 1066
168 106 2284
169 106 1180
170 106 1968
171 106 2618
172 106 1461
173 106 1911
174 106 1443
175 106 2151
176 106 1304
177 106 2693
178 106 1061
179 106 1541
180 106 1502
181 106 1357
182 106 2849
183 106 2059
184 106 2145
185 106 2716
186 106 1455
187 106 1223
188 106 843
189 106 1646
190 106 1520
191 106 1927
192 106 1482
193 106 1458
194 106 2326
195 106 2437
196 106 2367
197 106 1117
198 106 1384
199 106 753
200 106 2855
201 106 1462
202 106 1791
203 106 2737
204 106 1370
205 106 1695
206 106 1319
207 106 1765
208 106 1805
209 106 1208
210 106 1327
211 106 1952
212 106 783
213 106 1508
214 106 1825
215 106 1216
216 106 1646
217 106 2099
218 106 1553
219 106 2811
220 106 2298
221 106 1226
222 106 1391
223 106 1773
224 106 1674
225 106 2800
226 106 1345
227 106 1295
228 106 1805
229 106 1730
230 106 1249
231 106 2090
232 106 809
233 106 1326
234 106 1917
235 106 1746
236 106 2982
237 106 931
238 106 1547
239 106 1304
240 106 1140
241 106 1651
242 106 1974
243 106 1664
244 106 1669
245 106 1879
246 106 1978
247 106 1991
248 106 2624
249 106 1883
250 106 1059
251 106 2129
252 106 1733
253 106 1214
254 106 2590
255 106 890
256 106 2231
257 106 1814
258 106 1327
259 106 1028
260 106 2595
261 106 3193
262 106 2806
263 106 1472
264 106 2370
265 106 4684
266 106 2130
267 106 1703
268 106 2393
269 106 2004
270 106 1435
271 106 1509
272 106 1531
273 106 2221
274 106 804
275 106 3174
276 106 1699
277 106 681
278 106 1638
279 106 1465
280 106 1500
281 106 2271
282 106 2039
283 106 1490
284 106 2059
285 106 1619
286 106 1908
287 106 1795
288 106 1363
289 106 1721
290 106 1201
291 106 1545
292 106 916
293 106 1994
294 106 3532
295 106 1262
296 106 2995
297 106 1293
298 106 2278
299 106 1407
300 106 1988
301 106 2771
302 106 3319
303 106 1725
304 106 1675
305 106 1582
306 106 1215
307 106 639
308 106 1020
309 106 2153
310 106 4259
311 106 970
312 106 2772
313 106 1621
314 106 1243
315 106 1878
316 106 2036
317 106 2147
318 106 1421
319 106 1822
320 106 2084
321 106 1518
322 106 1207
323 106 2448
324 106 1364
325 106 2244
326 106 1556
327 106 631
328 106 864
329 106 1629
330 106 1532
331 106 2296
332 106 3277
333 106 638
334 106 1373
335 106 1295
336 106 1102
337 106 1434
338 106 2384
339 106 914
340 106 2900
341 106 1247
342 106 1780
343 106 2137
344 106 2285
345 106 3053
346 106 2907
347 106 2311
348 106 3096
349 106 2265
350 106 1722
351 106 1895
352 106 1562
353 106 2613
354 106 1414
355 106 717
356 106 3043
357 106 2474
358 106 1195
359 106 1263
360 106 1163
361 106 2122
362 106 1811
363 106 1235
364 106 1119
365 106 782
366 106 2043
367 106 1469
368 106 2011
369 106 3040
370 106 1783
371 106 2156
372 106 1878
373 106 1613
374 106 2586
375 106 3873
376 106 3095
377 106 1729
378 106 2645
379 106 1239
380 106 806
381 106 2641
382 106 1083
383 106 2446
384 106 1618
385 106 2360
386 106 2586
387 106 3294
388 106 990
389 106 2881
390 106 2791
391 106 2186
392 106 1364
393 106 3073
394 106 1232
395 106 2318
396 106 1274
397 106 1946
398 106 1113
399 106 1934
400 106 2794
401 106 1096
402 106 3119
403 106 1317
404 106 1199
405 106 1013
406 106 5212
407 106 1579
408 106 1380
409 106 2157
410 106 1941
411 106 2261
412 106 1297
413 106 4689
414 106 838
415 106 1137
416 106 2761
417 106 2891
418 106 3180
419 106 1138
420 106 1324
421 106 2430
422 106 1687
423 106 1010
424 106 597
425 106 1858
426 106 2100
427 106 1756
428 106 2404
429 106 1758
430 106 3586
431 106 2349
432 106 1654
433 106 890
434 106 2599
435 106 1282
436 106 1418
437 106 2566
438 106 1651
439 106 2848
440 106 2541
441 106 1989
442 106 1199
443 106 1945
444 106 4129
445 106 2876
446 106 2339
447 106 1514
448 106 1723
449 106 2732
450 106 1762
451 106 988
452 106 1637
453 106 2649
454 106 1914
455 106 2990
456 106 945
457 106 1625
458 106 797
459 106 1565
460 106 1304
461 106 1592
462 106 2326
463 106 2053
464 106 1285
465 106 1603
466 106 1442
467 106 1681
468 106 1730
469 106 2461
470 106 4274
471 106 2439
472 106 837
473 106 2022
474 106 2681
475 106 1343
476 106 2658
477 106 2362
478 106 2133
479 106 1156
480 106 1829
481 106 982
482 106 2936
483 106 1016
484 106 1008
485 106 951
486 106 2430
487 106 1993
488 106 1626
489 106 2314
490 106 3192
491 106 1381
492 106 1907
493 106 2131
494 106 1216
495 106 2083
496 106 2553
497 106 1140
498 106 2355
499 106 1417
500 106 3249
1 107 22
4 107 6
5 107 9
6 107 42
7 107 4
8 107 74
9 107 10
10 107 34
11 107 68
13 107 117
14 107 55
15 107 35
16 107 37
17 107 6
18 107 7
19 107 20
20 107 64
21 107 23
22 107 26
23 107 54
25 107 71
26 107 22
27 107 24
28 107 27
29 107 27
30 107 5
31 107 6
33 107 32
34 107 130
35 107 6
36 107 24
37 107 74
39 107 133
40 107 23
44 107 70
45 107 39
46 107 113
47 107 30
48 107 33
49 107 77
51 107 22
52 107 10
53 107 7
54 107 6
55 107 58
56 107 20
57 107 30
58 107 3
59 107 28
60 107 41
62 107 55
63 107 9
64 107 24
65 107 5
66 107 39
67 107 34
68 107 1
69 107 8
70 107 5
71 107 86
72 107 3
73 107 22
74 107 8
78 107 28
79 107 61
80 107 57
82 107 38
85 107 27
88 107 72
89 107 91
93 107 26
94 107 23
95 107 32
96 107 105
98 107 22
99 107 5
101 107 102
102 107 5
103 107 55
104 107 52
105 107 26
106 107 1
107 107 4
108 107 18
110 107 8
111 107 18
112 107 11
113 107 72
114 107 22
117 107 5
118 107 26
119 107 5
120 107 5
121 107 31
122 107 7
124 107 10
126 107 71
127 107 4
128 107 28
130 107 8
131 107 25
132 107 30
133 107 12
135 107 52
136 107 5
137 107 40
138 107 15
139 107 140
140 107 7
141 107 25
142 107 18
144 107 74
145 107 7
147 107 59
149 107 31
151 107 30
152 107 26
153 107 16
154 107 22
155 107 29
156 107 4
157 107 16
158 107 6
159 107 7
160 107 4
162 107 6
163 107 4
164 107 21
165 107 2
166 107 8
168 107 49
169 107 40
170 107 47
171 107 30
172 107 18
173 107 24
174 107 23
175 107 7
176 107 71
177 107 31
178 107 159
179 107 160
180 107 57
181 107 5
182 107 20
183 107 34
184 107 43
185 107 44
187 107 81
188 107 1
189 107 60
190 107 3
191 107 24
192 107 54
193 107 47
194 107 17
197 107 2
198 107 10
200 107 8
201 107 26
202 107 83
203 107 65
205 107 37
206 107 16
207 107 11
208 107 31
209 107 12
210 107 13
211 107 60
212 107 11
213 107 68
214 107 31
215 107 6
216 107 5
217 107 103
221 107 148
223 107 97
224 107 5
225 107 4
226 107 3
227 107 40
228 107 110
229 107 4
230 107 21
231 107 106
232 107 90
233 107 85
235 107 30
236 107 17
237 107 18
238 107 9
239 107 52
240 107 5
241 107 50
242 107 9
243 107 72
245 107 20
246 107 27
247 107 26
249 107 37
250 107 8
251 107 71
252 107 10
253 107 28
254 107 54
255 107 30
256 107 24
257 107 55
258 107 15
259 107 28
260 107 5
262 107 4
263 107 5
265 107 129
266 107 7
269 107 36
270 107 7
271 107 6
272 107 4
273 107 26
274 107 7
275 107 18
276 107 121
277 107 6
278 107 25
279 107 117
280 107 83
281 107 56
282 107 13
283 107 5
284 107 6
285 107 107
286 107 9
287 107 46
289 107 9
290 107 5
291 107 22
292 107 54
293 107 63
294 107 6
295 107 17
296 107 122
297 107 58
298 107 32
300 107 21
301 107 135
302 107 24
303 107 94
304 107 12
307 107 2
308 107 87
309 107 57
310 107 5
311 107 21
312 107 2
313 107 7
314 107 6
318 107 18
319 107 25
320 107 24
321 107 6
323 107 19
324 107 7
325 107 7
326 107 6
327 107 3
329 107 41
330 107 23
331 107 93
332 107 16
333 107 6
334 107 24
335 107 5
337 107 95
338 107 4
339 107 8
340 107 5
341 107 38
343 107 136
344 107 7
345 107 130
346 107 119
347 107 49
349 107 7
350 107 101
351 107 64
352 107 159
353 107 103
354 107 8
356 107 54
357 107 2
358 107 22
359 107 11
360 107 31
361 107 3
362 107 6
363 107 16
365 107 5
366 107 87
367 107 6
368 107 8
369 107 16
370 107 47
371 107 141
372 107 72
373 107 43
374 107 28
375 107 72
377 107 4
378 107 6
379 107 27
380 107 13
381 107 137
383 107 78
385 107 31
387 107 30
388 107 8
390 107 71
391 107 69
392 107 25
393 107 3
394 107 15
397 107 6
398 107 42
399 107 61
400 107 76
402 107 28
403 107 16
405 107 5
407 107 1
409 107 108
410 107 88
411 107 26
412 107 29
413 107 27
414 107 111
415 107 22
416 107 45
418 107 25
419 107 7
420 107 65
421 107 3
422 107 97
424 107 3
426 107 5
427 107 76
429 107 18
430 107 6
431 107 5
432 107 52
433 107 44
434 107 5
435 107 15
436 107 35
437 107 103
438 107 19
439 107 3
440 107 65
441 107 5
443 107 78
444 107 79
445 107 1
446 107 9
448 107 32
449 107 46
450 107 65
451 107 3
452 107 109
453 107 9
454 107 40
455 107 161
456 107 25
457 107 20
458 107 35
459 107 4
460 107 3
461 107 1
462 107 4
463 107 91
464 107 34
465 107 44
466 107 103
467 107 75
468 107 8
470 107 9
471 107 70
472 107 82
475 107 19
477 107 18
478 107 32
479 107 49
480 107 24
481 107 61
482 107 42
483 107 2
486 107 26
487 107 13
489 107 4
490 107 2
491 107 19
492 107 29
493 107 58
494 107 47
497 107 16
498 107 5
499 107 3
500 107 8
1 108 314
2 108 385
3 108 488
4 108 474
5 108 1284
6 108 302
7 108 931
8 108 227
9 108 529
10 108 1017
11 108 812
12 108 388
13 108 416
14 108 772
15 108 988
16 108 417
17 108 669
18 108 1011
19 108 609
20 108 672
21 108 1622
22 108 1072
23 108 328
24 108 343
25 108 777
26 108 787
27 108 247
28 108 627
29 108 844
30 108 735
31 108 1355
32 108 669
33 108 517
34 108 383
35 108 709
36 108 933
37 108 680
38 108 336
39 108 233
40 108 344
41 108 328
42 108 748
43 108 531
44 108 724
45 108 272
46 108 608
47 108 724
48 108 314
49 108 237
50 108 354
51 108 429
52 108 245
53 108 1059
54 108 473
55 108 263
56 108 576
57 108 1004
58 108 602
59 108 750
60 108 780
61 108 316
62 108 757
63 108 366
64 108 474
65 108 1229
66 108 686
67 108 608
68 108 547
69 108 695
70 108 857
71 108 697
72 108 658
73 108 663
74 108 675
75 108 1277
76 108 660
77 108 1004
78 108 904
79 108 836
80 108 428
81 108 730
82 108 749
83 108 297
84 108 828
85 108 1202
86 108 426
87 108 423
88 108 515
89 108 749
90 108 682
91 108 797
92 108 743
93 108 943
94 108 195
95 108 276
96 108 323
97 108 686
98 108 335
99 108 489
100 108 793
101 108 770
102 108 491
103 108 587
104 108 443
105 108 200
106 108 338
107 108 685
108 108 357
109 108 367
110 108 406
111 108 632
112 108 444
113 108 447
114 108 578
115 108 847
116 108 695
117 108 211
118 108 328
119 108 385
120 108 1066
121 108 226
122 108 496
123 108 376
124 108 346
125 108 379
126 108 416
127 108 342
128 108 494
129 108 897
130 108 363
131 108 954
132 108 625
133 108 225
134 108 680
135 108 388
136 108 262
137 108 505
138 108 175
139 108 533
140 108 681
141 108 326
142 108 223
143 108 364
144 108 281
145 108 796
146 108 451
147 108 355
148 108 647
149 108 897
150 108 499
151 108 695
152 108 672
153 108 205
154 108 399
155 108 648
156 108 412
157 108 383
158 108 339
159 108 295
160 108 162
161 108 339
162 108 706
163 108 231
164 108 621
165 108 426
166 108 614
167 108 737
168 108 951
169 108 291
170 108 741
171 108 391
172 108 573
173 108 527
174 108 894
175 108 767
176 108 788
177 108 594
178 108 297
179 108 469
180 108 649
181 108 423
182 108 506
183 108 541
184 108 709
185 108 342
186 108 590
187 108 990
188 108 333
189 108 791
190 108 839
191 108 450
192 108 997
193 108 738
194 108 1023
195 108 680
196 108 439
197 108 429
198 108 590
199 108 364
200 108 778
201 108 643
202 108 885
203 108 633
204 108 448
205 108 445
206 108 544
207 108 446
208 108 384
209 108 539
210 108 502
211 108 881
212 108 357
213 108 967
214 108 1057
215 108 592
216 108 689
217 108 452
218 108 786
219 108 486
220 108 715
221 108 525
222 108 651
223 108 725
224 108 688
225 108 701
226 108 509
227 108 325
228 108 485
229 108 563
230 108 811
231 108 567
232 108 787
233 108 577
234 108 675
235 108 860
236 108 1309
237 108 100
238 108 297
239 108 363
240 108 604
241 108 421
242 108 623
243 108 644
244 108 450
245 108 524
246 108 1103
247 108 667
248 108 627
249 108 713
250 108 948
251 108 1251
252 108 413
253 108 1383
254 108 408
255 108 405
256 108 1011
257 108 724
258 108 603
259 108 881
260 108 604
261 108 348
262 108 793
263 108 731
264 108 1129
265 108 384
266 108 420
267 108 414
268 108 470
269 108 402
270 108 461
271 108 589
272 108 738
273 108 239
274 108 621
275 108 1360
276 108 472
277 108 258
278 108 627
279 108 949
280 108 534
281 108 1377
282 108 397
283 108 352
284 108 466
285 108 1132
286 108 640
287 108 387
288 108 843
289 108 708
290 108 150
291 108 556
292 108 482
293 108 618
294 108 414
295 108 435
296 108 673
297 108 234
298 108 1004
299 108 909
300 108 896
301 108 477
302 108 308
303 108 365
304 108 451
305 108 615
306 108 999
307 108 512
308 108 1009
309 108 566
310 108 906
311 108 441
312 108 1232
313 108 416
314 108 934
315 108 775
316 108 460
317 108 400
318 108 424
319 108 375
320 108 493
321 108 544
322 108 526
323 108 419
324 108 677
325 108 515
326 108 860
327 108 803
328 108 370
329 108 288
330 108 664
331 108 781
332 108 335
333 108 240
334 108 563
335 108 544
336 108 394
337 108 613
338 108 566
339 108 527
340 108 712
341 108 330
342 108 430
343 108 532
344 108 386
345 108 454
346 108 1133
347 108 328
348 108 476
349 108 733
350 108 399
351 108 734
352 108 314
353 108 1117
354 108 728
355 108 357
356 108 725
357 108 449
358 108 269
359 108 529
360 108 650
361 108 683
362 108 819
363 108 872
364 108 686
365 108 710
366 108 1319
367 108 716
368 108 345
369 108 843
370 108 583
371 108 644
372 108 706
373 108 595
374 108 222
375 108 792
376 108 365
377 108 307
378 108 358
379 108 312
380 108 1370
381 108 764
382 108 324
383 108 1042
384 108 1283
385 108 679
386 108 463
387 108 857
388 108 502
389 108 311
390 108 460
391 108 776
392 108 721
393 108 517
394 108 759
395 108 546
396 108 497
397 108 393
398 108 516
399 108 724
400 108 667
401 108 690
402 108 1404
403 108 500
404 108 406
405 108 385
406 108 812
407 108 839
408 108 427
409 108 1011
410 108 319
411 108 565
412 108 725
413 108 1132
414 108 293
415 108 571
416 108 1150
417 108 525
418 108 1043
419 108 702
420 108 741
421 108 225
422 108 658
423 108 370
424 108 611
425 108 602
426 108 568
427 108 921
428 108 176
429 108 852
430 108 783
431 108 397
432 108 534
433 108 511
434 108 578
435 108 444
436 108 508
437 108 341
438 108 1544
439 108 880
440 108 349
441 108 637
442 108 518
443 108 1046
444 108 441
445 108 780
446 108 539
447 108 803
448 108 1205
449 108 1118
450 108 407
451 108 329
452 108 1101
453 108 757
454 108 939
455 108 704
456 108 383
457 108 1148
458 108 392
459 108 495
460 108 468
461 108 283
462 108 525
463 108 1110
464 108 442
465 108 753
466 108 566
467 108 241
468 108 861
469 108 507
470 108 1221
471 108 963
472 108 790
473 108 205
474 108 540
475 108 766
476 108 449
477 108 955
478 108 719
479 108 1433
480 108 727
481 108 719
482 108 448
483 108 479
484 108 364
485 108 221
486 108 809
487 108 873
488 108 366
489 108 580
490 108 305
491 108 241
492 108 1006
493 108 663
494 108 162
495 108 963
496 108 744
497 108 346
498 108 220
499 108 309
500 108 645
1 109 7991
2 109 5919
3 109 5901
4 109 9062
5 109 11153
6 109 5580
7 109 6099
8 109 4974
9 109 4688
10 109 5686
11 109 7095
12 109 6510
13 109 6667
14 109 5570
15 109 9293
16 109 4685
17 109 5814
18 109 8060
19 109 6538
20 109 6543
21 109 5443
22 109 9014
23 109 6285
24 109 5221
25 109 6520
26 109 6162
27 109 3274
28 109 6797
29 109 5518
30 109 6447
31 109 7905
32 109 7183
33 109 7743
34 109 5589
35 109 5095
36 109 9324
37 109 5921
38 109 3532
39 109 8809
40 109 6529
41 109 5147
42 109 6680
43 109 7164
44 109 6869
45 109 6053
46 109 8397
47 109 8468
48 109 5457
49 109 9200
50 109 2137
51 109 5048
52 109 2785
53 109 8135
54 109 3050
55 109 9757
56 109 9820
57 109 7536
58 109 5676
59 109 7089
60 109 5311
61 109 5321
62 109 5565
63 109 7165
64 109 12194
65 109 11250
66 109 5651
67 109 7553
68 109 4242
69 109 9604
70 109 4762
71 109 9063
72 109 9054
73 109 6636
74 109 9336
75 109 9634
76 109 3524
77 109 6658
78 109 4694
79 109 8576
80 109 6498
81 109 5723
82 109 6083
83 109 4902
84 109 4315
85 109 4531
86 109 7157
87 109 7414
88 109 3544
89 109 5543
90 109 6940
91 109 5066
92 109 7286
93 109 7832
94 109 7306
95 109 5511
96 109 7829
97 109 9848
98 109 7295
99 109 7528
100 109 5497
101 109 4947
102 109 5493
103 109 4671
104 109 7436
105 109 3190
106 109 8005
107 109 6405
108 109 7612
109 109 5331
110 109 10282
111 109 4187
112 109 3359
113 109 9128
114 109 8421
115 109 5559
116 109 7984
117 109 2419
118 109 5255
119 109 4966
120 109 5287
121 109 6672
122 109 7707
123 109 12241
124 109 7605
125 109 3734
126 109 4559
127 109 2762
128 109 7487
129 109 8529
130 109 6044
131 109 4564
132 109 6769
133 109 2060
134 109 3995
135 109 8387
136 109 3374
137 109 4359
138 109 4766
139 109 9089
140 109 3720
141 109 5446
142 109 3209
143 109 3749
144 109 7053
145 109 10423
146 109 10465
147 109 5640
148 109 3711
149 109 14514
150 109 13040
151 109 7239
152 109 5044
153 109 2139
154 109 6400
155 109 3775
156 109 5317
157 109 4275
158 109 8151
159 109 6752
160 109 5030
161 109 3554
162 109 3691
163 109 4022
164 109 5037
165 109 4493
166 109 5169
167 109 11030
168 109 12077
169 109 5550
170 109 4186
171 109 7907
172 109 6718
173 109 9326
174 109 5974
175 109 5056
176 109 5998
177 109 4415
178 109 11171
179 109 9319
180 109 8530
181 109 6881
182 109 3538
183 109 6082
184 109 5755
185 109 4483
186 109 4571
187 109 5956
188 109 9117
189 109 8424
190 109 4186
191 109 4313
192 109 5509
193 109 8296
194 109 9535
195 109 6394
196 109 3614
197 109 10179
198 109 6254
199 109 3990
200 109 9311
201 109 6816
202 109 4016
203 109 5186
204 109 6451
205 109 8439
206 109 5687
207 109 5084
208 109 6058
209 109 5891
210 109 3588
211 109 8285
212 109 3230
213 109 6535
214 109 5080
215 109 6350
216 109 5079
217 109 3996
218 109 7620
219 109 6309
220 109 4817
221 109 9666
222 109 2674
223 109 5883
224 109 6368
225 109 5751
226 109 7379
227 109 5698
228 109 5423
229 109 3006
230 109 9971
231 109 5824
232 109 7598
233 109 6219
234 109 7811
235 109 5741
236 109 11087
237 109 4459
238 109 3790
239 109 9187
240 109 4231
241 109 8243
242 109 6721
243 109 5552
244 109 5289
245 109 3464
246 109 5395
247 109 6554
248 109 7577
249 109 6057
250 109 8729
251 109 11532
252 109 6957
253 109 6174
254 109 6490
255 109 7023
256 109 9419
257 109 6438
258 109 6817
259 109 6976
260 109 5244
261 109 4197
262 109 4421
263 109 2476
264 109 6754
265 109 9255
266 109 5376
267 109 5113
268 109 7297
269 109 6877
270 109 4409
271 109 5278
272 109 3904
273 109 5388
274 109 7676
275 109 8152
276 109 5494
277 109 2496
278 109 7790
279 109 4249
280 109 3555
281 109 7936
282 109 7542
283 109 4965
284 109 5981
285 109 4879
286 109 3324
287 109 7055
288 109 5845
289 109 5088
290 109 6827
291 109 8372
292 109 4597
293 109 6504
294 109 10266
295 109 7746
296 109 5507
297 109 5518
298 109 8261
299 109 4805
300 109 8891
301 109 3987
302 109 8593
303 109 5256
304 109 5081
305 109 7936
306 109 4994
307 109 7604
308 109 6379
309 109 6896
310 109 12182
311 109 7032
312 109 6351
313 109 6879
314 109 6368
315 109 15437
316 109 11073
317 109 8178
318 109 4998
319 109 7067
320 109 7964
321 109 6229
322 109 5767
323 109 6367
324 109 2409
325 109 8604
326 109 4275
327 109 5295
328 109 2180
329 109 4297
330 109 7038
331 109 7745
332 109 8628
333 109 2428
334 109 11100
335 109 10509
336 109 5923
337 109 7514
338 109 4427
339 109 4228
340 109 3842
341 109 5774
342 109 5597
343 109 9184
344 109 5732
345 109 6038
346 109 6074
347 109 6953
348 109 7953
349 109 7862
350 109 5762
351 109 4279
352 109 4604
353 109 7283
354 109 2540
355 109 3964
356 109 4186
357 109 4880
358 109 2894
359 109 5950
360 109 7121
361 109 7302
362 109 3629
363 109 5341
364 109 9799
365 109 3722
366 109 7207
367 109 2466
368 109 3016
369 109 6020
370 109 4399
371 109 7204
372 109 4992
373 109 5540
374 109 5990
375 109 5767
376 109 6440
377 109 8647
378 109 5252
379 109 5852
380 109 5976
381 109 5095
382 109 5868
383 109 6554
384 109 10334
385 109 9221
386 109 6325
387 109 7308
388 109 2980
389 109 9005
390 109 5468
391 109 8207
392 109 6201
393 109 7999
394 109 5545
395 109 8392
396 109 5832
397 109 8946
398 109 4380
399 109 5577
400 109 4168
401 109 6204
402 109 7998
403 109 6042
404 109 8130
405 109 6023
406 109 4879
407 109 5924
408 109 7167
409 109 6402
410 109 6123
411 109 6741
412 109 8216
413 109 8081
414 109 5560
415 109 6774
416 109 3772
417 109 4633
418 109 10587
419 109 5511
420 109 6481
421 109 6552
422 109 6193
423 109 5889
424 109 2467
425 109 6449
426 109 11644
427 109 6106
428 109 3097
429 109 4814
430 109 9697
431 109 6221
432 109 8669
433 109 5939
434 109 6369
435 109 9148
436 109 3768
437 109 7471
438 109 5065
439 109 4512
440 109 5983
441 109 5976
442 109 5788
443 109 4083
444 109 7345
445 109 6599
446 109 7519
447 109 8595
448 109 7564
449 109 3785
450 109 4142
451 109 2650
452 109 7607
453 109 6991
454 109 5879
455 109 8046
456 109 4084
457 109 6378
458 109 6080
459 109 4657
460 109 7118
461 109 2510
462 109 7057
463 109 7340
464 109 4471
465 109 4916
466 109 3384
467 109 4134
468 109 5662
469 109 6046
470 109 10134
471 109 7023
472 109 7530
473 109 5943
474 109 5967
475 109 10082
476 109 4432
477 109 5933
478 109 8744
479 109 5971
480 109 6653
481 109 5551
482 109 5235
483 109 3149
484 109 4766
485 109 6306
486 109 8703
487 109 9100
488 109 6470
489 109 4002
490 109 6728
491 109 4949
492 109 5482
493 109 6504
494 109 3030
495 109 4780
496 109 8761
497 109 4344
498 109 8503
499 109 6354
500 109 9457
1 110 2736
2 110 5415
3 110 3033
4 110 3965
5 110 2759
6 110 1335
7 110 3010
8 110 2734
9 110 1971
10 110 1733
11 110 3291
12 110 2831
13 110 2936
14 110 2987
15 110 4616
16 110 1711
17 110 2582
18 110 2017
19 110 3496
20 110 3059
21 110 2911
22 110 4482
23 110 2343
24 110 1892
25 110 3146
26 110 4499
27 110 1534
28 110 4056
29 110 3467
30 110 3951
31 110 3467
32 110 3360
33 110 2572
34 110 3540
35 110 4080
36 110 2953
37 110 2813
38 110 1351
39 110 3001
40 110 2801
41 110 1846
42 110 1298
43 110 4857
44 110 2651
45 110 2407
46 110 3539
47 110 3459
48 110 1284
49 110 3246
50 110 1771
51 110 1643
52 110 1827
53 110 2040
54 110 1677
55 110 3231
56 110 3024
57 110 3987
58 110 3812
59 110 3530
60 110 3007
61 110 4226
62 110 2059
63 110 3086
64 110 2462
65 110 2811
66 110 2974
67 110 4247
68 110 4413
69 110 5233
70 110 2128
71 110 2850
72 110 4489
73 110 2943
74 110 4064
75 110 3587
76 110 1505
77 110 4182
78 110 2417
79 110 2330
80 110 1421
81 110 2771
82 110 1973
83 110 1421
84 110 2235
85 110 3756
86 110 2680
87 110 4560
88 110 2051
89 110 5074
90 110 3427
91 110 3464
92 110 2999
93 110 3289
94 110 2919
95 110 1343
96 110 4441
97 110 3808
98 110 3913
99 110 2762
100 110 3007
101 110 5706
102 110 3046
103 110 4906
104 110 3364
105 110 1592
106 110 3926
107 110 2339
108 110 4297
109 110 2754
110 110 2691
111 110 1885
112 110 2049
113 110 3921
114 110 4710
115 110 3318
116 110 6244
117 110 2032
118 110 2725
119 110 2874
120 110 3320
121 110 3654
122 110 1684
123 110 3938
124 110 3098
125 110 2253
126 110 2944
127 110 1727
128 110 4394
129 110 3233
130 110 5408
131 110 2610
132 110 4041
133 110 1274
134 110 1818
135 110 2360
136 110 3294
137 110 2553
138 110 1362
139 110 2820
140 110 1509
141 110 3719
142 110 1552
143 110 1417
144 110 2274
145 110 5316
146 110 2340
147 110 2881
148 110 2567
149 110 5530
150 110 2481
151 110 2975
152 110 5484
153 110 1196
154 110 2115
155 110 3249
156 110 3073
157 110 2592
158 110 2438
159 110 1926
160 110 2617
161 110 2198
162 110 1545
163 110 1565
164 110 5740
165 110 3443
166 110 3425
167 110 2512
168 110 3324
169 110 1387
170 110 2272
171 110 6481
172 110 2937
173 110 3974
174 110 2299
175 110 2951
176 110 1921
177 110 2264
178 110 3691
179 110 3407
180 110 4445
181 110 2821
182 110 2769
183 110 4333
184 110 2987
185 110 2967
186 110 2587
187 110 4811
188 110 2925
189 110 3574
190 110 2228
191 110 1419
192 110 2806
193 110 2795
194 110 1494
195 110 3878
196 110 2905
197 110 5875
198 110 1915
199 110 2692
200 110 3962
201 110 2850
202 110 2943
203 110 3574
204 110 1907
205 110 2516
206 110 2474
207 110 3352
208 110 2578
209 110 2499
210 110 2441
211 110 2258
212 110 1227
213 110 1503
214 110 4370
215 110 2254
216 110 3814
217 110 3685
218 110 1486
219 110 2368
220 110 4294
221 110 2819
222 110 1375
223 110 4312
224 110 2962
225 110 4355
226 110 2607
227 110 1410
228 110 2650
229 110 2538
230 110 4064
231 110 4150
232 110 2626
233 110 2662
234 110 2334
235 110 3697
236 110 4213
237 110 1918
238 110 2407
239 110 1771
240 110 1576
241 110 2313
242 110 3901
243 110 2680
244 110 3503
245 110 3590
246 110 1640
247 110 4451
248 110 4642
249 110 3125
250 110 4718
251 110 5151
252 110 2010
253 110 3627
254 110 4399
255 110 2464
256 110 1418
257 110 2073
258 110 4452
259 110 3784
260 110 1649
261 110 2913
262 110 2685
263 110 1573
264 110 3709
265 110 4544
266 110 2953
267 110 2680
268 110 4487
269 110 2896
270 110 1431
271 110 4101
272 110 2751
273 110 3260
274 110 2431
275 110 3327
276 110 2618
277 110 1899
278 110 3188
279 110 2398
280 110 1991
281 110 2678
282 110 2806
283 110 2942
284 110 2228
285 110 3099
286 110 1936
287 110 2231
288 110 3408
289 110 3815
290 110 2704
291 110 3715
292 110 1696
293 110 3785
294 110 2639
295 110 4129
296 110 3191
297 110 2646
298 110 2337
299 110 2209
300 110 3778
301 110 1657
302 110 4661
303 110 3239
304 110 3289
305 110 2256
306 110 2773
307 110 3470
308 110 3423
309 110 3937
310 110 5139
311 110 3825
312 110 2827
313 110 2038
314 110 2425
315 110 1583
316 110 4838
317 110 4070
318 110 1116
319 110 2543
320 110 4056
321 110 1361
322 110 1352
323 110 2029
324 110 1495
325 110 3888
326 110 2175
327 110 2577
328 110 1766
329 110 4020
330 110 1071
331 110 6033
332 110 4830
333 110 1912
334 110 3501
335 110 1265
336 110 2401
337 110 3367
338 110 2836
339 110 1940
340 110 3505
341 110 1461
342 110 3407
343 110 2813
344 110 1725
345 110 4235
346 110 2557
347 110 5015
348 110 4323
349 110 4829
350 110 1650
351 110 3897
352 110 3446
353 110 2398
354 110 1513
355 110 2702
356 110 3349
357 110 3603
358 110 2706
359 110 2441
360 110 3438
361 110 2471
362 110 2137
363 110 2076
364 110 3821
365 110 1572
366 110 2103
367 110 1524
368 110 2923
369 110 3450
370 110 2197
371 110 3098
372 110 2761
373 110 1672
374 110 4685
375 110 2673
376 110 4181
377 110 4830
378 110 3618
379 110 1398
380 110 3238
381 110 3402
382 110 3404
383 110 5124
384 110 4668
385 110 4779
386 110 3508
387 110 2880
388 110 1787
389 110 3531
390 110 4536
391 110 3860
392 110 2759
393 110 3209
394 110 1795
395 110 2687
396 110 1379
397 110 4617
398 110 2869
399 110 1673
400 110 2735
401 110 4961
402 110 3494
403 110 2435
404 110 3711
405 110 2274
406 110 4253
407 110 2795
408 110 2601
409 110 3747
410 110 3240
411 110 2687
412 110 4199
413 110 3627
414 110 3598
415 110 2191
416 110 2208
417 110 2055
418 110 2932
419 110 3178
420 110 3180
421 110 2104
422 110 2723
423 110 2525
424 110 1112
425 110 2958
426 110 5404
427 110 1857
428 110 3523
429 110 3361
430 110 3917
431 110 5290
432 110 2110
433 110 2273
434 110 2845
435 110 3373
436 110 3535
437 110 2974
438 110 2289
439 110 2662
440 110 3255
441 110 3938
442 110 1322
443 110 3882
444 110 3026
445 110 2977
446 110 2529
447 110 2651
448 110 5268
449 110 2253
450 110 1993
451 110 1720
452 110 4713
453 110 2521
454 110 1466
455 110 3055
456 110 2700
457 110 2455
458 110 3499
459 110 4343
460 110 2607
461 110 1663
462 110 4152
463 110 3134
464 110 1444
465 110 2030
466 110 2643
467 110 1906
468 110 2130
469 110 4310
470 110 4905
471 110 4773
472 110 2543
473 110 3850
474 110 5382
475 110 3294
476 110 4069
477 110 2393
478 110 4678
479 110 3526
480 110 2972
481 110 2312
482 110 2359
483 110 1623
484 110 1855
485 110 1837
486 110 2513
487 110 2872
488 110 2554
489 110 2416
490 110 2663
491 110 3229
492 110 3469
493 110 3812
494 110 1785
495 110 2371
496 110 2907
497 110 2671
498 110 2511
499 110 4827
500 110 2964
