%%MatrixMarket matrix coordinate integer general
500 110 39933
1 1 1641
2 1 2793
3 1 1380
4 1 3190
5 1 2180
6 1 1736
7 1 1816
8 1 1852
9 1 1791
10 1 1929
11 1 3327
12 1 3260
13 1 2700
14 1 3365
15 1 3939
16 1 1277
17 1 1621
18 1 2836
19 1 1511
20 1 1662
21 1 3378
22 1 3039
23 1 1201
24 1 1924
25 1 2521
26 1 1846
27 1 1166
28 1 2607
29 1 1901
30 1 2052
31 1 1967
32 1 2824
33 1 3237
34 1 1611
35 1 2952
36 1 2178
37 1 1751
38 1 1650
39 1 2334
40 1 3785
41 1 2027
42 1 2016
43 1 1145
44 1 1757
45 1 1315
46 1 2137
47 1 2173
48 1 1766
49 1 2545
50 1 1251
51 1 728
52 1 1404
53 1 2902
54 1 1714
55 1 1970
56 1 2339
57 1 3141
58 1 2444
59 1 2203
60 1 2003
61 1 1964
62 1 1431
63 1 2605
64 1 1130
65 1 2152
66 1 2289
67 1 3019
68 1 2028
69 1 2036
70 1 2362
71 1 3062
72 1 1224
73 1 843
74 1 2830
75 1 5404
76 1 674
77 1 1598
78 1 2183
79 1 3021
80 1 2114
81 1 3236
82 1 1243
83 1 1788
84 1 1418
85 1 2359
86 1 1930
87 1 2899
88 1 2644
89 1 4723
90 1 2235
91 1 2319
92 1 3495
93 1 1838
94 1 2592
95 1 1736
96 1 3944
97 1 2994
98 1 799
99 1 4164
100 1 2902
101 1 1652
102 1 1650
103 1 2987
104 1 5317
105 1 1091
106 1 2327
107 1 3095
108 1 2381
109 1 2366
110 1 3742
111 1 2718
112 1 1176
113 1 3250
114 1 1473
115 1 1161
116 1 5511
117 1 1241
118 1 2670
119 1 2714
120 1 1228
121 1 1186
122 1 1613
123 1 1982
124 1 2674
125 1 3251
126 1 2606
127 1 1176
128 1 4175
129 1 3248
130 1 2159
131 1 2697
132 1 2558
133 1 1989
134 1 2092
135 1 3675
136 1 1944
137 1 1984
138 1 1800
139 1 1320
140 1 777
141 1 3422
142 1 1104
143 1 1565
144 1 2455
145 1 3389
146 1 1474
147 1 2166
148 1 2207
149 1 2379
150 1 2544
151 1 1725
152 1 4512
153 1 2064
154 1 2127
155 1 1436
156 1 2959
157 1 1321
158 1 1587
159 1 2701
160 1 999
161 1 1333
162 1 720
163 1 1239
164 1 4711
165 1 3525
166 1 1876
167 1 2016
168 1 3494
169 1 1728
170 1 2194
171 1 3360
172 1 2190
173 1 3304
174 1 2016
175 1 1813
176 1 1636
177 1 2156
178 1 2423
179 1 3297
180 1 1915
181 1 3615
182 1 2931
183 1 2167
184 1 2316
185 1 3318
186 1 1711
187 1 3359
188 1 2279
189 1 3399
190 1 779
191 1 1653
192 1 1592
193 1 2136
194 1 1463
195 1 2498
196 1 3025
197 1 1807
198 1 1287
199 1 3757
200 1 1870
201 1 2197
202 1 2058
203 1 1810
204 1 1688
205 1 1610
206 1 1346
207 1 1692
208 1 2369
209 1 1295
210 1 1335
211 1 1465
212 1 738
213 1 1016
214 1 1452
215 1 2475
216 1 3266
217 1 998
218 1 1679
219 1 2527
220 1 2339
221 1 3259
222 1 592
223 1 2074
224 1 2670
225 1 3096
226 1 2217
227 1 1850
228 1 2762
229 1 3147
230 1 1897
231 1 3605
232 1 3380
233 1 3616
234 1 2127
235 1 2439
236 1 2516
237 1 1004
238 1 2115
239 1 2584
240 1 1911
241 1 3667
242 1 2912
243 1 1656
244 1 1791
245 1 1954
246 1 2268
247 1 3661
248 1 2610
249 1 1820
250 1 1263
251 1 4068
252 1 1103
253 1 1631
254 1 2005
255 1 2628
256 1 1465
257 1 1422
258 1 1806
259 1 1737
260 1 818
261 1 1429
262 1 2624
263 1 1293
264 1 2596
265 1 2170
266 1 3017
267 1 1208
268 1 2902
269 1 1868
270 1 1454
271 1 1969
272 1 2735
273 1 3668
274 1 1343
275 1 2527
276 1 2874
277 1 1267
278 1 3366
279 1 1637
280 1 2670
281 1 3370
282 1 2192
283 1 1358
284 1 1306
285 1 2152
286 1 1326
287 1 1976
288 1 1274
289 1 3278
290 1 2946
291 1 3021
292 1 1499
293 1 1514
294 1 2271
295 1 945
296 1 2588
297 1 1772
298 1 2809
299 1 1217
300 1 1584
301 1 1651
302 1 2784
303 1 855
304 1 1754
305 1 3403
306 1 3030
307 1 3511
308 1 1287
309 1 3155
310 1 3406
311 1 1800
312 1 811
313 1 1106
314 1 1928
315 1 2167
316 1 1600
317 1 2649
318 1 1295
319 1 2372
320 1 3785
321 1 1582
322 1 672
323 1 2202
324 1 1247
325 1 2279
326 1 742
327 1 2141
328 1 1273
329 1 2231
330 1 1888
331 1 2550
332 1 2966
333 1 1237
334 1 1947
335 1 1955
336 1 2912
337 1 1536
338 1 3523
339 1 1643
340 1 832
341 1 1819
342 1 1949
343 1 1291
344 1 1798
345 1 2415
346 1 2073
347 1 3062
348 1 1436
349 1 2308
350 1 2323
351 1 1270
352 1 1822
353 1 1566
354 1 1246
355 1 3781
356 1 1596
357 1 2909
358 1 953
359 1 1257
360 1 2013
361 1 3451
362 1 1076
363 1 1579
364 1 2937
365 1 795
366 1 2295
367 1 1378
368 1 1687
369 1 2966
370 1 1788
371 1 1847
372 1 3561
373 1 1810
374 1 1483
375 1 1953
376 1 2421
377 1 2958
378 1 2532
379 1 1868
380 1 1885
381 1 3516
382 1 1876
383 1 2514
384 1 3970
385 1 1476
386 1 1934
387 1 3556
388 1 1744
389 1 2166
390 1 2670
391 1 1576
392 1 1942
393 1 3731
394 1 1907
395 1 3402
396 1 650
397 1 2636
398 1 1758
399 1 3944
400 1 1175
401 1 2920
402 1 2506
403 1 1257
404 1 2358
405 1 1275
406 1 2447
407 1 1401
408 1 1867
409 1 2205
410 1 1930
411 1 2124
412 1 1816
413 1 2449
414 1 2199
415 1 2905
416 1 2438
417 1 2848
418 1 3948
419 1 1964
420 1 2468
421 1 2475
422 1 2938
423 1 3012
424 1 1095
425 1 1724
426 1 1474
427 1 2842
428 1 2307
429 1 2338
430 1 3049
431 1 3149
432 1 1451
433 1 1996
434 1 3064
435 1 3546
436 1 2586
437 1 1888
438 1 1611
439 1 2535
440 1 1985
441 1 2792
442 1 643
443 1 1905
444 1 2385
445 1 3000
446 1 1320
447 1 2336
448 1 1591
449 1 2418
450 1 1214
451 1 1199
452 1 2251
453 1 4442
454 1 1457
455 1 2269
456 1 1276
457 1 1634
458 1 1316
459 1 1269
460 1 3005
461 1 1506
462 1 4551
463 1 3126
464 1 1571
465 1 2495
466 1 1699
467 1 1713
468 1 2490
469 1 3289
470 1 2963
471 1 2390
472 1 3302
473 1 1889
474 1 2497
475 1 2010
476 1 3254
477 1 2085
478 1 3678
479 1 4429
480 1 852
481 1 2718
482 1 1661
483 1 1813
484 1 2795
485 1 1670
486 1 3013
487 1 1399
488 1 2229
489 1 2380
490 1 2589
491 1 3301
492 1 1160
493 1 1582
494 1 1005
495 1 1154
496 1 2111
497 1 1152
498 1 1403
499 1 2055
500 1 2460
1 2 1666
2 2 2428
3 2 331
4 2 1315
5 2 1017
6 2 950
7 2 1158
8 2 704
9 2 1592
10 2 1330
11 2 1457
12 2 461
13 2 1224
14 2 871
15 2 1148
16 2 1067
17 2 710
18 2 1000
19 2 1402
20 2 1952
21 2 1558
22 2 1391
23 2 503
24 2 1506
25 2 904
26 2 674
27 2 341
28 2 1703
29 2 536
30 2 1219
31 2 1773
32 2 1619
33 2 1151
34 2 1471
35 2 1329
36 2 1643
37 2 1384
38 2 588
39 2 1603
40 2 1797
41 2 1570
42 2 1047
43 2 452
44 2 569
45 2 746
46 2 1070
47 2 1140
48 2 960
49 2 1479
50 2 746
51 2 720
52 2 879
53 2 944
54 2 846
55 2 1106
56 2 1898
57 2 1232
58 2 1419
59 2 2237
60 2 1249
61 2 1138
62 2 1622
63 2 1880
64 2 1386
65 2 1190
66 2 1753
67 2 1303
68 2 722
69 2 1313
70 2 1323
71 2 1263
72 2 1380
73 2 874
74 2 1775
75 2 2151
76 2 569
77 2 1437
78 2 961
79 2 754
80 2 1974
81 2 1195
82 2 1550
83 2 1271
84 2 551
85 2 1320
86 2 1132
87 2 756
88 2 1187
89 2 1627
90 2 1458
91 2 2086
92 2 1281
93 2 1147
94 2 1696
95 2 942
96 2 874
97 2 1138
98 2 1375
99 2 1203
100 2 1211
101 2 1774
102 2 1835
103 2 1210
104 2 2563
105 2 372
106 2 1200
107 2 1865
108 2 706
109 2 688
110 2 1458
111 2 991
112 2 483
113 2 1153
114 2 1549
115 2 1593
116 2 1273
117 2 911
118 2 908
119 2 1038
120 2 1773
121 2 901
122 2 1643
123 2 655
124 2 695
125 2 709
126 2 1764
127 2 719
128 2 678
129 2 1300
130 2 1553
131 2 1058
132 2 1773
133 2 635
134 2 759
135 2 422
136 2 1280
137 2 333
138 2 701
139 2 1009
140 2 345
141 2 1081
142 2 362
143 2 589
144 2 1343
145 2 1971
146 2 1037
147 2 565
148 2 1370
149 2 1896
150 2 533
151 2 612
152 2 1748
153 2 677
154 2 1882
155 2 1508
156 2 1970
157 2 552
158 2 1160
159 2 1124
160 2 1615
161 2 1001
162 2 338
163 2 846
164 2 1884
165 2 683
166 2 963
167 2 1603
168 2 1782
169 2 914
170 2 1748
171 2 1842
172 2 1346
173 2 1198
174 2 2077
175 2 849
176 2 718
177 2 1450
178 2 1209
179 2 768
180 2 2469
181 2 1848
182 2 939
183 2 3219
184 2 1824
185 2 943
186 2 881
187 2 2549
188 2 352
189 2 374
190 2 644
191 2 661
192 2 929
193 2 1365
194 2 910
195 2 1911
196 2 926
197 2 1089
198 2 1064
199 2 1389
200 2 1403
201 2 1255
202 2 914
203 2 809
204 2 1228
205 2 2487
206 2 935
207 2 419
208 2 565
209 2 887
210 2 423
211 2 1231
212 2 671
213 2 659
214 2 1389
215 2 595
216 2 1441
217 2 1687
218 2 1025
219 2 1937
220 2 1548
221 2 1058
222 2 971
223 2 1141
224 2 999
225 2 1891
226 2 766
227 2 923
228 2 1292
229 2 959
230 2 471
231 2 602
232 2 691
233 2 930
234 2 1778
235 2 1819
236 2 3058
237 2 577
238 2 847
239 2 960
240 2 1235
241 2 396
242 2 1292
243 2 1320
244 2 1034
245 2 2171
246 2 1590
247 2 1544
248 2 1302
249 2 688
250 2 740
251 2 1108
252 2 519
253 2 923
254 2 1458
255 2 699
256 2 841
257 2 1067
258 2 1318
259 2 1966
260 2 901
261 2 1511
262 2 1882
263 2 1107
264 2 585
265 2 2613
266 2 1845
267 2 1122
268 2 771
269 2 1529
270 2 639
271 2 2419
272 2 598
273 2 1560
274 2 1187
275 2 839
276 2 1226
277 2 863
278 2 1417
279 2 420
280 2 1182
281 2 1672
282 2 1187
283 2 1418
284 2 1655
285 2 1313
286 2 1747
287 2 629
288 2 1660
289 2 1449
290 2 1410
291 2 1603
292 2 745
293 2 1923
294 2 1223
295 2 1175
296 2 2434
297 2 498
298 2 1248
299 2 458
300 2 934
301 2 917
302 2 1916
303 2 586
304 2 393
305 2 920
306 2 1729
307 2 1034
308 2 1565
309 2 1778
310 2 3139
311 2 1640
312 2 744
313 2 498
314 2 698
315 2 1463
316 2 1155
317 2 1141
318 2 554
319 2 1495
320 2 1507
321 2 1594
322 2 811
323 2 1850
324 2 1101
325 2 1088
326 2 698
327 2 2106
328 2 783
329 2 489
330 2 593
331 2 1002
332 2 1876
333 2 930
334 2 892
335 2 296
336 2 2861
337 2 1344
338 2 1229
339 2 597
340 2 1126
341 2 967
342 2 1085
343 2 1063
344 2 1445
345 2 1081
346 2 877
347 2 2274
348 2 1119
349 2 2420
350 2 1849
351 2 1396
352 2 921
353 2 1515
354 2 1028
355 2 1420
356 2 1584
357 2 600
358 2 445
359 2 893
360 2 876
361 2 979
362 2 987
363 2 360
364 2 1175
365 2 337
366 2 1790
367 2 1148
368 2 1390
369 2 1675
370 2 1132
371 2 748
372 2 1848
373 2 1685
374 2 1025
375 2 1796
376 2 1224
377 2 1380
378 2 986
379 2 996
380 2 1268
381 2 1294
382 2 746
383 2 854
384 2 1578
385 2 1188
386 2 910
387 2 1046
388 2 887
389 2 1723
390 2 1231
391 2 1307
392 2 811
393 2 644
394 2 668
395 2 853
396 2 815
397 2 820
398 2 1027
399 2 1264
400 2 986
401 2 2458
402 2 867
403 2 834
404 2 1863
405 2 976
406 2 2520
407 2 1198
408 2 1165
409 2 1300
410 2 439
411 2 1192
412 2 1696
413 2 1084
414 2 1686
415 2 821
416 2 2349
417 2 1319
418 2 1572
419 2 1876
420 2 927
421 2 1472
422 2 865
423 2 2897
424 2 757
425 2 1483
426 2 1633
427 2 675
428 2 1078
429 2 1385
430 2 1676
431 2 614
432 2 1003
433 2 892
434 2 1762
435 2 2405
436 2 475
437 2 1887
438 2 1226
439 2 1887
440 2 2074
441 2 1393
442 2 831
443 2 689
444 2 954
445 2 1998
446 2 1495
447 2 2153
448 2 1089
449 2 2345
450 2 1057
451 2 761
452 2 832
453 2 906
454 2 965
455 2 2277
456 2 493
457 2 1400
458 2 796
459 2 1122
460 2 1238
461 2 911
462 2 1542
463 2 2776
464 2 909
465 2 1517
466 2 1238
467 2 1294
468 2 1240
469 2 1183
470 2 1412
471 2 772
472 2 713
473 2 774
474 2 1930
475 2 1457
476 2 1705
477 2 663
478 2 1487
479 2 780
480 2 828
481 2 1056
482 2 1224
483 2 847
484 2 1388
485 2 565
486 2 2398
487 2 1231
488 2 1430
489 2 1844
490 2 1023
491 2 714
492 2 905
493 2 1913
494 2 444
495 2 416
496 2 1291
497 2 821
498 2 1372
499 2 2617
500 2 2631
1 3 661
2 3 495
3 3 831
4 3 180
5 3 182
6 3 88
7 3 290
8 3 173
9 3 278
10 3 435
11 3 334
12 3 288
13 3 503
14 3 302
15 3 615
16 3 246
17 3 528
18 3 214
19 3 155
20 3 152
21 3 280
22 3 674
23 3 151
24 3 296
25 3 749
26 3 224
27 3 110
28 3 342
29 3 345
30 3 476
31 3 372
32 3 373
33 3 343
34 3 397
35 3 314
36 3 237
37 3 543
38 3 147
39 3 241
40 3 314
41 3 267
42 3 461
43 3 435
44 3 367
45 3 303
46 3 342
47 3 512
48 3 103
49 3 178
50 3 117
51 3 343
52 3 112
53 3 218
54 3 145
55 3 223
56 3 465
57 3 330
58 3 266
59 3 640
60 3 340
61 3 398
62 3 273
63 3 270
64 3 615
65 3 186
66 3 527
67 3 462
68 3 389
69 3 342
70 3 202
71 3 249
72 3 353
73 3 431
74 3 260
75 3 465
76 3 206
77 3 193
78 3 725
79 3 392
80 3 412
81 3 184
82 3 374
83 3 271
84 3 328
85 3 554
86 3 603
87 3 560
88 3 174
89 3 338
90 3 245
91 3 612
92 3 448
93 3 156
94 3 221
95 3 103
96 3 409
97 3 536
98 3 270
99 3 301
100 3 612
101 3 502
102 3 217
103 3 220
104 3 208
105 3 116
106 3 290
107 3 250
108 3 750
109 3 251
110 3 217
111 3 275
112 3 175
113 3 650
114 3 687
115 3 139
116 3 415
117 3 282
118 3 472
119 3 375
120 3 239
121 3 195
122 3 529
123 3 350
124 3 276
125 3 204
126 3 336
127 3 319
128 3 328
129 3 260
130 3 812
131 3 262
132 3 360
133 3 375
134 3 170
135 3 280
136 3 205
137 3 242
138 3 166
139 3 552
140 3 88
141 3 490
142 3 112
143 3 173
144 3 418
145 3 638
146 3 241
147 3 362
148 3 342
149 3 409
150 3 141
151 3 652
152 3 555
153 3 312
154 3 193
155 3 174
156 3 467
157 3 502
158 3 495
159 3 257
160 3 348
161 3 220
162 3 100
163 3 342
164 3 600
165 3 535
166 3 386
167 3 264
168 3 372
169 3 101
170 3 169
171 3 212
172 3 243
173 3 920
174 3 152
175 3 572
176 3 247
177 3 347
178 3 296
179 3 520
180 3 705
181 3 533
182 3 360
183 3 320
184 3 605
185 3 205
186 3 134
187 3 327
188 3 315
189 3 343
190 3 142
191 3 272
192 3 474
193 3 287
194 3 379
195 3 328
196 3 488
197 3 609
198 3 227
199 3 276
200 3 191
201 3 239
202 3 464
203 3 243
204 3 236
205 3 348
206 3 81
207 3 141
208 3 562
209 3 98
210 3 123
211 3 374
212 3 100
213 3 185
214 3 362
215 3 316
216 3 505
217 3 383
218 3 729
219 3 594
220 3 308
221 3 278
222 3 312
223 3 484
224 3 196
225 3 252
226 3 150
227 3 93
228 3 170
229 3 475
230 3 743
231 3 220
232 3 355
233 3 809
234 3 317
235 3 358
236 3 465
237 3 235
238 3 135
239 3 771
240 3 99
241 3 282
242 3 251
243 3 309
244 3 139
245 3 190
246 3 388
247 3 711
248 3 516
249 3 275
250 3 398
251 3 313
252 3 408
253 3 304
254 3 258
255 3 377
256 3 416
257 3 237
258 3 396
259 3 316
260 3 200
261 3 338
262 3 191
263 3 568
264 3 406
265 3 385
266 3 433
267 3 151
268 3 532
269 3 228
270 3 739
271 3 288
272 3 289
273 3 1035
274 3 359
275 3 813
276 3 192
277 3 247
278 3 241
279 3 83
280 3 205
281 3 306
282 3 699
283 3 244
284 3 202
285 3 292
286 3 83
287 3 372
288 3 151
289 3 464
290 3 382
291 3 343
292 3 116
293 3 192
294 3 228
295 3 211
296 3 456
297 3 104
298 3 529
299 3 252
300 3 800
301 3 298
302 3 303
303 3 423
304 3 154
305 3 537
306 3 572
307 3 651
308 3 199
309 3 507
310 3 441
311 3 226
312 3 444
313 3 409
314 3 344
315 3 363
316 3 244
317 3 210
318 3 241
319 3 240
320 3 897
321 3 169
322 3 125
323 3 183
324 3 584
325 3 127
326 3 141
327 3 277
328 3 132
329 3 117
330 3 385
331 3 263
332 3 280
333 3 246
334 3 196
335 3 417
336 3 282
337 3 231
338 3 298
339 3 416
340 3 190
341 3 104
342 3 217
343 3 580
344 3 235
345 3 228
346 3 280
347 3 238
348 3 548
349 3 463
350 3 333
351 3 561
352 3 544
353 3 424
354 3 575
355 3 274
356 3 448
357 3 719
358 3 291
359 3 101
360 3 254
361 3 588
362 3 481
363 3 372
364 3 529
365 3 97
366 3 347
367 3 648
368 3 260
369 3 246
370 3 132
371 3 385
372 3 319
373 3 233
374 3 235
375 3 858
376 3 546
377 3 208
378 3 539
379 3 110
380 3 397
381 3 375
382 3 157
383 3 786
384 3 777
385 3 341
386 3 239
387 3 570
388 3 143
389 3 653
390 3 833
391 3 466
392 3 547
393 3 442
394 3 123
395 3 116
396 3 117
397 3 353
398 3 268
399 3 383
400 3 224
401 3 645
402 3 785
403 3 121
404 3 333
405 3 305
406 3 369
407 3 328
408 3 617
409 3 850
410 3 402
411 3 281
412 3 294
413 3 736
414 3 927
415 3 383
416 3 381
417 3 230
418 3 656
419 3 260
420 3 804
421 3 996
422 3 332
423 3 288
424 3 132
425 3 640
426 3 266
427 3 726
428 3 166
429 3 213
430 3 602
431 3 413
432 3 144
433 3 319
434 3 220
435 3 568
436 3 443
437 3 288
438 3 493
439 3 182
440 3 964
441 3 375
442 3 110
443 3 148
444 3 337
445 3 278
446 3 331
447 3 109
448 3 586
449 3 404
450 3 119
451 3 292
452 3 193
453 3 377
454 3 282
455 3 547
456 3 520
457 3 728
458 3 173
459 3 413
460 3 301
461 3 444
462 3 77
463 3 589
464 3 402
465 3 252
466 3 171
467 3 125
468 3 674
469 3 229
470 3 496
471 3 412
472 3 387
473 3 353
474 3 451
475 3 283
476 3 433
477 3 264
478 3 484
479 3 311
480 3 470
481 3 199
482 3 196
483 3 151
484 3 43
485 3 165
486 3 400
487 3 219
488 3 288
489 3 335
490 3 258
491 3 208
492 3 500
493 3 205
494 3 128
495 3 295
496 3 204
497 3 541
498 3 292
499 3 502
500 3 577
1 4 921
2 4 1872
3 4 1659
4 4 895
5 4 770
6 4 1075
7 4 1688
8 4 1383
9 4 696
10 4 1723
11 4 704
12 4 953
13 4 2049
14 4 892
15 4 2083
16 4 1075
17 4 1526
18 4 790
19 4 1163
20 4 404
21 4 795
22 4 2619
23 4 545
24 4 1014
25 4 1189
26 4 2397
27 4 263
28 4 1745
29 4 552
30 4 1550
31 4 1218
32 4 709
33 4 1455
34 4 497
35 4 751
36 4 1261
37 4 1584
38 4 650
39 4 512
40 4 1628
41 4 1081
42 4 541
43 4 1354
44 4 1747
45 4 844
46 4 525
47 4 820
48 4 1108
49 4 1147
50 4 573
51 4 704
52 4 649
53 4 763
54 4 859
55 4 970
56 4 1623
57 4 463
58 4 902
59 4 936
60 4 978
61 4 1148
62 4 819
63 4 1161
64 4 688
65 4 751
66 4 891
67 4 850
68 4 1174
69 4 747
70 4 219
71 4 1628
72 4 1214
73 4 1813
74 4 1084
75 4 2141
76 4 592
77 4 738
78 4 1237
79 4 1755
80 4 901
81 4 2281
82 4 1091
83 4 1627
84 4 415
85 4 986
86 4 881
87 4 876
88 4 176
89 4 2572
90 4 648
91 4 1455
92 4 613
93 4 808
94 4 1177
95 4 1098
96 4 1150
97 4 1124
98 4 1079
99 4 332
100 4 565
101 4 1787
102 4 697
103 4 648
104 4 908
105 4 228
106 4 514
107 4 799
108 4 668
109 4 1550
110 4 1368
111 4 1207
112 4 389
113 4 1131
114 4 2572
115 4 1559
116 4 1263
117 4 315
118 4 1335
119 4 979
120 4 693
121 4 741
122 4 705
123 4 746
124 4 534
125 4 1110
126 4 1133
127 4 1035
128 4 744
129 4 954
130 4 1690
131 4 1451
132 4 1833
133 4 427
134 4 1709
135 4 1098
136 4 600
137 4 1430
138 4 767
139 4 1470
140 4 940
141 4 1109
142 4 214
143 4 691
144 4 1673
145 4 889
146 4 897
147 4 667
148 4 977
149 4 437
150 4 1176
151 4 564
152 4 1671
153 4 428
154 4 720
155 4 1057
156 4 668
157 4 1115
158 4 267
159 4 1007
160 4 1057
161 4 309
162 4 934
163 4 754
164 4 1684
165 4 2094
166 4 929
167 4 1715
168 4 1011
169 4 1080
170 4 756
171 4 1177
172 4 1014
173 4 696
174 4 1379
175 4 1726
176 4 1151
177 4 3162
178 4 1567
179 4 1381
180 4 1272
181 4 1026
182 4 1248
183 4 1860
184 4 924
185 4 1124
186 4 927
187 4 1030
188 4 1134
189 4 1525
190 4 506
191 4 651
192 4 483
193 4 546
194 4 883
195 4 593
196 4 1963
197 4 565
198 4 1272
199 4 1176
200 4 710
201 4 1095
202 4 1511
203 4 496
204 4 1244
205 4 1842
206 4 500
207 4 900
208 4 1080
209 4 483
210 4 333
211 4 907
212 4 525
213 4 535
214 4 1869
215 4 1078
216 4 1610
217 4 1928
218 4 922
219 4 1825
220 4 1336
221 4 1007
222 4 393
223 4 1251
224 4 472
225 4 2248
226 4 524
227 4 1160
228 4 346
229 4 1032
230 4 705
231 4 1459
232 4 628
233 4 793
234 4 734
235 4 400
236 4 1785
237 4 302
238 4 1041
239 4 859
240 4 835
241 4 1049
242 4 645
243 4 920
244 4 778
245 4 983
246 4 1016
247 4 1825
248 4 812
249 4 622
250 4 360
251 4 1703
252 4 909
253 4 821
254 4 1346
255 4 680
256 4 847
257 4 1840
258 4 639
259 4 2206
260 4 970
261 4 1043
262 4 1482
263 4 218
264 4 1336
265 4 894
266 4 700
267 4 1149
268 4 827
269 4 1167
270 4 364
271 4 1738
272 4 411
273 4 1359
274 4 858
275 4 1045
276 4 334
277 4 289
278 4 1573
279 4 854
280 4 182
281 4 543
282 4 886
283 4 637
284 4 728
285 4 999
286 4 538
287 4 639
288 4 1508
289 4 1687
290 4 1938
291 4 1136
292 4 521
293 4 643
294 4 716
295 4 1423
296 4 494
297 4 706
298 4 1447
299 4 655
300 4 1380
301 4 389
302 4 1525
303 4 897
304 4 942
305 4 1059
306 4 992
307 4 1069
308 4 1530
309 4 1071
310 4 1281
311 4 1389
312 4 963
313 4 934
314 4 1396
315 4 1533
316 4 616
317 4 1944
318 4 696
319 4 1015
320 4 1080
321 4 562
322 4 674
323 4 771
324 4 193
325 4 1387
326 4 549
327 4 433
328 4 584
329 4 731
330 4 1012
331 4 423
332 4 1505
333 4 243
334 4 2646
335 4 462
336 4 751
337 4 694
338 4 932
339 4 1030
340 4 215
341 4 1147
342 4 788
343 4 1499
344 4 636
345 4 781
346 4 1053
347 4 943
348 4 1174
349 4 2074
350 4 803
351 4 590
352 4 864
353 4 1015
354 4 219
355 4 1128
356 4 1102
357 4 370
358 4 1055
359 4 473
360 4 744
361 4 704
362 4 1214
363 4 436
364 4 1136
365 4 1035
366 4 1439
367 4 209
368 4 844
369 4 391
370 4 622
371 4 1048
372 4 1218
373 4 989
374 4 1375
375 4 1369
376 4 626
377 4 270
378 4 1125
379 4 1169
380 4 708
381 4 1337
382 4 989
383 4 884
384 4 804
385 4 2307
386 4 1227
387 4 1650
388 4 869
389 4 1075
390 4 814
391 4 1153
392 4 817
393 4 832
394 4 1063
395 4 1213
396 4 629
397 4 978
398 4 752
399 4 1733
400 4 1485
401 4 607
402 4 1053
403 4 471
404 4 830
405 4 733
406 4 1994
407 4 1523
408 4 866
409 4 1035
410 4 1029
411 4 2177
412 4 1149
413 4 938
414 4 938
415 4 1059
416 4 717
417 4 455
418 4 1022
419 4 520
420 4 1241
421 4 1111
422 4 1575
423 4 739
424 4 568
425 4 2070
426 4 588
427 4 1081
428 4 643
429 4 758
430 4 2930
431 4 832
432 4 1225
433 4 518
434 4 385
435 4 1146
436 4 1261
437 4 887
438 4 818
439 4 1414
440 4 843
441 4 2165
442 4 657
443 4 846
444 4 809
445 4 886
446 4 750
447 4 1493
448 4 857
449 4 741
450 4 380
451 4 1070
452 4 1498
453 4 2410
454 4 616
455 4 854
456 4 1133
457 4 1186
458 4 568
459 4 842
460 4 818
461 4 371
462 4 1526
463 4 717
464 4 392
465 4 1050
466 4 672
467 4 474
468 4 1754
469 4 725
470 4 1341
471 4 2098
472 4 646
473 4 2752
474 4 832
475 4 1685
476 4 814
477 4 1464
478 4 1257
479 4 798
480 4 1755
481 4 843
482 4 253
483 4 855
484 4 797
485 4 1214
486 4 562
487 4 764
488 4 1340
489 4 1449
490 4 504
491 4 842
492 4 1400
493 4 640
494 4 424
495 4 901
496 4 283
497 4 763
498 4 1210
499 4 736
500 4 1639
1 5 1053
2 5 218
3 5 281
5 5 866
7 5 592
8 5 956
9 5 926
10 5 1083
11 5 989
12 5 1210
13 5 5
14 5 472
15 5 26
16 5 1219
17 5 3
19 5 782
20 5 815
21 5 636
22 5 128
24 5 808
25 5 220
26 5 1301
28 5 6
29 5 650
30 5 4
32 5 397
33 5 777
34 5 5
35 5 62
39 5 164
40 5 990
41 5 859
42 5 448
43 5 1608
44 5 1573
45 5 94
46 5 23
49 5 5
50 5 296
51 5 333
55 5 547
56 5 103
57 5 346
58 5 59
59 5 24
60 5 622
61 5 510
63 5 2155
64 5 25
65 5 865
66 5 1005
67 5 132
68 5 548
69 5 249
70 5 364
71 5 2309
72 5 27
73 5 1771
74 5 1320
75 5 10
76 5 738
78 5 382
79 5 253
80 5 32
81 5 4
82 5 2050
83 5 6
84 5 635
85 5 844
86 5 1332
87 5 65
88 5 1219
89 5 115
90 5 1603
91 5 550
93 5 381
94 5 20
96 5 889
97 5 8
98 5 344
99 5 1195
100 5 21
101 5 27
102 5 82
103 5 28
104 5 6
106 5 603
107 5 117
108 5 465
109 5 408
110 5 806
111 5 618
112 5 697
113 5 1051
114 5 29
115 5 592
116 5 298
118 5 737
119 5 1392
120 5 662
121 5 607
122 5 3
123 5 33
124 5 1046
125 5 814
126 5 786
127 5 944
129 5 351
130 5 1104
131 5 70
132 5 7
134 5 7
136 5 73
137 5 754
138 5 21
139 5 233
141 5 627
144 5 6
145 5 74
146 5 336
147 5 911
148 5 350
149 5 30
150 5 9
151 5 397
152 5 100
154 5 819
155 5 373
158 5 90
159 5 755
160 5 241
161 5 594
163 5 460
164 5 61
165 5 12
166 5 4
167 5 56
168 5 1013
170 5 7
171 5 89
172 5 446
173 5 23
174 5 884
175 5 412
176 5 91
177 5 5
178 5 958
180 5 4
181 5 8
182 5 1360
183 5 958
184 5 1056
185 5 667
186 5 34
187 5 370
188 5 471
191 5 327
192 5 1074
193 5 4
194 5 6
195 5 4
197 5 9
198 5 74
199 5 890
200 5 320
201 5 447
203 5 1
204 5 247
205 5 152
207 5 296
208 5 9
211 5 1051
213 5 991
214 5 399
215 5 674
216 5 59
217 5 1045
218 5 1507
219 5 74
221 5 7
222 5 822
224 5 148
225 5 63
226 5 820
228 5 1253
229 5 880
230 5 325
231 5 318
232 5 116
233 5 9
234 5 1108
235 5 969
236 5 96
237 5 88
238 5 799
239 5 812
240 5 248
242 5 675
243 5 510
244 5 958
245 5 1020
246 5 384
247 5 61
248 5 97
250 5 1130
251 5 86
253 5 7
254 5 7
255 5 71
256 5 7
257 5 1138
258 5 4
259 5 1543
260 5 531
261 5 922
264 5 35
265 5 3
267 5 1156
268 5 69
269 5 85
270 5 957
271 5 6
272 5 8
273 5 1000
274 5 1019
275 5 1411
276 5 1248
278 5 1396
279 5 302
280 5 1174
282 5 528
283 5 980
284 5 764
285 5 560
286 5 384
287 5 34
288 5 599
289 5 66
290 5 31
291 5 5
292 5 762
294 5 925
295 5 60
296 5 338
297 5 251
298 5 116
299 5 503
300 5 61
301 5 691
302 5 730
303 5 485
304 5 313
305 5 74
306 5 2
308 5 287
309 5 82
310 5 25
311 5 115
312 5 541
314 5 691
315 5 8
316 5 117
317 5 49
319 5 955
320 5 21
321 5 291
323 5 825
325 5 831
327 5 109
328 5 289
329 5 1031
330 5 874
331 5 87
332 5 727
334 5 1058
335 5 1318
336 5 3
337 5 1059
338 5 445
339 5 836
340 5 419
342 5 486
343 5 280
344 5 824
345 5 284
346 5 867
347 5 576
348 5 2
349 5 589
350 5 367
352 5 616
353 5 681
355 5 966
356 5 721
357 5 326
358 5 434
360 5 25
361 5 25
362 5 161
363 5 224
364 5 5
366 5 865
368 5 364
369 5 188
370 5 736
371 5 613
372 5 31
373 5 1122
374 5 47
375 5 53
376 5 33
377 5 247
378 5 545
380 5 645
381 5 27
382 5 1194
383 5 77
384 5 1142
385 5 33
386 5 25
387 5 937
389 5 104
391 5 641
392 5 1277
393 5 6
395 5 6
397 5 26
398 5 566
399 5 532
400 5 579
401 5 380
402 5 1383
404 5 440
405 5 574
406 5 320
407 5 1625
408 5 1339
409 5 71
410 5 2
411 5 1408
412 5 931
413 5 129
414 5 646
416 5 89
417 5 1075
418 5 474
419 5 385
420 5 227
421 5 969
422 5 34
423 5 9
425 5 1640
426 5 10
427 5 25
428 5 537
429 5 27
430 5 197
432 5 21
433 5 970
434 5 5
435 5 384
436 5 310
437 5 52
438 5 26
440 5 50
441 5 20
443 5 86
444 5 102
445 5 982
446 5 696
447 5 259
448 5 9
449 5 88
450 5 210
451 5 919
452 5 27
453 5 1224
454 5 1072
455 5 6
457 5 478
458 5 165
459 5 146
460 5 32
461 5 1034
462 5 8
463 5 2
464 5 440
465 5 790
466 5 1113
467 5 142
468 5 1240
469 5 27
470 5 5
471 5 5
472 5 103
473 5 927
474 5 462
475 5 379
476 5 649
477 5 864
478 5 64
479 5 510
480 5 1716
482 5 117
484 5 183
485 5 1100
486 5 69
487 5 61
488 5 6
489 5 8
490 5 28
491 5 25
494 5 371
495 5 704
496 5 5
497 5 864
498 5 109
499 5 413
500 5 83
1 6 5
2 6 115
3 6 6
4 6 1213
6 6 938
7 6 6
8 6 36
9 6 73
10 6 23
11 6 53
12 6 28
13 6 1240
14 6 66
15 6 1648
16 6 7
17 6 1734
18 6 2296
19 6 24
20 6 3
21 6 56
22 6 1354
23 6 787
24 6 68
25 6 94
26 6 27
27 6 254
28 6 1307
29 6 89
30 6 342
31 6 1027
33 6 8
34 6 1262
35 6 545
36 6 840
37 6 633
38 6 465
39 6 288
40 6 62
41 6 75
42 6 66
43 6 61
44 6 6
45 6 1913
46 6 1429
47 6 1390
48 6 917
49 6 384
50 6 132
52 6 283
53 6 2379
54 6 920
55 6 80
56 6 463
58 6 1095
59 6 848
60 6 6
61 6 33
62 6 780
63 6 6
64 6 991
66 6 625
67 6 299
68 6 22
69 6 4
70 6 28
71 6 7
72 6 1146
75 6 1161
76 6 316
77 6 757
78 6 117
79 6 3
80 6 1794
81 6 1305
82 6 7
83 6 954
85 6 21
86 6 27
87 6 1160
88 6 37
89 6 985
90 6 26
92 6 712
93 6 6
94 6 1617
95 6 888
96 6 33
97 6 945
98 6 8
99 6 28
100 6 493
101 6 1885
102 6 964
103 6 439
104 6 2212
105 6 245
106 6 24
107 6 585
108 6 23
109 6 74
111 6 5
112 6 6
113 6 25
114 6 1109
116 6 97
117 6 648
118 6 6
119 6 9
120 6 56
122 6 967
123 6 935
125 6 59
126 6 106
127 6 51
128 6 1004
129 6 103
130 6 8
131 6 1233
132 6 1339
133 6 373
134 6 1107
135 6 643
136 6 195
137 6 22
138 6 225
139 6 32
140 6 1204
141 6 8
142 6 256
143 6 430
144 6 271
145 6 589
146 6 27
147 6 6
149 6 109
150 6 961
152 6 1210
153 6 363
154 6 50
155 6 93
156 6 1619
157 6 390
158 6 416
159 6 28
160 6 240
161 6 22
162 6 1169
163 6 18
164 6 1200
165 6 983
166 6 830
167 6 936
168 6 26
169 6 913
170 6 1452
171 6 1334
172 6 7
173 6 379
174 6 33
175 6 3
176 6 308
177 6 2389
178 6 35
179 6 565
180 6 1328
181 6 471
183 6 32
184 6 606
186 6 884
187 6 8
188 6 3
189 6 808
190 6 675
192 6 58
193 6 1431
194 6 1271
195 6 616
196 6 1965
197 6 1579
198 6 642
199 6 10
200 6 7
201 6 3
202 6 1738
203 6 2418
204 6 824
205 6 746
206 6 828
207 6 37
208 6 455
209 6 832
210 6 877
211 6 59
212 6 265
213 6 4
215 6 58
216 6 1397
217 6 42
218 6 63
219 6 1495
220 6 803
221 6 707
222 6 232
223 6 1211
224 6 113
225 6 20
226 6 17
227 6 1008
228 6 6
229 6 18
230 6 56
231 6 5
232 6 246
233 6 1584
234 6 83
235 6 5
236 6 2188
237 6 355
238 6 4
239 6 7
240 6 84
241 6 665
243 6 5
244 6 6
246 6 6
247 6 829
248 6 457
249 6 1584
250 6 31
251 6 906
252 6 537
253 6 860
254 6 1909
255 6 774
256 6 1248
257 6 8
258 6 1696
259 6 69
260 6 58
261 6 36
262 6 1951
263 6 1165
264 6 2060
265 6 501
266 6 1661
268 6 1219
269 6 392
270 6 55
271 6 1099
272 6 870
273 6 1
274 6 51
275 6 21
276 6 7
277 6 726
278 6 30
279 6 36
280 6 55
281 6 1694
282 6 42
284 6 51
287 6 393
289 6 1465
290 6 696
291 6 1529
292 6 167
293 6 1070
294 6 23
295 6 644
296 6 7
297 6 35
298 6 807
300 6 787
303 6 18
304 6 34
305 6 576
306 6 643
307 6 2388
309 6 1815
310 6 1150
311 6 1208
312 6 21
313 6 560
315 6 548
316 6 1972
317 6 625
318 6 1075
319 6 3
320 6 2271
321 6 43
322 6 316
323 6 44
324 6 1154
325 6 20
326 6 679
327 6 702
328 6 142
329 6 153
330 6 21
331 6 1743
333 6 705
334 6 7
335 6 26
336 6 1277
337 6 111
338 6 4
339 6 5
340 6 8
341 6 975
342 6 40
343 6 17
344 6 130
345 6 60
347 6 37
348 6 1035
349 6 10
350 6 3
351 6 1245
352 6 35
354 6 1148
355 6 9
357 6 80
358 6 98
359 6 836
360 6 2389
361 6 1021
362 6 338
363 6 139
364 6 1038
365 6 1123
366 6 115
367 6 1151
368 6 542
369 6 838
370 6 33
372 6 479
373 6 118
374 6 597
375 6 748
376 6 481
377 6 189
379 6 1000
380 6 21
381 6 1069
382 6 23
383 6 510
385 6 1382
386 6 1166
387 6 60
388 6 957
389 6 1084
390 6 1874
391 6 36
392 6 7
393 6 795
394 6 1156
395 6 1946
396 6 312
397 6 1083
399 6 62
400 6 104
401 6 4
402 6 26
403 6 837
404 6 2
406 6 78
407 6 12
408 6 30
409 6 1081
410 6 1119
412 6 5
413 6 2207
414 6 117
415 6 1055
416 6 848
418 6 8
419 6 5
420 6 110
421 6 119
422 6 2026
423 6 1307
424 6 1062
425 6 88
426 6 410
427 6 831
428 6 4
429 6 1780
430 6 116
431 6 781
432 6 1314
433 6 3
434 6 1133
435 6 131
436 6 1
437 6 1159
438 6 1040
439 6 1903
440 6 714
441 6 1545
442 6 308
443 6 889
444 6 1936
446 6 8
448 6 1363
449 6 760
450 6 41
451 6 36
452 6 1529
453 6 3
454 6 49
455 6 1204
456 6 365
457 6 28
458 6 52
459 6 44
460 6 986
461 6 5
462 6 618
463 6 356
464 6 60
465 6 28
466 6 56
467 6 457
468 6 57
469 6 853
470 6 272
471 6 655
472 6 232
473 6 63
474 6 4
475 6 234
476 6 32
477 6 9
478 6 161
479 6 3
481 6 1197
482 6 437
483 6 919
484 6 50
485 6 22
486 6 890
487 6 1389
488 6 698
489 6 499
490 6 1395
491 6 1048
492 6 1674
493 6 1109
494 6 538
495 6 5
496 6 1038
497 6 61
498 6 1187
499 6 31
500 6 398
1 7 525
2 7 2160
3 7 656
4 7 7
5 7 109
6 7 4
7 7 2234
8 7 576
9 7 207
10 7 973
11 7 1357
12 7 833
13 7 58
14 7 1310
15 7 6
16 7 196
17 7 22
19 7 1030
20 7 1849
21 7 880
22 7 3
23 7 4
24 7 22
25 7 955
26 7 630
27 7 1
29 7 1035
30 7 22
32 7 461
33 7 1709
34 7 4
35 7 5
37 7 21
38 7 6
40 7 1891
41 7 17
43 7 476
44 7 596
45 7 3
46 7 28
47 7 24
48 7 7
49 7 6
51 7 556
52 7 14
54 7 14
55 7 1223
56 7 3
57 7 1806
58 7 51
59 7 5
60 7 1024
61 7 966
62 7 4
63 7 1065
64 7 3
65 7 126
66 7 9
67 7 692
68 7 1302
69 7 1808
70 7 509
71 7 1901
72 7 2
73 7 892
74 7 1452
75 7 4
76 7 4
78 7 1975
79 7 1346
81 7 113
82 7 2357
84 7 110
85 7 546
86 7 1563
87 7 62
88 7 1820
89 7 453
90 7 1156
91 7 3168
92 7 19
93 7 1794
94 7 7
95 7 6
96 7 2804
97 7 55
98 7 1920
99 7 726
102 7 21
105 7 2
106 7 3862
107 7 41
108 7 1371
109 7 706
110 7 1923
111 7 146
112 7 624
113 7 1476
114 7 4
115 7 2133
116 7 1483
117 7 20
118 7 1665
119 7 990
120 7 919
121 7 230
124 7 2336
125 7 1600
126 7 852
127 7 431
128 7 30
129 7 900
130 7 1239
134 7 7
138 7 51
139 7 1554
140 7 8
141 7 1832
142 7 2
143 7 5
144 7 6
145 7 4
146 7 1104
147 7 826
148 7 940
149 7 998
151 7 1690
152 7 3
154 7 1892
155 7 940
156 7 27
158 7 63
159 7 1825
160 7 28
161 7 126
162 7 7
163 7 52
164 7 5
165 7 24
167 7 30
168 7 1221
169 7 13
171 7 35
172 7 1979
173 7 448
174 7 2234
175 7 1153
177 7 6
178 7 716
179 7 10
180 7 24
181 7 19
182 7 961
183 7 1565
184 7 4
185 7 932
186 7 3
187 7 2083
188 7 426
189 7 171
190 7 6
191 7 100
192 7 654
193 7 23
195 7 2
197 7 21
198 7 7
199 7 1767
200 7 1082
201 7 1942
203 7 3
204 7 20
205 7 138
206 7 15
207 7 4
209 7 18
210 7 7
211 7 1266
212 7 5
213 7 1620
214 7 3378
215 7 1011
216 7 7
217 7 1172
218 7 195
220 7 26
221 7 340
224 7 40
225 7 2111
226 7 1477
227 7 3
228 7 1097
229 7 1385
230 7 1006
231 7 1092
232 7 10
233 7 28
234 7 812
235 7 1501
238 7 2022
239 7 1246
242 7 681
243 7 1074
244 7 599
245 7 1099
246 7 1344
247 7 22
249 7 2
250 7 922
251 7 66
253 7 33
254 7 7
255 7 201
257 7 1653
258 7 31
259 7 816
260 7 220
261 7 1530
262 7 3
263 7 4
265 7 26
266 7 23
267 7 2007
268 7 62
269 7 21
273 7 405
274 7 2475
275 7 1739
276 7 996
277 7 14
278 7 2003
279 7 3
280 7 1810
282 7 1262
283 7 1726
284 7 1045
285 7 1342
286 7 382
288 7 2022
289 7 6
290 7 32
291 7 67
293 7 2
294 7 1854
296 7 1298
297 7 520
298 7 18
299 7 895
301 7 1699
302 7 1521
303 7 1843
304 7 9
305 7 59
306 7 6
307 7 22
308 7 1228
309 7 8
310 7 354
311 7 5
312 7 1137
314 7 2514
315 7 3
316 7 4
319 7 1799
320 7 29
321 7 164
323 7 1885
324 7 10
325 7 1750
326 7 6
327 7 28
330 7 1382
332 7 1508
333 7 20
334 7 1417
335 7 107
336 7 10
337 7 1090
338 7 2055
339 7 108
340 7 1625
341 7 6
342 7 2187
343 7 1631
344 7 1487
345 7 1782
346 7 2711
347 7 953
348 7 10
349 7 1573
350 7 1882
351 7 28
352 7 1885
353 7 1008
354 7 10
355 7 1857
356 7 1399
357 7 1692
358 7 21
359 7 19
361 7 144
364 7 57
365 7 6
366 7 2177
367 7 10
369 7 3
370 7 6
371 7 1536
372 7 171
374 7 61
375 7 3
376 7 256
377 7 905
378 7 1138
379 7 5
380 7 1252
381 7 11
382 7 2074
383 7 199
384 7 1302
385 7 115
386 7 23
387 7 2809
388 7 22
389 7 2
391 7 1754
392 7 1465
393 7 266
395 7 121
398 7 38
399 7 1004
400 7 1553
401 7 1294
402 7 1744
403 7 15
404 7 864
405 7 1199
406 7 1991
407 7 1654
408 7 1505
409 7 24
411 7 1218
412 7 2121
413 7 3
414 7 2267
415 7 2
416 7 8
417 7 1444
418 7 1039
419 7 1184
420 7 938
421 7 1789
422 7 30
423 7 4
425 7 2021
426 7 201
428 7 1322
429 7 20
430 7 845
433 7 816
434 7 41
435 7 2016
437 7 7
438 7 456
439 7 1
440 7 4
445 7 1890
446 7 746
447 7 1602
449 7 5
450 7 89
451 7 438
452 7 5
453 7 763
454 7 912
455 7 72
457 7 1774
458 7 1682
459 7 2
460 7 5
461 7 56
462 7 219
463 7 7
464 7 85
465 7 750
466 7 1557
467 7 5
468 7 339
470 7 1336
472 7 8
473 7 2829
474 7 1509
475 7 10
476 7 850
477 7 1029
478 7 1349
479 7 1073
480 7 910
483 7 12
484 7 105
485 7 892
486 7 32
489 7 312
490 7 5
493 7 2
494 7 5
495 7 1964
496 7 32
497 7 47
498 7 3
499 7 1644
500 7 302
1 8 28
2 8 6
4 8 2577
5 8 1965
6 8 1047
9 8 504
10 8 68
11 8 5
13 8 1912
14 8 55
15 8 406
16 8 211
17 8 1777
18 8 1335
19 8 25
20 8 24
22 8 458
23 8 1293
24 8 1379
25 8 26
27 8 710
28 8 1552
29 8 39
30 8 1429
31 8 1256
32 8 19
33 8 9
34 8 2858
35 8 1613
36 8 2586
37 8 2585
38 8 1076
39 8 1445
40 8 98
41 8 1323
42 8 1236
43 8 27
45 8 1329
46 8 1548
47 8 1002
48 8 1053
49 8 1509
50 8 1376
51 8 272
52 8 1577
53 8 1354
54 8 1113
56 8 2483
57 8 29
58 8 2220
59 8 2774
61 8 67
62 8 2202
63 8 29
64 8 838
65 8 1892
66 8 2314
67 8 124
68 8 7
69 8 21
70 8 39
71 8 4
72 8 275
73 8 99
74 8 4
75 8 461
76 8 1034
77 8 3044
78 8 33
79 8 5
80 8 1214
81 8 3053
82 8 29
83 8 2580
84 8 612
85 8 30
86 8 65
87 8 498
88 8 75
90 8 4
92 8 2512
93 8 22
94 8 1858
95 8 1093
97 8 2714
98 8 27
99 8 23
100 8 3388
101 8 1794
102 8 2434
103 8 3678
104 8 2293
105 8 635
106 8 27
107 8 1151
108 8 5
109 8 24
111 8 1564
112 8 66
113 8 6
114 8 1962
115 8 14
116 8 8
117 8 1818
118 8 26
119 8 4
121 8 675
122 8 1505
123 8 3210
124 8 4
125 8 78
126 8 3
127 8 107
128 8 3118
130 8 2
131 8 3423
132 8 1552
133 8 1190
134 8 2411
135 8 2281
136 8 2147
137 8 1531
138 8 2503
140 8 812
142 8 695
143 8 1141
144 8 1257
145 8 882
147 8 32
148 8 3
149 8 20
150 8 1987
151 8 23
152 8 166
153 8 1284
155 8 66
156 8 1544
157 8 1292
158 8 2132
159 8 2
160 8 2265
161 8 527
162 8 886
163 8 1150
164 8 161
165 8 184
166 8 2353
167 8 1427
168 8 5
169 8 1068
170 8 2122
171 8 387
172 8 56
173 8 69
176 8 939
177 8 3298
178 8 33
179 8 511
180 8 1603
181 8 1997
183 8 1
184 8 2324
186 8 2975
188 8 822
189 8 982
190 8 1312
191 8 371
192 8 58
193 8 1499
194 8 1670
195 8 2772
196 8 2291
197 8 272
198 8 1133
199 8 18
200 8 59
201 8 53
202 8 2691
203 8 2291
204 8 2757
205 8 21
206 8 1708
207 8 1425
208 8 2397
209 8 1722
210 8 1299
211 8 47
212 8 676
213 8 122
215 8 79
216 8 2274
217 8 6
218 8 225
219 8 3205
220 8 765
221 8 2
222 8 1434
223 8 1785
224 8 1135
226 8 100
227 8 1110
230 8 31
231 8 5
232 8 1429
233 8 1673
235 8 26
236 8 228
237 8 1219
238 8 77
240 8 1585
241 8 2408
242 8 4
243 8 26
244 8 94
245 8 18
246 8 48
247 8 1793
248 8 1772
249 8 4054
250 8 5
251 8 437
252 8 1330
253 8 1713
254 8 309
255 8 119
256 8 1687
258 8 2209
260 8 1472
262 8 2915
263 8 661
264 8 3181
265 8 844
266 8 1570
268 8 508
269 8 1491
270 8 1151
271 8 4145
272 8 2277
273 8 5
274 8 63
275 8 18
277 8 1911
278 8 15
279 8 1109
280 8 77
281 8 1290
282 8 5
283 8 75
285 8 8
286 8 59
287 8 1875
288 8 23
289 8 2219
290 8 1823
291 8 2470
292 8 985
293 8 2310
294 8 5
295 8 1537
296 8 54
297 8 376
298 8 157
299 8 14
300 8 1209
301 8 69
303 8 3
304 8 1345
305 8 2035
306 8 1789
307 8 1765
308 8 57
309 8 3112
310 8 29
311 8 3083
313 8 1349
315 8 3212
316 8 1713
317 8 2467
318 8 1535
319 8 30
320 8 274
321 8 207
322 8 1071
324 8 693
325 8 3
326 8 1318
327 8 1652
328 8 1380
329 8 1565
330 8 9
331 8 891
333 8 1885
335 8 2112
336 8 2512
337 8 31
338 8 7
339 8 482
340 8 5
341 8 1097
342 8 8
344 8 5
345 8 4
346 8 60
347 8 25
348 8 1389
349 8 77
351 8 2729
352 8 4
353 8 27
354 8 713
355 8 24
357 8 27
358 8 1213
359 8 1767
360 8 2475
361 8 2277
362 8 1282
363 8 1861
364 8 2586
365 8 863
367 8 714
368 8 921
369 8 194
370 8 1584
371 8 32
372 8 179
373 8 1387
374 8 2024
375 8 1922
376 8 85
377 8 29
378 8 58
379 8 1098
380 8 61
381 8 3192
382 8 3
383 8 24
384 8 5
385 8 336
386 8 98
387 8 26
388 8 1168
389 8 2773
390 8 1222
391 8 32
392 8 4
393 8 80
394 8 1795
395 8 106
396 8 1007
397 8 3674
398 8 1803
399 8 11
400 8 5
401 8 8
402 8 28
403 8 1690
405 8 107
408 8 54
409 8 68
410 8 2554
411 8 3
412 8 6
413 8 1648
414 8 5
415 8 651
416 8 854
417 8 62
420 8 23
422 8 2941
423 8 2430
424 8 1209
425 8 20
426 8 24
427 8 2801
428 8 4
429 8 1408
431 8 4415
432 8 1474
433 8 5
434 8 2030
435 8 5
436 8 1417
437 8 1246
439 8 2924
440 8 2565
441 8 1974
442 8 1104
443 8 1011
444 8 1053
445 8 10
446 8 20
447 8 8
448 8 2970
449 8 889
450 8 953
451 8 96
452 8 1886
453 8 85
454 8 73
455 8 247
456 8 1339
458 8 24
459 8 2294
460 8 1710
461 8 1780
462 8 246
463 8 2327
464 8 839
465 8 41
466 8 4
467 8 1761
469 8 1372
470 8 6
471 8 950
472 8 1378
473 8 8
474 8 6
475 8 2628
477 8 99
478 8 24
479 8 1
480 8 106
481 8 1631
482 8 1660
483 8 1168
484 8 1361
486 8 773
487 8 1944
488 8 1744
489 8 3
490 8 2532
491 8 1569
492 8 1698
493 8 2279
494 8 1285
496 8 1946
497 8 1308
498 8 1842
499 8 55
500 8 5
1 9 811
2 9 1472
3 9 614
5 9 39
6 9 11
7 9 2795
8 9 2220
10 9 2007
11 9 1551
12 9 981
13 9 51
14 9 836
15 9 1300
16 9 33
17 9 18
18 9 21
19 9 102
20 9 1116
21 9 2317
22 9 383
24 9 30
25 9 2370
26 9 2000
28 9 25
29 9 227
30 9 63
31 9 154
32 9 1303
33 9 1422
36 9 108
37 9 7
38 9 24
39 9 6
40 9 1509
41 9 26
42 9 12
43 9 1313
44 9 1252
46 9 424
48 9 17
50 9 6
51 9 43
52 9 4
53 9 28
55 9 2691
57 9 1896
58 9 26
60 9 618
61 9 1919
62 9 7
63 9 2111
65 9 41
66 9 9
67 9 2559
68 9 1415
69 9 4288
70 9 714
71 9 2384
72 9 1177
73 9 2162
74 9 2164
75 9 2228
77 9 6
78 9 1532
79 9 2638
81 9 27
82 9 2645
84 9 22
85 9 2937
86 9 1841
87 9 162
88 9 135
89 9 1928
90 9 1783
91 9 1687
93 9 369
94 9 3
95 9 18
96 9 2064
97 9 4
98 9 3224
99 9 1356
102 9 53
103 9 18
106 9 3932
107 9 71
108 9 1792
109 9 1487
110 9 630
112 9 52
113 9 3296
114 9 145
115 9 644
116 9 5191
117 9 5
118 9 2921
119 9 1476
120 9 876
122 9 6
123 9 10
124 9 1331
125 9 1881
126 9 1500
127 9 47
128 9 3
129 9 1656
130 9 3117
132 9 24
134 9 35
135 9 4
136 9 5
137 9 24
139 9 2314
140 9 5
141 9 1084
143 9 22
144 9 7
145 9 354
146 9 2806
147 9 1447
148 9 1275
149 9 1862
150 9 2
151 9 1094
152 9 4649
154 9 1574
155 9 707
156 9 229
157 9 13
158 9 10
159 9 1904
161 9 5
162 9 4
163 9 9
164 9 4703
165 9 2284
166 9 3
167 9 11
168 9 2620
169 9 12
171 9 1533
172 9 2367
173 9 1921
174 9 373
175 9 1973
176 9 4
177 9 6
178 9 2192
179 9 220
180 9 29
181 9 60
182 9 804
183 9 3043
184 9 4
185 9 671
187 9 2027
189 9 117
190 9 3
192 9 1430
195 9 174
196 9 2
197 9 1181
198 9 4
199 9 96
200 9 2808
201 9 2311
205 9 2137
206 9 5
207 9 7
209 9 3
211 9 2395
212 9 11
213 9 131
214 9 1797
215 9 65
217 9 2515
218 9 67
219 9 9
220 9 516
221 9 1826
225 9 2590
226 9 78
227 9 25
228 9 1490
229 9 1099
230 9 2039
231 9 1807
232 9 10
233 9 11
234 9 1522
235 9 1306
236 9 2270
237 9 13
238 9 21
239 9 1752
240 9 21
241 9 4
242 9 577
243 9 509
244 9 6
245 9 2951
246 9 168
247 9 6
249 9 2
250 9 542
251 9 989
253 9 34
254 9 9
255 9 1736
257 9 1011
258 9 6
259 9 777
261 9 2165
262 9 26
263 9 11
264 9 23
265 9 198
266 9 214
267 9 1741
268 9 137
269 9 11
273 9 2308
274 9 2192
275 9 2910
276 9 1504
277 9 6
278 9 1419
279 9 32
280 9 156
281 9 236
282 9 1548
283 9 1862
284 9 1904
285 9 1623
286 9 30
288 9 694
290 9 4
291 9 159
292 9 6
294 9 1691
295 9 5
296 9 879
297 9 7
298 9 1026
299 9 210
301 9 1453
302 9 2053
303 9 1402
304 9 2
305 9 4
306 9 30
307 9 198
308 9 2262
309 9 5
310 9 4146
312 9 3111
314 9 2798
317 9 59
318 9 13
319 9 1295
320 9 2252
321 9 22
323 9 1557
324 9 9
325 9 2016
326 9 12
327 9 5
328 9 4
330 9 1440
331 9 142
332 9 2160
333 9 6
334 9 1973
335 9 2
336 9 143
337 9 1217
338 9 2079
340 9 2277
341 9 17
342 9 1329
343 9 2427
344 9 998
345 9 761
346 9 1891
347 9 1515
349 9 2310
350 9 2431
352 9 1840
353 9 1656
354 9 13
355 9 94
356 9 1394
357 9 1884
359 9 7
361 9 5
364 9 4
365 9 3
366 9 1954
367 9 15
369 9 4395
371 9 2694
372 9 2419
375 9 61
376 9 2244
377 9 1831
378 9 890
379 9 20
380 9 1618
382 9 1262
383 9 3932
384 9 2205
385 9 1128
386 9 831
387 9 3710
389 9 116
390 9 83
391 9 1968
392 9 1520
393 9 2255
394 9 28
395 9 1422
397 9 5
398 9 2
399 9 1577
400 9 1294
401 9 2807
402 9 2874
403 9 9
404 9 1163
406 9 2303
407 9 1628
408 9 1822
409 9 1282
410 9 27
411 9 2697
412 9 2827
413 9 23
414 9 2463
415 9 591
416 9 3
417 9 2099
418 9 2098
419 9 1727
420 9 2389
421 9 2157
422 9 6
423 9 136
424 9 6
425 9 1446
426 9 1051
427 9 8
428 9 1879
430 9 2314
431 9 4
433 9 2081
435 9 1008
436 9 21
438 9 2801
439 9 24
440 9 2
441 9 72
444 9 4
445 9 1647
446 9 76
447 9 2518
448 9 85
449 9 5
450 9 5
451 9 47
453 9 1646
454 9 241
455 9 2267
456 9 18
457 9 1163
458 9 2821
459 9 3
460 9 68
461 9 10
462 9 624
464 9 4
465 9 49
466 9 1361
467 9 7
468 9 1129
469 9 113
470 9 2505
471 9 241
472 9 6
473 9 2081
474 9 1439
476 9 1803
477 9 40
478 9 2752
479 9 3383
480 9 2164
482 9 40
484 9 2
485 9 301
486 9 519
487 9 8
488 9 5
489 9 1807
490 9 149
491 9 7
495 9 1772
496 9 7
497 9 2
498 9 23
499 9 1860
500 9 1190
1 10 234
2 10 695
3 10 407
7 10 931
8 10 1290
10 10 821
11 10 963
12 10 750
14 10 1398
15 10 1737
20 10 87
21 10 2089
22 10 1136
25 10 652
26 10 669
28 10 146
29 10 9
30 10 54
31 10 219
32 10 609
33 10 1710
36 10 25
39 10 67
40 10 824
43 10 190
44 10 215
46 10 1039
55 10 378
57 10 458
60 10 435
61 10 1063
63 10 205
67 10 1670
68 10 896
69 10 1117
70 10 846
71 10 1489
72 10 1027
73 10 685
74 10 312
75 10 1429
78 10 318
79 10 2332
80 10 5
82 10 1156
85 10 603
86 10 529
87 10 634
88 10 62
89 10 660
90 10 318
91 10 398
93 10 251
96 10 1198
97 10 6
98 10 429
99 10 1774
103 10 6
104 10 58
106 10 1359
107 10 539
108 10 1663
109 10 938
110 10 771
113 10 737
114 10 576
115 10 32
116 10 1013
118 10 1578
119 10 883
120 10 577
124 10 851
125 10 666
126 10 611
129 10 638
130 10 695
131 10 5
132 10 143
137 10 28
139 10 766
141 10 779
145 10 865
146 10 879
147 10 861
148 10 207
149 10 649
150 10 5
151 10 400
152 10 1274
154 10 509
155 10 243
156 10 941
159 10 829
164 10 1314
165 10 1432
168 10 834
171 10 627
172 10 583
173 10 621
174 10 39
175 10 357
178 10 472
179 10 331
181 10 59
182 10 548
183 10 1390
185 10 481
187 10 319
189 10 168
192 10 1361
194 10 136
195 10 280
196 10 1
197 10 964
200 10 696
201 10 680
205 10 1032
211 10 445
213 10 5
214 10 903
216 10 20
217 10 1425
220 10 627
221 10 827
225 10 985
228 10 346
229 10 696
230 10 472
231 10 762
234 10 628
235 10 1208
236 10 1255
239 10 1003
242 10 188
243 10 135
245 10 647
246 10 54
250 10 924
251 10 969
253 10 5
255 10 1345
256 10 123
257 10 622
259 10 709
261 10 360
262 10 143
265 10 442
266 10 909
267 10 1244
268 10 617
273 10 737
274 10 1476
275 10 1168
276 10 305
278 10 363
280 10 48
281 10 486
282 10 1103
283 10 466
284 10 691
285 10 336
286 10 8
288 10 22
289 10 16
291 10 57
294 10 656
296 10 2123
298 10 651
301 10 540
302 10 523
303 10 1466
305 10 114
306 10 30
307 10 448
308 10 519
309 10 8
310 10 363
312 10 1301
314 10 738
315 10 5
316 10 23
319 10 635
320 10 468
323 10 486
325 10 1404
330 10 635
331 10 228
332 10 567
334 10 994
336 10 128
337 10 1552
338 10 280
340 10 358
342 10 992
343 10 746
344 10 486
345 10 680
346 10 1888
347 10 794
348 10 4
349 10 657
350 10 1540
352 10 364
353 10 500
356 10 490
357 10 757
364 10 6
366 10 1004
369 10 1450
371 10 1320
372 10 528
375 10 134
376 10 391
377 10 967
378 10 187
380 10 2294
381 10 86
382 10 711
383 10 736
384 10 1083
385 10 723
386 10 973
387 10 794
389 10 591
390 10 256
391 10 598
392 10 579
393 10 1462
395 10 821
399 10 1070
400 10 255
401 10 840
402 10 1186
404 10 522
406 10 1703
407 10 1001
408 10 555
409 10 1151
411 10 689
412 10 1208
413 10 426
414 10 796
415 10 1001
417 10 1784
418 10 2084
419 10 686
420 10 652
421 10 363
423 10 113
425 10 649
426 10 733
428 10 1299
429 10 6
430 10 713
433 10 566
435 10 616
438 10 694
439 10 135
441 10 91
444 10 153
445 10 579
447 10 1259
448 10 7
453 10 1175
454 10 7
455 10 883
457 10 272
458 10 1134
460 10 117
462 10 782
466 10 235
468 10 394
469 10 618
470 10 883
471 10 415
473 10 769
474 10 1108
476 10 555
477 10 3
478 10 1171
479 10 791
480 10 717
486 10 502
489 10 258
490 10 739
492 10 6
495 10 663
498 10 4
499 10 1260
500 10 1960
1 11 49
3 11 7
4 11 572
5 11 555
6 11 408
7 11 3
9 11 1121
13 11 1075
14 11 4
15 11 32
16 11 1262
17 11 362
18 11 542
19 11 650
20 11 663
23 11 1025
24 11 160
26 11 7
27 11 255
28 11 21
29 11 862
30 11 280
31 11 2
34 11 1244
35 11 1813
37 11 440
38 11 571
39 11 62
40 11 4
41 11 165
42 11 552
43 11 250
44 11 505
45 11 660
47 11 275
48 11 395
49 11 200
50 11 559
51 11 757
52 11 134
53 11 576
54 11 1153
56 11 522
57 11 8
58 11 934
59 11 491
60 11 112
61 11 65
62 11 962
64 11 543
65 11 584
66 11 1156
67 11 29
70 11 236
71 11 2
72 11 8
76 11 508
77 11 1290
78 11 56
80 11 488
81 11 723
82 11 22
83 11 479
84 11 683
86 11 31
87 11 10
88 11 615
90 11 137
91 11 6
92 11 22
93 11 198
94 11 456
95 11 387
97 11 344
98 11 4
100 11 77
101 11 1029
102 11 709
103 11 7
104 11 130
105 11 258
107 11 25
111 11 1270
112 11 763
113 11 9
114 11 84
115 11 1365
116 11 3
117 11 307
118 11 7
119 11 78
120 11 7
121 11 544
122 11 1003
123 11 408
124 11 32
126 11 58
127 11 892
128 11 1095
129 11 3
131 11 1604
132 11 28
133 11 257
134 11 456
135 11 518
136 11 791
137 11 313
138 11 801
140 11 576
141 11 5
142 11 240
143 11 638
144 11 813
145 11 32
146 11 2
148 11 59
149 11 113
150 11 1436
151 11 83
153 11 265
154 11 20
155 11 72
157 11 937
158 11 365
159 11 39
160 11 1178
161 11 404
162 11 632
163 11 270
165 11 8
166 11 915
167 11 648
169 11 395
170 11 1332
171 11 3
172 11 5
173 11 83
174 11 568
175 11 4
176 11 307
177 11 945
178 11 31
179 11 7
180 11 239
181 11 67
183 11 14
184 11 1115
185 11 6
186 11 616
188 11 489
189 11 8
190 11 400
191 11 1151
193 11 1140
194 11 198
195 11 4
196 11 61
198 11 1073
199 11 731
200 11 54
201 11 4
202 11 913
203 11 939
204 11 1037
205 11 3
206 11 642
207 11 726
208 11 1204
209 11 625
210 11 366
211 11 4
212 11 250
213 11 1147
215 11 1596
216 11 144
217 11 11
218 11 869
219 11 984
221 11 61
222 11 488
223 11 447
224 11 174
225 11 61
226 11 520
227 11 380
230 11 1379
231 11 9
232 11 707
233 11 561
236 11 26
237 11 526
238 11 651
240 11 519
241 11 522
242 11 479
243 11 1082
244 11 734
245 11 3
246 11 1151
247 11 1023
248 11 715
249 11 1097
250 11 6
251 11 33
252 11 508
253 11 923
254 11 1125
256 11 180
258 11 1416
260 11 871
261 11 137
262 11 7
263 11 662
264 11 375
265 11 88
267 11 31
268 11 6
269 11 1273
270 11 401
271 11 2115
272 11 1116
273 11 28
274 11 2
275 11 28
277 11 319
279 11 262
280 11 648
282 11 5
283 11 24
284 11 5
285 11 50
286 11 585
287 11 1174
288 11 1439
289 11 149
290 11 971
292 11 568
293 11 953
294 11 4
295 11 448
296 11 7
297 11 533
298 11 7
299 11 1050
300 11 446
301 11 21
302 11 6
303 11 5
304 11 741
305 11 193
306 11 23
308 11 50
309 11 138
310 11 92
311 11 646
312 11 17
313 11 545
314 11 6
315 11 854
316 11 483
317 11 864
318 11 469
319 11 6
321 11 890
322 11 524
323 11 33
324 11 762
326 11 410
327 11 599
328 11 611
329 11 909
330 11 240
332 11 5
333 11 325
334 11 19
335 11 487
336 11 55
337 11 6
338 11 53
339 11 915
341 11 411
342 11 23
344 11 4
345 11 28
346 11 5
347 11 3
348 11 530
349 11 10
351 11 395
352 11 88
354 11 762
355 11 817
356 11 27
358 11 536
359 11 622
360 11 956
361 11 629
362 11 408
363 11 629
364 11 343
365 11 610
366 11 22
367 11 694
368 11 291
369 11 23
370 11 1130
371 11 27
373 11 460
374 11 828
375 11 66
377 11 25
378 11 156
379 11 357
380 11 4
381 11 101
382 11 6
383 11 9
384 11 25
386 11 19
387 11 2
388 11 1129
389 11 7
390 11 59
391 11 68
392 11 148
394 11 1308
395 11 4
396 11 538
397 11 1533
398 11 498
399 11 29
400 11 236
401 11 23
402 11 23
403 11 605
404 11 20
405 11 1341
406 11 3
407 11 5
408 11 24
410 11 457
414 11 8
415 11 23
416 11 526
419 11 37
421 11 20
422 11 1199
423 11 60
424 11 307
425 11 5
427 11 247
428 11 27
429 11 725
430 11 73
431 11 1020
432 11 574
433 11 142
434 11 265
435 11 6
436 11 1131
437 11 1239
439 11 8
440 11 460
441 11 90
442 11 494
443 11 1042
445 11 8
446 11 731
447 11 28
448 11 890
449 11 567
450 11 1087
451 11 821
452 11 740
454 11 795
455 11 4
456 11 938
457 11 25
458 11 53
459 11 644
460 11 28
461 11 357
462 11 37
463 11 845
464 11 1153
465 11 575
467 11 466
468 11 24
469 11 65
471 11 115
472 11 732
473 11 17
474 11 4
475 11 486
477 11 659
479 11 22
481 11 1172
482 11 728
483 11 1179
484 11 534
485 11 1109
486 11 32
487 11 1138
488 11 1615
489 11 3
490 11 24
491 11 1037
492 11 589
493 11 872
494 11 216
495 11 4
496 11 1157
497 11 1301
498 11 657
499 11 3
500 11 1
1 12 1663
2 12 1735
3 12 308
5 12 9
6 12 1
7 12 224
8 12 237
9 12 7
10 12 1293
11 12 451
12 12 75
13 12 7
14 12 274
15 12 589
17 12 6
18 12 133
21 12 381
22 12 903
24 12 33
25 12 1433
26 12 530
27 12 4
28 12 269
30 12 167
31 12 665
32 12 463
33 12 580
34 12 3
35 12 9
36 12 897
37 12 137
39 12 370
40 12 470
41 12 28
42 12 4
43 12 7
44 12 6
46 12 1076
48 12 10
51 12 3
53 12 127
55 12 709
57 12 504
59 12 155
60 12 19
61 12 401
63 12 109
65 12 5
67 12 407
68 12 734
69 12 1110
71 12 512
72 12 174
73 12 444
74 12 666
75 12 586
76 12 15
78 12 6
79 12 399
80 12 4
82 12 647
84 12 6
85 12 1000
86 12 261
87 12 386
89 12 489
90 12 25
91 12 445
92 12 215
95 12 5
96 12 663
97 12 206
98 12 266
99 12 326
100 12 968
101 12 7
102 12 6
103 12 683
104 12 471
105 12 5
106 12 398
107 12 290
108 12 801
109 12 599
110 12 1021
113 12 393
114 12 633
116 12 688
117 12 10
118 12 975
119 12 26
120 12 486
122 12 25
124 12 304
125 12 434
126 12 1526
127 12 20
128 12 3
129 12 278
130 12 784
131 12 30
132 12 294
133 12 4
134 12 5
136 12 2
137 12 10
139 12 360
141 12 629
142 12 7
145 12 528
146 12 713
147 12 324
148 12 370
149 12 1990
150 12 7
152 12 433
153 12 6
154 12 196
155 12 18
156 12 441
157 12 2
158 12 29
159 12 1039
161 12 6
163 12 8
164 12 434
165 12 335
166 12 5
167 12 6
168 12 383
169 12 7
171 12 959
172 12 269
173 12 565
174 12 7
175 12 389
178 12 48
179 12 660
180 12 220
181 12 500
182 12 458
183 12 554
185 12 433
187 12 551
188 12 5
189 12 476
191 12 9
192 12 422
194 12 465
195 12 865
196 12 531
197 12 409
198 12 10
200 12 9
201 12 252
205 12 703
207 12 9
211 12 794
214 12 283
215 12 9
216 12 288
217 12 633
219 12 90
220 12 1225
221 12 758
222 12 10
225 12 1008
226 12 7
227 12 3
228 12 642
229 12 413
231 12 626
234 12 394
235 12 60
236 12 664
237 12 1
238 12 2
239 12 649
242 12 6
244 12 7
245 12 302
246 12 22
247 12 30
248 12 9
250 12 87
251 12 183
255 12 476
256 12 474
257 12 23
258 12 5
259 12 491
260 12 4
261 12 5
262 12 712
265 12 924
266 12 401
267 12 49
268 12 400
270 12 5
273 12 511
274 12 279
275 12 1219
276 12 652
277 12 2
278 12 526
279 12 8
281 12 725
282 12 195
283 12 117
284 12 239
287 12 9
289 12 281
290 12 4
291 12 433
293 12 2
294 12 608
295 12 115
296 12 348
297 12 4
298 12 919
300 12 4
301 12 374
302 12 1013
303 12 1008
304 12 7
305 12 399
306 12 320
307 12 494
308 12 37
309 12 200
310 12 328
311 12 96
312 12 209
314 12 490
315 12 40
316 12 276
317 12 9
318 12 8
319 12 971
320 12 569
322 12 5
323 12 246
325 12 1136
327 12 50
331 12 758
332 12 1022
333 12 6
334 12 384
336 12 339
337 12 913
338 12 23
340 12 529
341 12 6
342 12 248
343 12 374
344 12 390
345 12 1283
346 12 290
347 12 63
348 12 5
349 12 395
350 12 368
351 12 9
352 12 215
353 12 496
356 12 470
357 12 519
360 12 1
361 12 27
362 12 3
363 12 3
364 12 192
366 12 272
369 12 695
370 12 2
371 12 502
372 12 523
375 12 604
376 12 512
377 12 1175
378 12 5
379 12 7
380 12 302
381 12 1530
382 12 104
383 12 1165
384 12 886
385 12 1838
386 12 698
387 12 636
389 12 762
390 12 196
391 12 78
393 12 464
395 12 542
396 12 16
399 12 220
401 12 914
402 12 1150
404 12 228
405 12 6
406 12 799
407 12 434
408 12 252
409 12 703
410 12 3
411 12 1491
412 12 251
413 12 382
414 12 384
415 12 646
417 12 521
418 12 788
419 12 125
420 12 1484
421 12 570
423 12 327
424 12 27
425 12 1230
426 12 664
428 12 27
429 12 10
430 12 447
433 12 6
434 12 2
435 12 329
438 12 966
439 12 752
441 12 351
442 12 21
443 12 8
444 12 555
445 12 620
447 12 596
448 12 3
451 12 21
453 12 258
454 12 20
455 12 370
456 12 6
457 12 671
458 12 770
460 12 891
461 12 5
462 12 772
463 12 4
466 12 584
467 12 5
469 12 326
470 12 874
471 12 797
473 12 592
474 12 399
476 12 367
477 12 5
478 12 504
479 12 339
480 12 425
484 12 24
486 12 683
488 12 4
489 12 808
490 12 401
491 12 28
493 12 2
494 12 4
495 12 428
498 12 20
499 12 497
500 12 477
4 13 896
5 13 1121
6 13 471
7 13 55
8 13 32
9 13 843
10 13 3
11 13 32
12 13 240
13 13 1370
14 13 81
15 13 1
16 13 854
17 13 958
18 13 47
19 13 675
20 13 1081
23 13 1065
24 13 1108
25 13 1
26 13 5
27 13 379
28 13 56
29 13 517
30 13 20
33 13 63
34 13 1209
35 13 1170
37 13 5
38 13 570
40 13 5
41 13 1095
42 13 567
43 13 1299
44 13 1529
45 13 785
47 13 1137
48 13 490
49 13 1760
50 13 695
51 13 769
52 13 492
53 13 60
54 13 684
56 13 51
57 13 2
58 13 1989
60 13 846
62 13 941
63 13 161
64 13 901
65 13 1108
66 13 447
67 13 44
70 13 939
71 13 22
73 13 1
74 13 4
75 13 81
76 13 663
77 13 205
78 13 535
80 13 54
81 13 1552
83 13 717
84 13 1133
86 13 3
87 13 6
88 13 265
90 13 1591
93 13 1212
94 13 765
95 13 496
96 13 2
97 13 7
101 13 379
102 13 471
103 13 2
104 13 96
105 13 357
106 13 8
107 13 120
109 13 5
110 13 24
111 13 632
112 13 1507
113 13 103
114 13 5
115 13 1626
116 13 5
117 13 1003
118 13 7
119 13 660
120 13 5
121 13 465
122 13 851
123 13 974
124 13 96
127 13 1355
128 13 632
129 13 103
131 13 19
132 13 68
133 13 651
134 13 1405
135 13 971
136 13 981
137 13 694
138 13 1374
140 13 627
141 13 10
142 13 364
143 13 604
144 13 472
145 13 8
148 13 182
149 13 3
150 13 608
151 13 1055
152 13 6
153 13 628
154 13 5
155 13 726
157 13 510
158 13 12
160 13 373
161 13 488
162 13 663
163 13 581
164 13 6
165 13 7
166 13 1281
167 13 780
168 13 5
169 13 484
170 13 1466
171 13 6
174 13 941
175 13 9
176 13 921
177 13 427
178 13 1615
181 13 21
182 13 51
184 13 446
185 13 51
186 13 893
187 13 4
188 13 533
190 13 630
191 13 1458
192 13 5
193 13 1093
195 13 7
196 13 30
198 13 1326
199 13 550
200 13 599
202 13 1522
203 13 1202
204 13 723
205 13 6
206 13 568
207 13 1479
208 13 1429
209 13 563
210 13 654
211 13 31
212 13 256
213 13 667
214 13 5
215 13 1003
216 13 6
217 13 4
218 13 1249
219 13 6
221 13 5
222 13 943
223 13 541
224 13 976
226 13 407
227 13 469
228 13 28
229 13 8
230 13 659
232 13 1154
233 13 1953
235 13 574
237 13 682
238 13 770
239 13 6
240 13 307
241 13 1004
242 13 731
243 13 1231
244 13 1304
246 13 1060
247 13 219
248 13 1404
249 13 247
250 13 980
251 13 72
252 13 631
253 13 822
254 13 756
255 13 8
257 13 150
258 13 718
260 13 1339
261 13 488
263 13 442
264 13 652
265 13 38
267 13 1639
268 13 3
269 13 915
270 13 869
271 13 599
272 13 775
274 13 30
275 13 70
276 13 27
277 13 1006
279 13 543
280 13 273
281 13 4
282 13 81
283 13 1147
284 13 37
285 13 1415
286 13 483
287 13 1380
288 13 1723
289 13 5
290 13 1693
292 13 631
293 13 122
295 13 19
296 13 5
297 13 939
299 13 219
301 13 35
304 13 1514
305 13 63
306 13 9
307 13 19
308 13 977
310 13 135
311 13 54
313 13 693
314 13 46
315 13 92
316 13 7
317 13 2704
318 13 699
320 13 1
321 13 1012
322 13 487
323 13 6
324 13 416
325 13 8
326 13 655
327 13 10
328 13 657
329 13 526
330 13 1157
333 13 955
334 13 12
335 13 1348
336 13 2
338 13 600
339 13 824
340 13 4
341 13 506
342 13 2
344 13 9
345 13 17
347 13 1479
348 13 138
349 13 7
350 13 24
351 13 1079
352 13 15
353 13 121
354 13 420
355 13 477
356 13 462
357 13 6
358 13 555
359 13 569
360 13 560
361 13 696
362 13 1120
363 13 261
364 13 4
365 13 646
367 13 462
368 13 702
369 13 30
370 13 979
372 13 8
373 13 1240
374 13 1148
376 13 2
377 13 2
378 13 2098
379 13 491
380 13 106
381 13 19
383 13 10
384 13 6
387 13 31
388 13 653
389 13 7
390 13 6
391 13 744
392 13 1273
393 13 3
394 13 816
396 13 464
397 13 772
398 13 899
399 13 32
400 13 1225
402 13 63
403 13 537
404 13 34
405 13 1104
407 13 5
408 13 8
409 13 9
410 13 923
413 13 4
414 13 6
415 13 1
416 13 1303
417 13 25
419 13 824
420 13 9
421 13 10
422 13 751
423 13 4
424 13 759
426 13 9
427 13 577
428 13 738
429 13 1206
430 13 6
431 13 306
432 13 1740
433 13 957
434 13 1807
436 13 1129
437 13 1132
440 13 1221
442 13 452
443 13 1036
444 13 5
445 13 2
446 13 947
447 13 104
448 13 1474
449 13 1284
450 13 1422
451 13 1398
452 13 1913
453 13 70
454 13 365
455 13 2
456 13 492
457 13 54
458 13 10
459 13 427
460 13 5
461 13 1176
463 13 1023
464 13 1124
465 13 899
467 13 1073
468 13 925
470 13 4
471 13 59
472 13 1209
473 13 6
474 13 8
475 13 1419
476 13 8
477 13 997
478 13 7
479 13 237
480 13 4
481 13 903
482 13 682
483 13 635
484 13 652
485 13 730
487 13 117
488 13 2588
489 13 4
490 13 190
491 13 756
492 13 2016
493 13 119
494 13 378
495 13 30
496 13 1048
497 13 717
498 13 264
499 13 2
1 14 1870
2 14 2472
3 14 926
4 14 22
5 14 19
7 14 145
8 14 690
10 14 1267
11 14 1876
12 14 75
13 14 1
14 14 1067
15 14 2878
17 14 3
18 14 910
21 14 118
22 14 1703
25 14 2874
26 14 1703
28 14 1121
29 14 34
30 14 2270
31 14 2007
32 14 2347
33 14 519
36 14 1324
37 14 1734
39 14 2063
40 14 2495
42 14 15
43 14 9
44 14 5
46 14 1558
47 14 120
49 14 8
50 14 12
52 14 5
53 14 1012
55 14 1658
56 14 2243
57 14 2889
59 14 1697
60 14 25
61 14 1822
63 14 53
64 14 5
65 14 21
66 14 28
67 14 1275
68 14 1054
69 14 2785
71 14 1412
72 14 1356
73 14 1766
74 14 2128
75 14 3167
76 14 5
77 14 644
78 14 3
79 14 2884
80 14 2722
81 14 35
82 14 2395
83 14 8
84 14 21
85 14 258
86 14 434
87 14 2032
88 14 3
89 14 1064
90 14 4
91 14 2336
92 14 2928
93 14 27
94 14 7
96 14 2101
97 14 2093
98 14 744
99 14 233
100 14 1827
101 14 9
102 14 6
103 14 2366
104 14 1962
106 14 1987
107 14 2159
108 14 1855
109 14 1234
110 14 1253
111 14 25
113 14 1693
114 14 1518
115 14 7
116 14 3085
117 14 4
118 14 333
119 14 57
120 14 1112
121 14 6
124 14 16
125 14 299
126 14 758
128 14 346
129 14 3
130 14 1735
131 14 731
132 14 1131
134 14 23
137 14 5
139 14 1685
140 14 11
141 14 1236
144 14 49
145 14 2885
146 14 2048
147 14 1988
148 14 54
149 14 1412
150 14 18
151 14 4
152 14 1815
154 14 57
156 14 1765
157 14 3
158 14 1102
159 14 226
161 14 7
162 14 13
163 14 5
164 14 1819
165 14 2270
166 14 5
168 14 1061
170 14 7
171 14 2981
172 14 2233
173 14 2783
175 14 1421
176 14 25
177 14 70
179 14 1631
180 14 1790
181 14 1383
182 14 721
183 14 2088
184 14 29
185 14 128
186 14 8
187 14 1671
188 14 3
189 14 1033
191 14 7
192 14 3098
193 14 22
194 14 3044
195 14 2157
196 14 1899
197 14 2465
200 14 8
201 14 2150
204 14 6
205 14 3108
207 14 58
210 14 6
211 14 1550
212 14 3
213 14 9
214 14 2157
216 14 1330
217 14 2879
219 14 888
220 14 3047
221 14 2130
222 14 19
223 14 3
224 14 24
225 14 1871
228 14 685
229 14 598
231 14 1719
232 14 19
234 14 1230
235 14 57
236 14 1575
237 14 6
238 14 5
239 14 84
240 14 2
243 14 6
245 14 1894
247 14 1896
248 14 27
249 14 1094
250 14 32
251 14 2606
252 14 4
254 14 6
255 14 1770
256 14 3003
259 14 1248
260 14 6
261 14 7
262 14 1856
263 14 21
264 14 198
265 14 1515
266 14 1742
267 14 40
268 14 2034
270 14 6
271 14 6
272 14 16
273 14 201
274 14 33
275 14 1261
276 14 705
277 14 6
278 14 2015
280 14 8
281 14 1087
282 14 17
284 14 1472
285 14 12
288 14 7
289 14 1280
291 14 2185
293 14 2768
294 14 960
295 14 422
296 14 1119
298 14 2932
299 14 5
300 14 1032
301 14 184
302 14 2428
303 14 550
304 14 55
305 14 676
306 14 1116
307 14 1165
308 14 5
309 14 3318
310 14 2437
311 14 2173
312 14 1136
313 14 2
314 14 951
315 14 1519
316 14 1535
319 14 1874
320 14 1527
321 14 5
322 14 5
323 14 64
324 14 6
325 14 1409
327 14 2752
328 14 10
329 14 4
331 14 846
332 14 2482
333 14 3
334 14 790
335 14 66
336 14 1260
337 14 473
338 14 33
340 14 1094
342 14 1215
343 14 1718
344 14 1763
345 14 1542
346 14 1004
347 14 10
348 14 1291
349 14 3012
350 14 2340
352 14 2620
353 14 2390
354 14 18
356 14 4
357 14 2489
358 14 3
360 14 23
361 14 59
363 14 62
364 14 2062
365 14 10
366 14 1389
367 14 18
368 14 10
369 14 978
371 14 2185
372 14 819
373 14 1
374 14 9
375 14 1519
376 14 1189
377 14 2000
378 14 7
380 14 808
381 14 1858
382 14 375
383 14 2646
384 14 1889
385 14 1724
386 14 2110
387 14 2471
389 14 2324
390 14 2246
393 14 2388
395 14 1286
396 14 7
397 14 408
399 14 1551
401 14 2051
402 14 1256
404 14 343
406 14 4099
407 14 1068
408 14 401
409 14 1865
411 14 648
412 14 95
413 14 644
414 14 1172
415 14 2402
416 14 40
417 14 1249
418 14 2741
419 14 29
420 14 2836
421 14 1285
422 14 114
423 14 1288
424 14 7
425 14 1056
426 14 1621
427 14 7
429 14 26
430 14 1646
432 14 4
433 14 24
434 14 5
435 14 2913
438 14 1273
439 14 1975
441 14 1864
442 14 5
443 14 9
444 14 1917
445 14 1356
446 14 4
447 14 5272
449 14 40
450 14 25
453 14 177
455 14 4702
456 14 3
457 14 1322
458 14 777
459 14 4
460 14 2291
461 14 9
462 14 1976
463 14 3
464 14 19
465 14 9
466 14 581
469 14 1076
470 14 3404
471 14 1859
472 14 22
473 14 2460
474 14 2004
476 14 1660
477 14 21
478 14 1841
480 14 1784
481 14 5
484 14 41
485 14 7
486 14 1795
487 14 522
489 14 3155
490 14 2177
493 14 2738
494 14 29
495 14 1653
498 14 1155
499 14 1346
500 14 3375
1 15 437
2 15 987
3 15 182
4 15 29
8 15 203
10 15 1505
11 15 463
14 15 193
15 15 882
18 15 791
22 15 807
25 15 716
26 15 415
28 15 911
30 15 251
31 15 306
32 15 748
33 15 44
34 15 5
35 15 10
36 15 339
37 15 801
39 15 690
40 15 764
46 15 1091
47 15 246
53 15 816
55 15 356
56 15 333
57 15 555
58 15 212
59 15 463
61 15 637
67 15 720
68 15 459
69 15 483
71 15 666
72 15 867
73 15 466
74 15 639
75 15 1359
77 15 994
79 15 432
80 15 513
81 15 227
82 15 325
85 15 30
86 15 33
87 15 1186
89 15 776
91 15 285
92 15 1027
96 15 1082
97 15 375
98 15 160
99 15 74
100 15 1808
101 15 52
103 15 989
104 15 282
106 15 322
107 15 735
108 15 468
109 15 451
110 15 585
111 15 5
113 15 554
114 15 878
116 15 774
118 15 24
120 15 81
124 15 10
125 15 7
126 15 309
128 15 660
129 15 3
130 15 703
131 15 1226
132 15 938
135 15 5
139 15 129
141 15 78
145 15 508
146 15 203
147 15 383
149 15 1094
150 15 4
152 15 1664
156 15 645
158 15 544
159 15 66
161 15 7
164 15 1729
165 15 1239
166 15 6
168 15 180
171 15 775
172 15 373
173 15 688
175 15 565
176 15 4
177 15 200
179 15 547
180 15 810
181 15 431
182 15 399
183 15 669
187 15 638
189 15 1104
191 15 4
192 15 187
194 15 585
195 15 808
196 15 1027
197 15 1202
201 15 378
205 15 2354
211 15 462
214 15 546
216 15 882
217 15 535
219 15 1129
220 15 497
221 15 654
225 15 456
228 15 170
229 15 130
231 15 336
233 15 108
234 15 577
236 15 1221
239 15 26
241 15 13
245 15 1053
247 15 323
249 15 236
251 15 537
255 15 420
256 15 576
257 15 4
259 15 623
262 15 1039
264 15 378
265 15 462
266 15 645
268 15 1208
271 15 167
272 15 214
273 15 188
275 15 638
276 15 167
278 15 741
279 15 11
281 15 1606
284 15 205
289 15 833
291 15 880
293 15 336
294 15 359
295 15 452
296 15 576
298 15 1090
300 15 645
302 15 683
303 15 2
305 15 668
306 15 518
307 15 389
309 15 516
310 15 698
311 15 436
312 15 626
314 15 254
315 15 537
316 15 537
317 15 4
319 15 518
320 15 371
325 15 515
327 15 741
331 15 1192
332 15 688
334 15 237
336 15 708
337 15 67
338 15 6
339 15 4
340 15 340
342 15 169
343 15 149
344 15 1508
345 15 580
346 15 486
348 15 1115
349 15 567
350 15 413
352 15 435
353 15 660
357 15 497
360 15 84
361 15 534
364 15 411
366 15 330
369 15 1401
371 15 590
372 15 580
375 15 343
376 15 1878
377 15 250
380 15 421
381 15 977
383 15 565
384 15 368
385 15 369
386 15 676
387 15 665
389 15 563
390 15 583
393 15 1330
395 15 688
397 15 694
399 15 420
401 15 289
402 15 671
404 15 962
406 15 901
407 15 614
408 15 30
409 15 1124
410 15 6
411 15 90
412 15 28
413 15 489
414 15 288
415 15 1374
417 15 420
418 15 624
420 15 670
421 15 1303
422 15 175
423 15 713
425 15 658
426 15 643
430 15 1261
432 15 4
435 15 648
436 15 20
438 15 1402
439 15 993
441 15 1129
444 15 467
445 15 312
447 15 1587
448 15 4
455 15 915
457 15 339
458 15 27
460 15 688
462 15 1016
463 15 5
466 15 195
469 15 472
470 15 1161
471 15 355
473 15 853
474 15 726
476 15 903
477 15 4
478 15 1306
480 15 490
486 15 423
487 15 437
488 15 105
489 15 940
490 15 581
493 15 315
495 15 205
498 15 881
499 15 387
500 15 1007
1 16 95
2 16 529
3 16 6
4 16 2
8 16 30
10 16 292
11 16 411
13 16 214
15 16 399
18 16 267
22 16 449
25 16 507
26 16 52
28 16 667
30 16 882
31 16 1092
32 16 141
34 16 53
36 16 734
37 16 405
39 16 731
40 16 671
46 16 261
47 16 242
53 16 287
55 16 231
56 16 1076
57 16 806
58 16 682
59 16 364
61 16 337
67 16 585
68 16 167
69 16 670
71 16 397
72 16 469
73 16 18
74 16 533
75 16 817
77 16 470
79 16 369
80 16 432
81 16 1186
82 16 342
87 16 435
89 16 799
91 16 283
92 16 1137
94 16 7
96 16 714
97 16 481
98 16 6
100 16 565
101 16 564
103 16 1361
104 16 426
106 16 613
107 16 475
108 16 684
109 16 116
110 16 611
113 16 594
114 16 543
116 16 497
123 16 22
126 16 319
128 16 765
130 16 281
131 16 432
132 16 647
135 16 95
139 16 147
141 16 295
145 16 1188
146 16 732
147 16 168
149 16 624
152 16 1072
156 16 455
158 16 1324
164 16 1192
165 16 466
166 16 69
168 16 5
171 16 715
172 16 25
173 16 518
175 16 353
177 16 233
179 16 699
180 16 532
181 16 936
182 16 27
183 16 654
187 16 760
189 16 933
192 16 205
194 16 671
195 16 263
196 16 394
197 16 755
201 16 16
205 16 564
211 16 410
214 16 438
216 16 305
217 16 250
219 16 978
220 16 756
221 16 654
225 16 392
228 16 24
231 16 1042
233 16 296
234 16 208
236 16 834
241 16 94
245 16 164
247 16 446
249 16 582
251 16 248
255 16 809
256 16 733
258 16 131
259 16 205
262 16 1032
264 16 1452
265 16 464
266 16 492
268 16 415
271 16 276
272 16 502
273 16 23
275 16 303
276 16 29
278 16 715
281 16 346
284 16 208
289 16 304
291 16 401
293 16 391
294 16 452
295 16 286
296 16 353
298 16 552
300 16 357
302 16 950
305 16 451
306 16 652
307 16 754
309 16 618
310 16 1160
311 16 237
312 16 329
314 16 6
315 16 212
316 16 1114
317 16 7
319 16 384
320 16 414
325 16 202
327 16 284
331 16 529
332 16 916
334 16 155
336 16 641
340 16 38
342 16 6
343 16 103
344 16 451
345 16 342
346 16 267
348 16 599
349 16 547
350 16 258
352 16 265
353 16 343
357 16 709
360 16 655
361 16 1316
364 16 495
366 16 159
369 16 363
371 16 533
372 16 361
375 16 299
376 16 1401
377 16 63
380 16 436
381 16 482
383 16 414
384 16 548
385 16 771
386 16 1142
387 16 418
389 16 485
390 16 300
393 16 446
395 16 349
397 16 887
399 16 491
401 16 254
402 16 317
404 16 217
406 16 1046
407 16 225
409 16 1133
413 16 644
414 16 174
415 16 405
417 16 1067
418 16 473
420 16 501
421 16 972
422 16 324
423 16 653
425 16 19
426 16 1084
430 16 587
431 16 137
434 16 65
435 16 434
438 16 553
439 16 1042
441 16 525
444 16 361
445 16 254
447 16 426
455 16 503
457 16 253
460 16 336
462 16 730
463 16 273
469 16 352
470 16 989
471 16 477
473 16 550
474 16 1350
476 16 512
478 16 763
480 16 14
481 16 5
486 16 151
487 16 469
488 16 555
489 16 318
490 16 750
492 16 7
493 16 414
496 16 5
498 16 637
499 16 503
500 16 589
2 17 273
4 17 245
10 17 330
11 17 73
13 17 353
15 17 450
18 17 386
22 17 753
25 17 308
28 17 387
30 17 392
31 17 394
32 17 3
34 17 248
35 17 3
36 17 295
37 17 560
39 17 358
40 17 239
46 17 252
47 17 335
49 17 127
53 17 373
55 17 2
56 17 508
57 17 311
58 17 261
59 17 711
61 17 288
62 17 54
67 17 297
68 17 30
69 17 273
71 17 617
72 17 356
74 17 189
75 17 493
77 17 524
79 17 413
80 17 388
81 17 407
82 17 650
87 17 460
89 17 640
91 17 3
92 17 263
94 17 108
96 17 733
97 17 420
100 17 405
101 17 316
103 17 388
104 17 154
106 17 377
107 17 379
108 17 145
110 17 143
113 17 385
114 17 384
116 17 285
123 17 200
126 17 445
128 17 985
130 17 195
131 17 381
132 17 416
135 17 102
141 17 82
145 17 589
146 17 360
149 17 381
150 17 134
152 17 1410
156 17 273
158 17 467
164 17 1409
165 17 507
166 17 337
171 17 353
173 17 328
175 17 173
177 17 192
179 17 469
180 17 504
181 17 355
183 17 296
187 17 266
189 17 580
192 17 97
194 17 356
195 17 356
196 17 414
197 17 752
205 17 269
211 17 217
214 17 366
216 17 274
217 17 115
219 17 313
220 17 267
221 17 341
223 17 6
225 17 970
231 17 376
233 17 301
234 17 5
236 17 869
241 17 120
245 17 175
247 17 381
249 17 435
251 17 314
254 17 6
255 17 716
256 17 378
258 17 348
259 17 225
262 17 384
264 17 509
265 17 449
266 17 271
268 17 471
271 17 317
272 17 273
275 17 356
278 17 123
281 17 250
289 17 255
290 17 25
291 17 256
293 17 456
294 17 209
295 17 289
296 17 142
298 17 603
300 17 419
302 17 351
305 17 644
306 17 511
307 17 427
309 17 350
310 17 565
311 17 173
312 17 258
315 17 254
316 17 630
317 17 387
319 17 225
320 17 432
325 17 97
327 17 440
331 17 657
332 17 351
336 17 890
344 17 381
345 17 5
346 17 199
348 17 263
349 17 735
350 17 142
352 17 132
353 17 242
357 17 417
360 17 398
361 17 320
364 17 403
369 17 318
371 17 477
372 17 429
375 17 425
376 17 581
380 17 733
381 17 450
383 17 317
384 17 620
385 17 633
386 17 317
387 17 727
389 17 420
390 17 403
393 17 400
395 17 375
397 17 411
399 17 215
401 17 201
402 17 362
404 17 2
406 17 957
407 17 53
409 17 294
413 17 337
415 17 321
417 17 207
418 17 441
420 17 288
421 17 263
422 17 275
423 17 891
426 17 354
430 17 482
431 17 106
434 17 185
435 17 168
438 17 624
439 17 372
441 17 294
444 17 295
445 17 170
447 17 246
448 17 211
452 17 178
455 17 525
460 17 506
462 17 844
463 17 273
469 17 793
470 17 687
471 17 516
473 17 67
474 17 452
476 17 490
478 17 474
486 17 662
487 17 210
488 17 347
489 17 322
490 17 319
492 17 208
493 17 395
496 17 83
498 17 475
499 17 333
500 17 762
2 18 727
4 18 585
10 18 294
13 18 503
15 18 331
17 18 20
18 18 265
22 18 600
25 18 350
28 18 270
30 18 354
31 18 220
34 18 426
35 18 93
36 18 866
37 18 457
39 18 358
40 18 289
46 18 305
47 18 295
49 18 96
53 18 304
56 18 313
57 18 224
58 18 183
59 18 358
61 18 190
62 18 339
67 18 262
69 18 622
71 18 177
72 18 649
74 18 26
75 18 414
77 18 581
79 18 865
80 18 101
81 18 254
82 18 450
83 18 117
87 18 428
89 18 396
92 18 467
94 18 292
96 18 311
97 18 599
100 18 558
101 18 668
103 18 422
104 18 986
106 18 360
107 18 390
108 18 55
113 18 1013
114 18 584
116 18 424
122 18 6
123 18 549
126 18 360
128 18 274
130 18 236
131 18 350
132 18 316
134 18 5
135 18 236
144 18 11
145 18 306
146 18 124
149 18 257
150 18 313
152 18 484
156 18 348
158 18 237
164 18 478
165 18 501
166 18 317
170 18 11
171 18 378
173 18 320
175 18 58
177 18 171
179 18 523
180 18 247
181 18 359
183 18 212
187 18 26
189 18 358
193 18 148
194 18 176
195 18 535
196 18 435
197 18 736
202 18 96
203 18 25
205 18 460
216 18 363
217 18 33
219 18 307
220 18 423
221 18 366
223 18 65
225 18 377
231 18 429
233 18 615
236 18 402
241 18 276
245 18 32
247 18 484
249 18 306
251 18 396
253 18 184
254 18 156
255 18 393
256 18 192
258 18 159
262 18 219
264 18 550
265 18 369
266 18 360
268 18 388
271 18 269
272 18 175
275 18 434
278 18 8
281 18 254
289 18 354
290 18 195
291 18 335
293 18 204
294 18 57
295 18 333
296 18 88
298 18 358
300 18 381
302 18 431
305 18 758
306 18 305
307 18 376
309 18 208
310 18 383
311 18 307
312 18 289
315 18 297
316 18 746
317 18 643
319 18 286
320 18 410
327 18 146
331 18 496
332 18 419
336 18 761
344 18 219
346 18 3
348 18 493
349 18 358
352 18 25
353 18 198
357 18 92
360 18 211
361 18 348
364 18 584
369 18 255
371 18 205
372 18 352
374 18 154
375 18 252
376 18 563
380 18 134
381 18 328
383 18 431
384 18 266
385 18 197
386 18 232
387 18 192
389 18 639
390 18 390
393 18 347
395 18 248
397 18 299
399 18 28
401 18 111
402 18 401
406 18 449
409 18 444
410 18 153
413 18 420
415 18 755
417 18 238
418 18 416
420 18 307
421 18 8
422 18 260
423 18 761
426 18 578
427 18 2
429 18 1
430 18 348
431 18 270
434 18 240
435 18 447
438 18 318
439 18 218
440 18 6
441 18 690
444 18 293
447 18 208
448 18 197
452 18 236
455 18 263
460 18 285
462 18 902
463 18 557
469 18 1038
470 18 1092
471 18 262
473 18 21
474 18 449
476 18 390
478 18 388
481 18 211
486 18 489
487 18 933
488 18 331
489 18 451
490 18 398
491 18 440
492 18 616
493 18 184
496 18 179
498 18 388
499 18 296
500 18 452
2 19 1610
4 19 1367
10 19 269
13 19 471
15 19 728
17 19 525
18 19 700
22 19 463
25 19 380
28 19 1148
30 19 272
31 19 3243
34 19 338
35 19 411
36 19 768
37 19 2503
39 19 538
40 19 58
45 19 10
46 19 1435
47 19 1671
49 19 558
53 19 726
56 19 1069
57 19 16
58 19 815
59 19 1281
62 19 630
67 19 939
69 19 350
72 19 408
75 19 933
77 19 1014
79 19 382
80 19 882
81 19 372
82 19 60
83 19 336
87 19 1117
89 19 1087
92 19 869
94 19 566
96 19 300
97 19 741
100 19 568
101 19 1212
103 19 394
104 19 725
106 19 1
107 19 1119
113 19 762
114 19 402
116 19 682
122 19 49
123 19 663
126 19 908
128 19 1340
130 19 25
131 19 1141
132 19 1078
134 19 2
135 19 791
138 19 143
144 19 71
145 19 680
146 19 207
149 19 843
150 19 619
152 19 1666
156 19 626
158 19 600
164 19 1653
165 19 922
166 19 426
170 19 7
171 19 612
173 19 1113
175 19 56
177 19 429
179 19 1160
180 19 925
181 19 1212
183 19 76
186 19 183
189 19 498
193 19 269
194 19 507
195 19 1070
196 19 1370
197 19 746
202 19 372
203 19 149
205 19 1207
208 19 389
216 19 1164
219 19 702
220 19 890
221 19 892
223 19 133
225 19 685
231 19 314
233 19 839
236 19 1032
241 19 720
247 19 1195
249 19 929
251 19 2220
253 19 337
254 19 346
255 19 496
256 19 507
258 19 895
262 19 682
264 19 322
265 19 946
266 19 615
268 19 1133
271 19 1368
272 19 447
275 19 353
281 19 548
289 19 1126
290 19 646
291 19 1079
293 19 842
294 19 5
295 19 1282
298 19 1068
300 19 838
302 19 823
305 19 439
306 19 1741
307 19 1854
309 19 885
310 19 2646
311 19 370
312 19 191
315 19 785
316 19 602
317 19 726
319 19 185
320 19 1459
327 19 690
331 19 1028
332 19 896
336 19 516
344 19 286
348 19 327
349 19 410
351 19 333
357 19 321
360 19 1080
361 19 618
364 19 712
369 19 913
371 19 1003
372 19 1251
374 19 391
375 19 1419
376 19 897
380 19 260
381 19 363
383 19 697
384 19 186
385 19 1980
386 19 344
387 19 127
389 19 997
390 19 1034
393 19 751
395 19 1096
397 19 871
401 19 277
402 19 314
406 19 641
409 19 1049
410 19 376
413 19 1925
415 19 1127
416 19 22
417 19 28
418 19 917
420 19 384
422 19 1622
423 19 527
426 19 473
427 19 61
429 19 107
430 19 1101
431 19 642
434 19 442
435 19 352
437 19 5
438 19 1303
439 19 725
440 19 88
441 19 802
443 19 7
444 19 564
447 19 392
448 19 314
449 19 21
452 19 1397
455 19 711
460 19 429
462 19 478
463 19 770
469 19 714
470 19 1721
471 19 1188
474 19 738
476 19 582
478 19 859
481 19 355
486 19 616
487 19 526
488 19 949
489 19 1043
490 19 1533
491 19 412
492 19 2194
493 19 841
496 19 811
498 19 836
499 19 23
500 19 816
2 20 810
4 20 946
10 20 28
13 20 702
15 20 976
17 20 690
18 20 786
22 20 1252
25 20 444
28 20 774
30 20 902
31 20 735
34 20 904
35 20 1091
36 20 1413
37 20 773
39 20 1068
45 20 95
46 20 991
47 20 948
49 20 712
53 20 778
56 20 1448
58 20 1449
59 20 2318
62 20 1374
64 20 179
67 20 328
69 20 305
72 20 1750
75 20 1836
77 20 812
79 20 477
80 20 317
81 20 694
83 20 412
87 20 928
89 20 983
92 20 665
94 20 399
96 20 61
97 20 995
100 20 1263
101 20 1612
102 20 155
103 20 673
104 20 1161
107 20 622
113 20 247
114 20 483
116 20 1637
122 20 113
123 20 1498
126 20 354
128 20 1106
131 20 482
132 20 725
134 20 91
135 20 1075
138 20 775
144 20 595
145 20 634
149 20 1790
150 20 376
152 20 1495
156 20 674
158 20 463
164 20 1586
165 20 1301
166 20 400
167 20 155
170 20 254
171 20 1328
173 20 1672
177 20 638
179 20 534
180 20 1861
181 20 1135
186 20 533
189 20 1140
193 20 337
194 20 1029
195 20 1301
196 20 712
197 20 827
198 20 5
202 20 982
203 20 670
205 20 1034
208 20 701
216 20 806
219 20 875
220 20 3155
221 20 2028
223 20 578
225 20 758
231 20 58
233 20 1201
236 20 1356
241 20 1059
247 20 764
248 20 47
249 20 718
251 20 1349
253 20 623
254 20 1015
255 20 912
256 20 1079
258 20 1077
262 20 468
264 20 856
265 20 746
266 20 658
268 20 924
271 20 766
272 20 490
275 20 5
281 20 1207
287 20 5
289 20 770
290 20 296
291 20 1357
293 20 655
295 20 2120
298 20 587
300 20 874
302 20 8
305 20 773
306 20 1501
307 20 481
309 20 1630
310 20 633
311 20 1402
312 20 33
315 20 1663
316 20 875
317 20 867
319 20 63
320 20 630
327 20 686
331 20 714
332 20 6
336 20 1371
344 20 7
348 20 1171
349 20 993
351 20 659
360 20 344
361 20 892
362 20 8
364 20 1038
368 20 9
369 20 623
371 20 290
372 20 1453
374 20 645
375 20 1080
376 20 749
380 20 3
381 20 723
383 20 438
385 20 1003
386 20 523
389 20 864
390 20 434
393 20 447
395 20 683
397 20 1045
401 20 16
402 20 2
406 20 656
409 20 257
410 20 389
413 20 677
415 20 1297
416 20 60
418 20 662
420 20 478
422 20 1206
423 20 1371
426 20 934
427 20 365
429 20 222
430 20 663
431 20 507
432 20 52
434 20 1488
435 20 145
437 20 356
438 20 1091
439 20 417
440 20 355
441 20 1992
443 20 179
444 20 870
447 20 630
448 20 756
449 20 53
452 20 867
455 20 1229
460 20 1118
462 20 1639
463 20 371
469 20 946
470 20 1056
471 20 2304
474 20 286
476 20 411
478 20 566
481 20 484
486 20 938
487 20 1636
488 20 1310
489 20 757
490 20 1807
491 20 904
492 20 886
493 20 694
496 20 1079
498 20 1145
500 20 930
1 21 1420
2 21 778
3 21 1253
7 21 730
8 21 860
10 21 988
11 21 317
14 21 1860
15 21 3593
17 21 21
18 21 919
21 21 976
22 21 668
25 21 1471
26 21 1059
28 21 759
30 21 643
31 21 1970
32 21 920
33 21 1125
36 21 1162
37 21 443
39 21 489
40 21 766
46 21 1552
53 21 817
55 21 663
56 21 601
57 21 1526
59 21 1047
61 21 1958
63 21 106
67 21 1041
68 21 1239
69 21 1242
71 21 1319
72 21 1020
73 21 2759
74 21 833
75 21 958
79 21 882
80 21 259
82 21 496
85 21 912
86 21 2189
87 21 1227
89 21 1207
91 21 1078
92 21 603
96 21 1117
97 21 1554
98 21 1609
99 21 629
100 21 643
103 21 1125
104 21 1765
106 21 565
107 21 1749
108 21 693
109 21 1626
110 21 913
113 21 782
114 21 1107
116 21 1520
118 21 410
120 21 1725
124 21 110
125 21 954
126 21 1801
128 21 4
129 21 59
130 21 2565
131 21 271
132 21 725
139 21 1647
141 21 645
145 21 706
146 21 1177
147 21 453
148 21 4
149 21 1189
152 21 1032
154 21 419
156 21 1325
158 21 604
159 21 1352
164 21 1056
165 21 772
168 21 268
171 21 1634
172 21 1136
173 21 1559
175 21 1306
179 21 2455
180 21 812
181 21 683
182 21 494
183 21 1711
185 21 675
187 21 854
189 21 1255
192 21 652
194 21 826
195 21 885
196 21 1108
197 21 1115
201 21 1150
205 21 1346
211 21 708
214 21 1655
216 21 1128
217 21 707
219 21 754
220 21 2039
221 21 1993
225 21 1363
228 21 946
229 21 431
230 21 6
231 21 1943
234 21 1869
235 21 6
236 21 1032
239 21 736
240 21 8
245 21 1120
249 21 51
251 21 644
255 21 916
256 21 727
257 21 5
259 21 1372
262 21 575
265 21 2605
266 21 1290
268 21 1273
273 21 793
274 21 441
275 21 1536
276 21 1013
278 21 1567
281 21 434
282 21 100
284 21 1210
289 21 1151
291 21 776
293 21 132
294 21 2388
295 21 1187
296 21 1349
298 21 1177
300 21 1443
301 21 664
302 21 1030
303 21 870
305 21 1227
306 21 1119
307 21 1746
309 21 2106
310 21 2125
311 21 1396
312 21 1322
314 21 1117
315 21 161
316 21 975
319 21 444
320 21 966
323 21 401
325 21 1664
327 21 1331
331 21 1593
332 21 1066
334 21 1095
336 21 1323
337 21 839
340 21 831
342 21 604
343 21 1636
344 21 680
345 21 547
346 21 2256
348 21 1448
349 21 1062
350 21 825
352 21 637
353 21 711
356 21 2
357 21 961
364 21 1600
366 21 444
369 21 1274
371 21 2260
372 21 1463
375 21 1800
376 21 1335
377 21 1405
380 21 1154
381 21 1477
382 21 570
383 21 1252
384 21 637
385 21 2111
386 21 540
387 21 1076
389 21 442
390 21 944
391 21 4
393 21 1008
395 21 1165
399 21 750
401 21 690
402 21 1620
404 21 1623
406 21 714
407 21 909
408 21 2246
409 21 703
411 21 398
412 21 1233
413 21 1521
414 21 548
415 21 2376
417 21 1120
418 21 760
420 21 1377
421 21 761
423 21 1327
425 21 1530
426 21 677
430 21 416
435 21 1500
438 21 979
439 21 533
441 21 1750
444 21 600
445 21 988
447 21 1003
453 21 1096
455 21 736
457 21 350
458 21 1544
460 21 1149
462 21 706
466 21 1367
469 21 1473
470 21 1881
471 21 1051
473 21 688
474 21 2036
476 21 1043
478 21 1507
480 21 2791
486 21 774
487 21 69
489 21 1572
490 21 688
493 21 134
495 21 1843
498 21 107
499 21 658
500 21 1451
1 22 1386
2 22 546
3 22 1275
4 22 1712
5 22 809
6 22 980
7 22 1177
8 22 804
9 22 638
10 22 1205
11 22 680
12 22 1106
13 22 385
14 22 1078
15 22 1851
16 22 377
17 22 1121
18 22 534
19 22 1028
20 22 570
21 22 859
22 22 792
23 22 516
24 22 1473
25 22 670
26 22 565
27 22 526
28 22 693
29 22 963
30 22 1395
31 22 813
32 22 411
33 22 661
34 22 1348
35 22 1019
36 22 440
37 22 749
38 22 392
39 22 757
40 22 1548
41 22 1487
42 22 183
43 22 2049
44 22 651
45 22 789
46 22 1270
47 22 701
48 22 909
49 22 1222
50 22 305
51 22 372
52 22 621
53 22 591
54 22 401
55 22 1424
56 22 728
57 22 872
58 22 1550
59 22 1218
60 22 1050
61 22 378
62 22 1328
63 22 836
64 22 930
65 22 787
66 22 651
67 22 1285
68 22 1564
69 22 2329
70 22 487
71 22 724
72 22 1170
73 22 694
74 22 388
75 22 977
76 22 258
77 22 1493
78 22 1099
79 22 1040
80 22 829
81 22 717
82 22 896
83 22 453
84 22 723
85 22 1253
86 22 398
87 22 1570
88 22 691
89 22 1256
90 22 676
91 22 1200
92 22 560
93 22 425
94 22 1128
95 22 893
96 22 1451
97 22 951
98 22 902
99 22 1670
100 22 672
101 22 1179
102 22 1176
103 22 1104
104 22 858
105 22 471
106 22 1453
107 22 244
108 22 1685
109 22 603
110 22 1578
111 22 1730
112 22 945
113 22 1605
114 22 545
115 22 385
116 22 2374
117 22 298
118 22 458
119 22 834
120 22 749
121 22 708
122 22 944
123 22 1779
124 22 626
125 22 701
126 22 1324
127 22 610
128 22 1943
129 22 957
130 22 1067
131 22 1508
132 22 760
133 22 576
134 22 722
135 22 821
136 22 927
137 22 746
138 22 1623
139 22 570
140 22 690
141 22 940
142 22 450
143 22 394
144 22 534
145 22 515
146 22 892
147 22 548
148 22 769
149 22 1445
150 22 1334
151 22 1559
152 22 1555
153 22 626
154 22 1364
155 22 427
156 22 672
157 22 670
158 22 1083
159 22 576
160 22 1087
161 22 1323
162 22 690
163 22 330
164 22 1520
165 22 1580
166 22 1152
167 22 883
168 22 1064
169 22 882
170 22 789
171 22 2024
172 22 521
173 22 1374
174 22 1806
175 22 900
176 22 913
177 22 1104
178 22 1990
179 22 2198
180 22 409
181 22 1050
182 22 664
183 22 1198
184 22 637
185 22 552
186 22 742
187 22 1033
188 22 401
189 22 608
190 22 957
191 22 1338
192 22 863
193 22 682
194 22 702
195 22 1100
196 22 1706
197 22 531
198 22 1088
199 22 743
200 22 763
201 22 540
202 22 575
203 22 1370
204 22 1270
205 22 684
206 22 798
207 22 376
208 22 305
209 22 764
210 22 817
211 22 1539
212 22 593
213 22 1102
214 22 840
215 22 1011
216 22 708
217 22 561
218 22 1034
219 22 1257
220 22 433
221 22 1469
222 22 827
223 22 1216
224 22 1260
225 22 804
226 22 801
227 22 913
228 22 754
229 22 1158
230 22 656
231 22 527
232 22 1046
233 22 458
234 22 794
235 22 616
236 22 1131
237 22 602
238 22 345
239 22 423
240 22 705
241 22 828
242 22 1297
243 22 1036
244 22 444
245 22 719
246 22 738
247 22 557
248 22 1148
249 22 450
250 22 1839
251 22 727
252 22 479
253 22 642
254 22 830
255 22 1280
256 22 645
257 22 802
258 22 534
259 22 512
260 22 734
261 22 797
262 22 1010
263 22 748
264 22 1183
265 22 1576
266 22 689
267 22 698
268 22 1597
269 22 632
270 22 572
271 22 551
272 22 930
273 22 441
274 22 1615
275 22 1266
276 22 791
277 22 282
278 22 646
279 22 522
280 22 699
281 22 1024
282 22 368
283 22 1476
284 22 712
285 22 1410
286 22 468
287 22 561
288 22 409
289 22 658
290 22 644
291 22 1823
292 22 695
293 22 915
294 22 1974
295 22 568
296 22 1317
297 22 813
298 22 1671
299 22 1112
300 22 744
301 22 1621
302 22 1838
303 22 1265
304 22 366
305 22 483
306 22 940
307 22 3106
308 22 1044
309 22 616
310 22 1615
311 22 1015
312 22 1308
313 22 506
314 22 531
315 22 1006
316 22 943
317 22 1017
318 22 573
319 22 1026
320 22 2026
321 22 555
322 22 122
323 22 1469
324 22 735
325 22 1023
326 22 881
327 22 906
328 22 306
329 22 533
330 22 761
331 22 2268
332 22 1798
333 22 289
334 22 790
335 22 251
336 22 855
337 22 999
338 22 916
339 22 543
340 22 837
341 22 889
342 22 638
343 22 547
344 22 812
345 22 1095
346 22 1552
347 22 796
348 22 1189
349 22 771
350 22 962
351 22 867
352 22 546
353 22 1759
354 22 784
355 22 729
356 22 735
357 22 1071
358 22 662
359 22 740
360 22 844
361 22 837
362 22 1660
363 22 954
364 22 965
365 22 696
366 22 907
367 22 823
368 22 817
369 22 1073
370 22 714
371 22 1144
372 22 1032
373 22 794
374 22 441
375 22 1302
376 22 621
377 22 536
378 22 1013
379 22 857
380 22 625
381 22 1035
382 22 1438
383 22 1689
384 22 1089
385 22 1713
386 22 728
387 22 1881
388 22 435
389 22 1571
390 22 1271
391 22 1382
392 22 1363
393 22 1394
394 22 517
395 22 878
396 22 117
397 22 1671
398 22 801
399 22 759
400 22 372
401 22 847
402 22 1237
403 22 741
404 22 1088
405 22 214
406 22 764
407 22 652
408 22 374
409 22 1447
410 22 1504
411 22 1294
412 22 1205
413 22 1168
414 22 969
415 22 1127
416 22 638
417 22 1825
418 22 1904
419 22 1133
420 22 648
421 22 1475
422 22 1663
423 22 836
424 22 468
425 22 1187
426 22 1163
427 22 1122
428 22 638
429 22 916
430 22 393
431 22 566
432 22 1132
433 22 1305
434 22 1002
435 22 852
436 22 1062
437 22 381
438 22 727
439 22 1035
440 22 838
441 22 1162
442 22 109
443 22 346
444 22 1097
445 22 973
446 22 235
447 22 1461
448 22 358
449 22 649
450 22 1257
451 22 618
452 22 776
453 22 425
454 22 1121
455 22 2157
456 22 617
457 22 1022
458 22 903
459 22 432
460 22 347
461 22 515
462 22 726
463 22 834
464 22 800
465 22 1621
466 22 643
467 22 898
468 22 563
469 22 956
470 22 1121
471 22 1023
472 22 1002
473 22 754
474 22 880
475 22 964
476 22 1341
477 22 314
478 22 932
479 22 888
480 22 733
481 22 847
482 22 907
483 22 427
484 22 1235
485 22 856
486 22 1533
487 22 2161
488 22 894
489 22 1315
490 22 1443
491 22 1546
492 22 1050
493 22 987
494 22 550
495 22 1910
496 22 1474
497 22 475
498 22 612
499 22 1877
500 22 1763
1 23 1917
2 23 1814
3 23 1739
7 23 617
8 23 824
10 23 1193
11 23 1785
12 23 61
14 23 1434
15 23 2059
18 23 1047
21 23 1141
22 23 2177
25 23 1233
26 23 953
28 23 2404
30 23 1983
31 23 2679
32 23 1565
33 23 1162
36 23 1344
37 23 416
39 23 1529
40 23 1219
46 23 1441
53 23 1010
55 23 1139
56 23 482
57 23 729
59 23 1190
61 23 1637
63 23 207
67 23 2149
68 23 1929
69 23 2287
71 23 1612
72 23 1472
73 23 639
74 23 1677
75 23 1721
77 23 63
79 23 2460
80 23 293
82 23 1409
85 23 1111
86 23 1717
87 23 1239
89 23 1426
91 23 1357
92 23 724
96 23 1115
97 23 954
98 23 1273
99 23 776
100 23 3338
103 23 1631
104 23 1259
106 23 1625
107 23 2382
108 23 1664
109 23 1394
110 23 2609
113 23 1670
114 23 576
116 23 1770
117 23 4
118 23 968
120 23 729
124 23 214
125 23 1215
126 23 1630
127 23 5
129 23 29
130 23 1264
131 23 482
132 23 2501
139 23 1138
141 23 855
145 23 2265
146 23 2030
147 23 1688
148 23 84
149 23 1641
152 23 1293
154 23 284
156 23 1683
158 23 1160
159 23 596
164 23 1327
165 23 2063
168 23 1249
171 23 3643
172 23 1116
173 23 1920
175 23 1635
179 23 2289
180 23 856
181 23 1588
182 23 2337
183 23 1398
185 23 282
187 23 2670
189 23 760
192 23 1776
194 23 988
195 23 1005
196 23 1253
197 23 2169
201 23 1037
205 23 1598
211 23 1502
214 23 859
216 23 1735
217 23 1228
219 23 1186
220 23 2580
221 23 1161
225 23 898
228 23 591
229 23 1393
231 23 644
234 23 672
236 23 1883
239 23 748
245 23 1945
247 23 4
249 23 8
251 23 1642
255 23 1899
256 23 1062
259 23 1884
262 23 2605
265 23 2227
266 23 1734
268 23 1202
273 23 480
274 23 691
275 23 2051
276 23 560
277 23 5
278 23 643
281 23 1415
282 23 159
284 23 1093
289 23 1732
291 23 1449
293 23 244
294 23 1964
295 23 1817
296 23 1850
298 23 2815
300 23 1541
301 23 998
302 23 2942
303 23 1633
305 23 617
306 23 1441
307 23 401
309 23 1509
310 23 3266
311 23 2023
312 23 1674
314 23 1774
315 23 9
316 23 2082
319 23 1100
320 23 1907
323 23 293
325 23 1608
327 23 1521
331 23 2302
332 23 2931
333 23 8
334 23 1746
336 23 1294
337 23 878
340 23 1504
342 23 954
343 23 1164
344 23 990
345 23 1484
346 23 1469
348 23 1363
349 23 4444
350 23 1341
352 23 319
353 23 1141
356 23 7
357 23 2080
364 23 936
366 23 1098
369 23 1679
371 23 1587
372 23 2255
375 23 1530
376 23 904
377 23 1251
380 23 2006
381 23 2092
382 23 1892
383 23 1072
384 23 2330
385 23 1453
386 23 1240
387 23 2499
389 23 1627
390 23 1569
393 23 3321
395 23 565
397 23 6
399 23 1413
401 23 1493
402 23 2148
404 23 1655
406 23 1196
407 23 1140
408 23 1785
409 23 1032
411 23 774
412 23 1725
413 23 1082
414 23 1886
415 23 1513
417 23 823
418 23 1708
420 23 1275
421 23 2579
423 23 1242
425 23 1269
426 23 1577
430 23 2834
435 23 2164
438 23 1415
439 23 2672
441 23 1011
444 23 1026
445 23 1322
447 23 1245
451 23 5
453 23 738
455 23 1207
457 23 1812
458 23 889
460 23 3051
462 23 2198
466 23 1018
469 23 1163
470 23 1921
471 23 822
473 23 1387
474 23 2467
476 23 2081
478 23 1434
479 23 52
480 23 628
486 23 2426
487 23 99
489 23 2894
490 23 1167
493 23 248
495 23 2313
498 23 287
499 23 2659
500 23 1022
1 24 859
2 24 716
3 24 880
4 24 963
5 24 609
6 24 265
7 24 833
8 24 2074
9 24 1555
10 24 704
11 24 1807
12 24 240
13 24 705
14 24 1230
15 24 1266
16 24 603
17 24 1623
18 24 637
19 24 766
20 24 1244
21 24 1078
22 24 1867
23 24 499
24 24 1316
25 24 1240
26 24 930
27 24 484
28 24 1147
29 24 595
30 24 1269
31 24 771
32 24 690
33 24 648
34 24 1444
35 24 683
36 24 1110
37 24 976
38 24 259
39 24 692
40 24 1207
41 24 1222
42 24 270
43 24 740
44 24 1796
45 24 585
46 24 944
47 24 1830
48 24 265
49 24 998
50 24 516
51 24 472
52 24 481
53 24 696
54 24 568
55 24 781
56 24 1027
57 24 679
58 24 586
59 24 889
60 24 226
61 24 1047
62 24 432
63 24 831
64 24 1770
65 24 718
66 24 370
67 24 674
68 24 1164
69 24 1486
70 24 653
71 24 792
72 24 1557
73 24 800
74 24 1177
75 24 1092
76 24 291
77 24 906
78 24 183
79 24 1536
80 24 420
81 24 1071
82 24 1201
83 24 1452
84 24 601
85 24 215
86 24 1051
87 24 985
88 24 1390
89 24 1948
90 24 938
91 24 996
92 24 677
93 24 793
94 24 594
95 24 237
96 24 528
97 24 1998
98 24 1298
99 24 1002
100 24 889
101 24 1410
102 24 629
103 24 878
104 24 480
105 24 492
106 24 1305
107 24 1368
108 24 1919
109 24 1011
110 24 634
111 24 239
112 24 633
113 24 512
114 24 650
115 24 1427
116 24 2304
117 24 479
118 24 798
119 24 140
120 24 534
121 24 758
122 24 248
123 24 552
124 24 1188
125 24 1655
126 24 734
127 24 1246
128 24 798
129 24 477
130 24 509
131 24 1380
132 24 1099
133 24 422
134 24 389
135 24 868
136 24 736
137 24 638
138 24 828
139 24 857
140 24 669
141 24 661
142 24 486
143 24 275
144 24 1229
145 24 1754
146 24 930
147 24 1344
148 24 267
149 24 650
150 24 992
151 24 755
152 24 1326
153 24 398
154 24 945
155 24 1322
156 24 387
157 24 1392
158 24 253
159 24 1048
160 24 1138
161 24 591
162 24 708
163 24 195
164 24 1462
165 24 968
166 24 705
167 24 612
168 24 635
169 24 260
170 24 640
171 24 1849
172 24 279
173 24 1315
174 24 889
175 24 408
176 24 485
177 24 426
178 24 179
179 24 1218
180 24 813
181 24 1005
182 24 389
183 24 1592
184 24 354
185 24 877
186 24 1036
187 24 567
188 24 651
189 24 1209
190 24 555
191 24 654
192 24 1178
193 24 1375
194 24 739
195 24 2067
196 24 1504
197 24 992
198 24 986
199 24 562
200 24 224
201 24 308
202 24 1728
203 24 1010
204 24 717
205 24 2217
206 24 506
207 24 606
208 24 853
209 24 504
210 24 175
211 24 736
212 24 374
213 24 821
214 24 283
215 24 370
216 24 1101
217 24 813
218 24 991
219 24 457
220 24 940
221 24 1054
222 24 947
223 24 708
224 24 1139
225 24 699
226 24 228
227 24 268
228 24 1223
229 24 800
230 24 1468
231 24 1106
232 24 412
233 24 1365
234 24 1611
235 24 451
236 24 1376
237 24 366
238 24 781
239 24 415
240 24 492
241 24 907
242 24 1070
243 24 1255
244 24 629
245 24 987
246 24 765
247 24 1570
248 24 911
249 24 801
250 24 285
251 24 1122
252 24 142
253 24 1145
254 24 612
255 24 1264
256 24 699
257 24 646
258 24 1205
259 24 1218
260 24 235
261 24 619
262 24 540
263 24 853
264 24 404
265 24 1006
266 24 360
267 24 138
268 24 1016
269 24 1361
270 24 700
271 24 1477
272 24 822
273 24 361
274 24 1278
275 24 1586
276 24 1140
277 24 481
278 24 401
279 24 722
280 24 1335
281 24 1014
282 24 383
283 24 28
284 24 1207
285 24 530
286 24 686
287 24 781
288 24 1427
289 24 1076
290 24 425
291 24 511
292 24 1012
293 24 1552
294 24 972
295 24 535
296 24 802
297 24 516
298 24 1288
299 24 696
300 24 868
301 24 2274
302 24 630
303 24 937
304 24 630
305 24 1793
306 24 1259
307 24 937
308 24 196
309 24 452
310 24 940
311 24 730
312 24 461
313 24 149
314 24 913
315 24 1837
316 24 1069
317 24 1148
318 24 231
319 24 809
320 24 693
321 24 1247
322 24 869
323 24 952
324 24 863
325 24 330
326 24 570
327 24 242
328 24 569
329 24 1224
330 24 572
331 24 682
332 24 611
333 24 533
334 24 1087
335 24 786
336 24 1190
337 24 716
338 24 665
339 24 722
340 24 673
341 24 270
342 24 372
343 24 776
344 24 1162
345 24 494
346 24 970
347 24 562
348 24 562
349 24 628
350 24 1817
351 24 338
352 24 484
353 24 756
354 24 805
355 24 616
356 24 383
357 24 656
358 24 982
359 24 521
360 24 703
361 24 1292
362 24 662
363 24 729
364 24 2068
365 24 719
366 24 874
367 24 806
368 24 690
369 24 613
370 24 659
371 24 663
372 24 702
373 24 889
374 24 439
375 24 640
376 24 2221
377 24 741
378 24 606
379 24 288
380 24 1166
381 24 1160
382 24 610
383 24 475
384 24 1704
385 24 1353
386 24 917
387 24 1195
388 24 549
389 24 1107
390 24 729
391 24 209
392 24 1038
393 24 830
394 24 387
395 24 1099
396 24 902
397 24 725
398 24 591
399 24 1178
400 24 1100
401 24 1199
402 24 1642
403 24 507
404 24 1182
405 24 538
406 24 1483
407 24 420
408 24 1031
409 24 893
410 24 1476
411 24 431
412 24 1784
413 24 1144
414 24 274
415 24 1099
416 24 951
417 24 1602
418 24 2319
419 24 333
420 24 1244
421 24 1126
422 24 2323
423 24 1152
424 24 294
425 24 708
426 24 1586
427 24 1141
428 24 390
429 24 179
430 24 1269
431 24 858
432 24 814
433 24 485
434 24 376
435 24 696
436 24 1335
437 24 315
438 24 904
439 24 533
440 24 1352
441 24 680
442 24 865
443 24 570
444 24 819
445 24 843
446 24 419
447 24 1452
448 24 1000
449 24 984
450 24 577
451 24 1250
452 24 1618
453 24 977
454 24 624
455 24 1304
456 24 1331
457 24 613
458 24 669
459 24 951
460 24 969
461 24 384
462 24 1369
463 24 676
464 24 306
465 24 739
466 24 515
467 24 1108
468 24 907
469 24 2250
470 24 1324
471 24 700
472 24 399
473 24 994
474 24 857
475 24 812
476 24 832
477 24 402
478 24 1673
479 24 228
480 24 839
481 24 802
482 24 739
483 24 576
484 24 960
485 24 1469
486 24 840
487 24 704
488 24 923
489 24 583
490 24 1683
491 24 332
492 24 1563
493 24 1509
494 24 294
495 24 1956
496 24 1712
497 24 592
498 24 721
499 24 719
500 24 1137
1 25 3230
2 25 2806
3 25 2779
7 25 2106
8 25 2400
10 25 2474
11 25 2218
12 25 70
14 25 514
15 25 3285
18 25 513
21 25 2925
22 25 3610
25 25 2683
26 25 2394
28 25 2753
30 25 2246
31 25 1769
32 25 1213
33 25 1553
36 25 2275
37 25 1110
39 25 1378
40 25 2406
46 25 2330
53 25 461
55 25 811
56 25 1060
57 25 2297
59 25 1235
61 25 1713
63 25 234
67 25 2881
68 25 1133
69 25 2708
71 25 1672
72 25 3071
73 25 2644
74 25 2172
75 25 2616
79 25 3161
80 25 401
82 25 1615
85 25 1824
86 25 1584
87 25 2057
88 25 7
89 25 3758
91 25 3501
92 25 2199
96 25 1195
97 25 2735
98 25 2264
99 25 846
100 25 2477
103 25 2797
104 25 3048
106 25 2695
107 25 3209
108 25 2692
109 25 1788
110 25 1994
113 25 1080
114 25 2567
116 25 2068
118 25 2178
120 25 1422
124 25 265
125 25 2396
126 25 1917
128 25 6
129 25 151
130 25 2732
131 25 733
132 25 2789
139 25 1999
141 25 1794
145 25 1885
146 25 2839
147 25 1655
148 25 26
149 25 1911
152 25 3300
154 25 295
156 25 2127
158 25 1180
159 25 1692
164 25 3253
165 25 1641
168 25 1151
170 25 11
171 25 4420
172 25 2101
173 25 2005
175 25 1659
179 25 1443
180 25 2277
181 25 1211
182 25 2057
183 25 1522
185 25 654
187 25 1184
189 25 1815
192 25 2909
193 25 4
194 25 1385
195 25 2543
196 25 2951
197 25 2355
200 25 7
201 25 2064
205 25 3098
211 25 1821
214 25 2277
216 25 2454
217 25 1252
219 25 3511
220 25 2756
221 25 1553
225 25 2404
228 25 1912
229 25 1820
231 25 2299
234 25 1645
235 25 5
236 25 2605
239 25 1474
245 25 2673
247 25 20
249 25 98
251 25 2794
255 25 2026
256 25 1433
257 25 61
259 25 1884
262 25 3201
265 25 2789
266 25 2052
268 25 2176
273 25 2970
274 25 1306
275 25 3103
276 25 2047
278 25 2194
279 25 8
280 25 4
281 25 1814
282 25 142
284 25 1974
289 25 2466
291 25 2578
293 25 519
294 25 676
295 25 1248
296 25 2706
298 25 2217
300 25 2763
301 25 1146
302 25 2226
303 25 1298
305 25 1529
306 25 2251
307 25 2826
309 25 2899
310 25 2771
311 25 1343
312 25 1944
314 25 1866
315 25 245
316 25 1651
319 25 1191
320 25 2310
323 25 289
325 25 1493
327 25 2346
331 25 1886
332 25 2303
334 25 715
336 25 2729
337 25 2882
340 25 1428
342 25 974
343 25 1941
344 25 1153
345 25 1856
346 25 1797
348 25 844
349 25 3829
350 25 1529
352 25 2027
353 25 2244
356 25 62
357 25 2838
361 25 36
364 25 2809
366 25 2599
369 25 1753
371 25 1977
372 25 2453
375 25 2605
376 25 3249
377 25 1631
380 25 3390
381 25 1748
382 25 1238
383 25 3613
384 25 2946
385 25 1786
386 25 1902
387 25 1762
389 25 2016
390 25 1241
393 25 1919
395 25 2068
397 25 35
399 25 2361
401 25 2462
402 25 3063
404 25 1251
406 25 3690
407 25 3325
408 25 1668
409 25 3130
411 25 2188
412 25 1371
413 25 2395
414 25 2344
415 25 2388
417 25 2713
418 25 3011
420 25 2725
421 25 3539
423 25 2798
425 25 2940
426 25 1894
430 25 3528
435 25 4206
438 25 2023
439 25 3178
441 25 1523
444 25 1835
445 25 1505
447 25 1841
453 25 1184
455 25 2932
457 25 1199
458 25 873
460 25 2131
462 25 2801
466 25 1328
469 25 3164
470 25 1262
471 25 2809
473 25 1110
474 25 1046
476 25 2705
478 25 2339
479 25 75
480 25 2630
486 25 2360
487 25 256
489 25 2788
490 25 927
491 25 7
493 25 466
495 25 498
498 25 213
499 25 2556
500 25 3554
4 26 2148
5 26 611
6 26 1515
9 26 1582
12 26 151
13 26 1591
16 26 1333
17 26 1413
19 26 919
20 26 778
23 26 774
24 26 717
27 26 879
29 26 1041
30 26 3
34 26 1896
35 26 1830
38 26 1390
41 26 717
42 26 995
43 26 1517
44 26 2128
45 26 945
47 26 1916
48 26 1441
49 26 1098
50 26 1298
51 26 1474
52 26 1047
54 26 833
56 26 3
58 26 1937
60 26 2138
62 26 2328
63 26 28
64 26 1265
65 26 638
66 26 1209
70 26 1289
72 26 3
76 26 1169
77 26 140
78 26 931
81 26 1742
83 26 1187
84 26 749
88 26 803
90 26 2242
93 26 963
94 26 1029
95 26 1469
101 26 1793
102 26 1677
105 26 849
108 26 8
111 26 1138
112 26 1086
115 26 1615
117 26 342
119 26 1784
121 26 1230
122 26 978
123 26 1361
124 26 30
127 26 1390
128 26 1018
129 26 107
133 26 676
134 26 1108
135 26 909
136 26 986
137 26 1342
138 26 1297
140 26 437
142 26 815
143 26 1546
144 26 1287
148 26 68
150 26 1348
151 26 1691
153 26 673
155 26 1198
157 26 646
160 26 806
161 26 944
162 26 422
163 26 1201
166 26 2004
167 26 1358
168 26 19
169 26 1452
170 26 1103
174 26 888
176 26 993
177 26 1643
178 26 1180
184 26 1232
186 26 754
188 26 1813
189 26 7
190 26 1082
191 26 1572
193 26 371
198 26 536
199 26 1403
200 26 924
202 26 1976
203 26 1424
204 26 1480
206 26 422
207 26 812
208 26 1267
209 26 484
210 26 1183
212 26 370
213 26 2163
215 26 1235
218 26 1701
219 26 10
222 26 888
223 26 1153
224 26 1093
226 26 1093
227 26 1469
230 26 1057
232 26 907
233 26 1234
235 26 324
237 26 705
238 26 1560
240 26 1317
241 26 929
242 26 1302
243 26 1041
244 26 1222
246 26 1920
247 26 220
248 26 1285
249 26 339
250 26 2169
252 26 613
253 26 1197
254 26 1335
257 26 1033
258 26 1570
260 26 1680
261 26 1653
263 26 1009
264 26 1170
267 26 1902
269 26 751
270 26 2033
271 26 2757
272 26 1397
274 26 7
277 26 308
279 26 1024
280 26 825
282 26 25
283 26 2102
285 26 1844
286 26 1639
287 26 2386
288 26 1632
290 26 1635
292 26 1629
293 26 24
295 26 7
297 26 592
299 26 1193
300 26 3
302 26 9
304 26 800
308 26 1608
313 26 588
315 26 54
317 26 894
318 26 748
321 26 1772
322 26 819
324 26 966
326 26 1120
328 26 1324
329 26 1678
330 26 771
331 26 2
332 26 2
333 26 309
335 26 1501
338 26 810
339 26 1635
341 26 1477
347 26 2677
351 26 1249
354 26 1002
355 26 1480
356 26 211
358 26 1141
359 26 448
360 26 1559
361 26 1436
362 26 949
363 26 1127
365 26 393
367 26 1109
368 26 1329
370 26 2140
373 26 1036
374 26 1492
378 26 1768
379 26 1442
388 26 879
391 26 1381
392 26 3014
394 26 1641
396 26 779
397 26 809
398 26 805
400 26 1223
403 26 467
405 26 1028
410 26 2215
411 26 5
412 26 31
416 26 1079
419 26 2193
422 26 1207
424 26 604
427 26 1327
428 26 1655
429 26 1738
431 26 1577
432 26 1443
433 26 1299
434 26 1750
436 26 843
437 26 1229
440 26 1561
442 26 803
443 26 1160
446 26 1131
448 26 1830
449 26 1125
450 26 1298
451 26 1500
452 26 1391
454 26 867
456 26 629
458 26 7
459 26 1453
461 26 1582
463 26 2354
464 26 907
465 26 377
467 26 1605
468 26 832
472 26 934
475 26 1093
477 26 917
479 26 116
481 26 1803
482 26 1229
483 26 817
484 26 1240
485 26 952
487 26 168
488 26 1797
491 26 1089
492 26 2843
493 26 29
494 26 436
496 26 1443
497 26 733
498 26 5
1 27 1203
2 27 1474
3 27 503
7 27 943
8 27 916
10 27 1836
11 27 821
12 27 340
14 27 1102
15 27 810
18 27 971
21 27 820
22 27 1822
25 27 1215
26 27 587
28 27 2019
30 27 1727
31 27 1125
32 27 599
33 27 839
36 27 1197
37 27 1351
39 27 1166
40 27 803
46 27 519
53 27 962
55 27 925
56 27 569
57 27 675
59 27 885
61 27 547
63 27 1655
67 27 793
68 27 1397
69 27 707
71 27 1646
72 27 1959
73 27 1010
74 27 924
75 27 1080
77 27 204
79 27 2367
80 27 1276
82 27 1231
85 27 1124
86 27 486
87 27 1450
89 27 1470
91 27 692
92 27 609
96 27 893
97 27 1650
98 27 452
99 27 501
100 27 1549
103 27 1506
104 27 1326
106 27 1377
107 27 931
108 27 575
109 27 1793
110 27 1133
113 27 2236
114 27 615
116 27 966
118 27 1372
120 27 1073
124 27 975
125 27 1132
126 27 562
128 27 57
129 27 335
130 27 1448
131 27 1934
132 27 2000
139 27 262
141 27 800
145 27 655
146 27 1193
147 27 571
148 27 598
149 27 1002
152 27 1792
154 27 1292
156 27 676
158 27 1275
159 27 670
164 27 1857
165 27 1687
168 27 787
171 27 1142
172 27 578
173 27 1610
175 27 2160
179 27 707
180 27 407
181 27 1308
182 27 226
183 27 786
185 27 1137
187 27 342
189 27 1135
192 27 525
194 27 888
195 27 670
196 27 1265
197 27 587
201 27 567
203 27 3
205 27 723
211 27 730
214 27 683
216 27 1042
217 27 633
219 27 1214
220 27 1073
221 27 766
225 27 1119
228 27 1161
229 27 1418
231 27 673
234 27 689
235 27 2
236 27 1041
239 27 694
240 27 6
245 27 601
247 27 244
249 27 441
251 27 871
255 27 630
256 27 879
257 27 99
259 27 407
262 27 994
265 27 722
266 27 660
268 27 1456
273 27 460
274 27 1288
275 27 600
276 27 1183
278 27 381
279 27 5
281 27 862
282 27 389
284 27 1029
289 27 1070
291 27 479
293 27 575
294 27 1111
295 27 1454
296 27 993
297 27 8
298 27 1652
300 27 1326
301 27 671
302 27 1075
303 27 845
305 27 747
306 27 609
307 27 1643
308 27 3
309 27 951
310 27 1869
311 27 1626
312 27 1281
314 27 1135
315 27 708
316 27 1309
319 27 1149
320 27 1395
323 27 1246
325 27 1505
327 27 1485
331 27 638
332 27 1119
334 27 363
336 27 2375
337 27 670
340 27 1144
342 27 1097
343 27 240
344 27 1462
345 27 1163
346 27 988
348 27 596
349 27 1287
350 27 1355
352 27 414
353 27 947
356 27 239
357 27 1020
364 27 1720
366 27 854
369 27 1922
371 27 468
372 27 1031
375 27 1238
376 27 1458
377 27 1754
380 27 333
381 27 554
382 27 979
383 27 1524
384 27 649
385 27 574
386 27 1334
387 27 690
389 27 741
390 27 1358
393 27 1556
395 27 899
399 27 1360
401 27 1837
402 27 671
404 27 281
406 27 874
407 27 583
408 27 459
409 27 862
411 27 1397
412 27 846
413 27 1087
414 27 639
415 27 1029
417 27 1503
418 27 993
420 27 1290
421 27 1206
423 27 2362
425 27 1649
426 27 839
430 27 819
435 27 674
436 27 6
438 27 1881
439 27 956
441 27 1040
444 27 1385
445 27 735
447 27 853
453 27 1758
455 27 555
457 27 1088
458 27 362
460 27 1244
462 27 1588
466 27 1045
469 27 579
470 27 1204
471 27 1519
473 27 313
474 27 1064
476 27 1073
478 27 1710
479 27 178
480 27 1048
486 27 946
487 27 349
489 27 980
490 27 687
493 27 550
495 27 683
498 27 928
499 27 1307
500 27 658
1 28 4
2 28 8
3 28 4
4 28 558
5 28 464
6 28 431
7 28 3
9 28 1716
10 28 23
11 28 28
12 28 776
13 28 1733
14 28 28
16 28 616
17 28 1770
18 28 207
19 28 874
20 28 801
21 28 5
22 28 1
23 28 999
24 28 1304
25 28 5
26 28 30
27 28 366
28 28 5
29 28 471
30 28 25
33 28 104
34 28 1143
35 28 1411
36 28 22
37 28 54
38 28 1169
41 28 1325
42 28 1113
43 28 1477
44 28 2030
45 28 1074
47 28 388
48 28 458
49 28 525
50 28 557
51 28 550
52 28 759
53 28 225
54 28 1241
55 28 6
56 28 372
57 28 6
58 28 1823
59 28 117
60 28 1075
61 28 115
62 28 2065
63 28 253
64 28 1156
65 28 457
66 28 986
69 28 2
70 28 797
71 28 5
72 28 7
73 28 48
74 28 22
76 28 1019
77 28 1040
78 28 622
80 28 196
81 28 1546
82 28 1
83 28 688
84 28 644
85 28 56
86 28 30
88 28 1198
89 28 6
90 28 1124
91 28 17
92 28 23
93 28 956
94 28 1478
95 28 407
97 28 65
98 28 2
99 28 25
100 28 2
101 28 1610
102 28 662
104 28 6
105 28 332
106 28 8
107 28 4
108 28 6
109 28 2
111 28 693
112 28 776
114 28 33
115 28 2367
117 28 823
118 28 31
119 28 841
120 28 3
121 28 740
122 28 1253
123 28 862
124 28 569
125 28 8
127 28 1514
128 28 1874
129 28 401
131 28 153
132 28 3
133 28 308
134 28 831
135 28 470
136 28 1145
137 28 981
138 28 1120
140 28 775
142 28 328
143 28 1207
144 28 1185
145 28 5
146 28 26
147 28 5
148 28 586
149 28 4
150 28 1536
151 28 605
152 28 5
153 28 280
154 28 160
155 28 574
156 28 57
157 28 806
158 28 126
160 28 896
161 28 790
162 28 774
163 28 1005
164 28 1
165 28 74
166 28 1206
167 28 1686
168 28 8
169 28 442
170 28 1033
172 28 59
174 28 272
175 28 31
176 28 1176
177 28 699
178 28 1396
179 28 6
180 28 97
181 28 5
182 28 30
183 28 120
184 28 953
185 28 99
186 28 1265
187 28 121
188 28 1031
189 28 6
190 28 684
191 28 280
192 28 6
193 28 1721
195 28 5
196 28 20
197 28 22
198 28 1021
199 28 803
200 28 768
201 28 40
202 28 1294
203 28 1082
204 28 1811
205 28 4
206 28 307
207 28 292
208 28 1422
209 28 298
210 28 1206
211 28 11
212 28 523
213 28 1058
214 28 8
215 28 1021
216 28 23
217 28 3
218 28 687
220 28 57
221 28 10
222 28 478
223 28 1126
224 28 1245
226 28 1098
227 28 461
228 28 8
230 28 563
231 28 6
232 28 1442
233 28 840
234 28 24
235 28 326
236 28 31
237 28 489
238 28 953
239 28 6
240 28 1357
241 28 483
242 28 1246
243 28 1041
244 28 581
245 28 2
246 28 500
247 28 845
248 28 786
249 28 1149
250 28 1210
251 28 3
252 28 523
253 28 1217
254 28 1138
255 28 82
257 28 1823
258 28 1716
259 28 60
260 28 1078
261 28 1132
262 28 150
263 28 415
264 28 806
265 28 3
266 28 69
267 28 669
269 28 858
270 28 1019
271 28 1245
272 28 1416
273 28 3
274 28 230
276 28 3
277 28 795
278 28 24
279 28 454
280 28 1181
282 28 613
283 28 1343
284 28 4
285 28 1337
286 28 1216
287 28 508
288 28 2289
289 28 21
290 28 1626
291 28 18
292 28 1379
293 28 364
294 28 3
295 28 150
296 28 58
297 28 446
299 28 797
300 28 8
301 28 123
303 28 23
304 28 344
305 28 158
306 28 65
308 28 729
310 28 125
311 28 23
313 28 552
314 28 50
315 28 677
316 28 21
317 28 800
318 28 494
319 28 46
320 28 44
321 28 601
322 28 1689
323 28 160
324 28 452
325 28 5
326 28 712
327 28 26
328 28 588
329 28 365
330 28 1142
333 28 833
334 28 34
335 28 122
338 28 1896
339 28 1186
340 28 34
341 28 435
342 28 73
344 28 5
345 28 7
346 28 28
347 28 1249
348 28 59
349 28 5
350 28 4
351 28 1665
353 28 101
354 28 473
355 28 746
356 28 763
357 28 22
358 28 1073
359 28 288
360 28 1111
361 28 718
362 28 833
363 28 915
364 28 59
365 28 809
366 28 2
367 28 440
368 28 1217
369 28 66
370 28 821
371 28 6
373 28 522
374 28 942
375 28 58
376 28 7
378 28 899
379 28 440
381 28 65
382 28 4
386 28 82
387 28 7
388 28 1240
389 28 74
390 28 22
391 28 1475
392 28 1759
393 28 8
394 28 852
395 28 20
396 28 1617
397 28 1513
398 28 793
399 28 118
400 28 559
401 28 68
403 28 288
404 28 3
405 28 1292
406 28 1
407 28 4
408 28 24
409 28 67
410 28 552
411 28 107
412 28 27
413 28 1
414 28 6
416 28 1279
418 28 175
419 28 418
420 28 4
421 28 27
422 28 1280
424 28 691
426 28 2
427 28 1063
428 28 2144
429 28 2179
430 28 28
431 28 1474
432 28 1094
433 28 1890
434 28 409
435 28 5
436 28 661
437 28 726
438 28 5
439 28 117
440 28 1405
441 28 54
442 28 1609
443 28 1165
444 28 22
445 28 4
446 28 1053
447 28 159
448 28 981
449 28 1193
450 28 1764
451 28 1429
452 28 1161
453 28 117
454 28 1240
456 28 785
457 28 45
458 28 125
459 28 999
460 28 12
461 28 479
462 28 110
463 28 924
464 28 779
465 28 1132
466 28 3
467 28 891
468 28 1225
469 28 116
472 28 1367
473 28 7
475 28 920
476 28 23
477 28 731
478 28 5
479 28 1826
480 28 55
481 28 1229
482 28 999
483 28 1252
484 28 653
485 28 996
487 28 665
488 28 405
489 28 5
490 28 9
491 28 926
492 28 1511
493 28 369
494 28 628
495 28 91
496 28 1251
497 28 821
498 28 312
499 28 2
1 29 460
2 29 898
3 29 376
7 29 1176
8 29 790
10 29 901
11 29 953
12 29 218
14 29 502
15 29 662
17 29 72
18 29 420
20 29 117
21 29 997
22 29 1886
23 29 14
25 29 1363
26 29 411
28 29 764
30 29 784
31 29 936
32 29 960
33 29 611
34 29 20
36 29 398
37 29 505
38 29 3
39 29 760
40 29 818
42 29 6
43 29 3
45 29 1
46 29 892
47 29 58
50 29 34
51 29 6
53 29 389
55 29 917
56 29 539
57 29 872
58 29 27
59 29 334
61 29 852
63 29 980
64 29 9
66 29 26
67 29 1420
68 29 1541
69 29 528
70 29 32
71 29 417
72 29 1489
73 29 1647
74 29 267
75 29 445
77 29 815
79 29 357
80 29 665
81 29 54
82 29 372
85 29 520
86 29 1711
87 29 611
88 29 20
89 29 999
91 29 1316
92 29 800
93 29 3
94 29 2
96 29 669
97 29 350
98 29 833
99 29 962
100 29 522
103 29 1073
104 29 841
106 29 1194
107 29 2103
108 29 278
109 29 1507
110 29 649
113 29 1071
114 29 627
116 29 1550
118 29 392
120 29 412
124 29 334
125 29 592
126 29 1005
127 29 33
128 29 85
129 29 419
130 29 601
131 29 575
132 29 753
133 29 18
134 29 10
136 29 8
137 29 8
139 29 467
141 29 348
143 29 9
145 29 788
146 29 383
147 29 392
148 29 219
149 29 805
150 29 11
152 29 879
153 29 17
154 29 721
156 29 832
157 29 4
158 29 1594
159 29 812
161 29 37
164 29 897
165 29 1100
166 29 34
168 29 1608
170 29 3
171 29 1148
172 29 1479
173 29 1017
175 29 1213
177 29 20
178 29 25
179 29 695
180 29 793
181 29 1727
182 29 986
183 29 432
184 29 30
185 29 609
187 29 1018
189 29 564
190 29 39
192 29 757
193 29 86
194 29 689
195 29 1316
196 29 909
197 29 2404
199 29 3
200 29 69
201 29 1492
203 29 85
204 29 20
205 29 559
206 29 10
208 29 27
209 29 8
211 29 908
212 29 27
213 29 25
214 29 1098
216 29 483
217 29 766
219 29 345
220 29 1053
221 29 644
225 29 400
226 29 8
228 29 701
229 29 350
230 29 117
231 29 1136
232 29 7
234 29 1324
235 29 80
236 29 702
237 29 9
238 29 3
239 29 831
240 29 26
243 29 8
244 29 6
245 29 419
247 29 376
249 29 307
251 29 1208
253 29 9
254 29 27
255 29 1346
256 29 776
257 29 218
258 29 99
259 29 579
262 29 859
264 29 59
265 29 1205
266 29 861
267 29 4
268 29 593
272 29 112
273 29 837
274 29 1910
275 29 1039
276 29 665
278 29 431
279 29 25
280 29 30
281 29 1728
282 29 175
283 29 56
284 29 518
285 29 7
286 29 9
289 29 532
291 29 519
293 29 681
294 29 412
295 29 440
296 29 2060
297 29 36
298 29 1523
299 29 17
300 29 1070
301 29 764
302 29 425
303 29 796
305 29 786
306 29 568
307 29 777
308 29 294
309 29 665
310 29 1710
311 29 279
312 29 475
314 29 1123
315 29 383
316 29 847
318 29 31
319 29 581
320 29 579
322 29 6
323 29 703
325 29 930
326 29 43
327 29 487
328 29 31
330 29 6
331 29 745
332 29 433
334 29 2728
336 29 722
337 29 450
340 29 774
342 29 387
343 29 492
344 29 515
345 29 1435
346 29 814
347 29 37
348 29 752
349 29 975
350 29 637
351 29 26
352 29 529
353 29 720
355 29 8
356 29 188
357 29 806
359 29 6
360 29 9
361 29 165
362 29 11
364 29 414
366 29 832
369 29 333
370 29 42
371 29 510
372 29 955
374 29 27
375 29 1461
376 29 1216
377 29 1038
378 29 6
380 29 508
381 29 2244
382 29 432
383 29 707
384 29 856
385 29 912
386 29 2161
387 29 646
389 29 1092
390 29 516
391 29 28
393 29 630
395 29 1052
396 29 6
397 29 148
399 29 327
400 29 7
401 29 1016
402 29 1013
403 29 4
404 29 781
406 29 1221
407 29 1071
408 29 1749
409 29 406
410 29 5
411 29 1089
412 29 594
413 29 1720
414 29 660
415 29 632
417 29 1141
418 29 1107
419 29 6
420 29 1320
421 29 742
422 29 82
423 29 701
425 29 1598
426 29 944
428 29 87
429 29 7
430 29 939
431 29 5
433 29 27
434 29 72
435 29 960
436 29 4
438 29 822
439 29 894
440 29 4
441 29 835
442 29 2
444 29 216
445 29 907
446 29 5
447 29 501
451 29 20
453 29 234
454 29 8
455 29 846
456 29 2
457 29 724
458 29 1387
460 29 678
462 29 1455
465 29 18
466 29 417
467 29 21
469 29 1099
470 29 772
471 29 959
472 29 7
473 29 540
474 29 653
475 29 10
476 29 664
478 29 660
479 29 172
480 29 1633
481 29 5
482 29 9
486 29 785
487 29 504
489 29 625
490 29 301
491 29 29
492 29 3
493 29 671
495 29 743
497 29 7
498 29 229
499 29 739
500 29 641
4 30 1602
5 30 482
6 30 1250
9 30 605
11 30 6
12 30 593
13 30 1853
16 30 764
17 30 1579
19 30 785
20 30 2433
23 30 523
24 30 615
27 30 663
28 30 2
29 30 1470
32 30 8
33 30 4
34 30 1750
35 30 1995
36 30 13
37 30 20
38 30 733
41 30 633
42 30 562
43 30 580
44 30 1201
45 30 1065
47 30 1763
48 30 1207
49 30 1874
50 30 698
51 30 990
52 30 666
54 30 989
56 30 25
58 30 1452
60 30 842
62 30 807
63 30 132
64 30 1626
65 30 504
66 30 643
70 30 1641
72 30 10
74 30 10
76 30 1137
77 30 357
78 30 1419
80 30 5
81 30 1179
83 30 777
84 30 636
85 30 8
88 30 962
89 30 3
90 30 1011
91 30 4
93 30 1664
94 30 665
95 30 1210
101 30 722
102 30 710
103 30 6
105 30 648
109 30 5
111 30 1115
112 30 1160
115 30 239
116 30 1
117 30 907
119 30 1046
121 30 1301
122 30 1588
123 30 1837
124 30 54
127 30 1393
128 30 944
129 30 174
131 30 68
132 30 4
133 30 585
134 30 942
135 30 1489
136 30 1588
137 30 1073
138 30 941
140 30 585
142 30 664
143 30 682
144 30 929
146 30 7
148 30 73
150 30 697
151 30 257
153 30 635
154 30 6
155 30 1007
157 30 1568
159 30 9
160 30 1297
161 30 1429
162 30 585
163 30 637
166 30 909
167 30 865
169 30 1188
170 30 1302
174 30 1132
176 30 808
177 30 1563
178 30 780
180 30 6
183 30 5
184 30 630
185 30 4
186 30 1346
187 30 5
188 30 883
190 30 740
191 30 988
193 30 1237
198 30 1202
199 30 1087
200 30 650
202 30 1129
203 30 898
204 30 1111
206 30 624
207 30 881
208 30 1774
209 30 658
210 30 845
212 30 343
213 30 1012
215 30 1109
217 30 4
218 30 863
222 30 688
223 30 1215
224 30 560
226 30 804
227 30 1194
230 30 1360
232 30 1261
233 30 1322
235 30 371
237 30 432
238 30 1817
240 30 862
241 30 1569
242 30 958
243 30 564
244 30 1053
246 30 1103
247 30 374
248 30 1009
249 30 257
250 30 1907
252 30 1048
253 30 2049
254 30 1264
257 30 1557
258 30 901
260 30 795
261 30 1420
263 30 1057
264 30 1246
267 30 1343
269 30 758
270 30 1565
271 30 807
272 30 1000
274 30 28
275 30 5
277 30 857
279 30 697
280 30 905
282 30 80
283 30 1185
285 30 971
286 30 758
287 30 1283
288 30 251
290 30 1082
292 30 653
293 30 2
295 30 6
297 30 743
299 30 1238
301 30 5
304 30 830
308 30 687
310 30 3
313 30 1136
315 30 175
317 30 502
318 30 972
320 30 23
321 30 672
322 30 688
323 30 6
324 30 1065
326 30 701
328 30 686
329 30 1210
330 30 651
333 30 872
335 30 1568
338 30 1282
339 30 907
341 30 1182
342 30 4
347 30 1028
349 30 10
351 30 1605
354 30 1068
355 30 1058
356 30 324
358 30 717
359 30 539
360 30 1800
361 30 1077
362 30 1023
363 30 622
365 30 613
367 30 1107
368 30 1888
370 30 208
373 30 587
374 30 1119
378 30 1086
379 30 1195
382 30 7
385 30 4
388 30 910
390 30 4
391 30 1991
392 30 1059
393 30 5
394 30 380
396 30 646
397 30 619
398 30 1448
399 30 6
400 30 823
401 30 5
402 30 3
403 30 645
405 30 1243
410 30 770
411 30 7
412 30 8
414 30 2
416 30 1185
418 30 43
419 30 1499
422 30 1860
424 30 550
426 30 4
427 30 1127
428 30 1218
429 30 1171
431 30 1285
432 30 1239
433 30 1118
434 30 738
436 30 1416
437 30 1344
440 30 1467
442 30 686
443 30 1236
446 30 1322
448 30 837
449 30 1094
450 30 610
451 30 1366
452 30 2178
454 30 617
456 30 1639
459 30 1420
461 30 743
462 30 7
463 30 1357
464 30 661
465 30 1918
467 30 888
468 30 1321
472 30 1234
474 30 22
475 30 1090
477 30 1282
478 30 1
479 30 555
481 30 938
482 30 1651
483 30 928
484 30 598
485 30 650
487 30 157
488 30 1004
490 30 7
491 30 999
492 30 1714
493 30 4
494 30 685
496 30 530
497 30 961
498 30 190
500 30 6
1 31 1358
2 31 6
3 31 1231
4 31 4
5 31 244
6 31 145
7 31 1584
8 31 1314
9 31 411
11 31 625
12 31 416
14 31 2069
16 31 488
17 31 61
19 31 241
20 31 718
21 31 1048
22 31 4
23 31 136
24 31 324
25 31 3
26 31 1497
27 31 325
29 31 331
32 31 517
33 31 1287
35 31 4
36 31 6
38 31 86
39 31 5
40 31 5
41 31 320
42 31 186
43 31 544
44 31 226
45 31 477
46 31 9
48 31 159
49 31 3
50 31 183
51 31 340
52 31 247
54 31 193
55 31 1441
59 31 8
60 31 493
61 31 30
63 31 577
64 31 176
65 31 252
66 31 120
68 31 966
70 31 157
71 31 114
73 31 1383
74 31 202
76 31 359
78 31 255
79 31 3
82 31 5
83 31 28
84 31 240
85 31 2096
86 31 1119
88 31 284
90 31 336
91 31 859
92 31 4
93 31 346
95 31 147
96 31 8
98 31 1942
99 31 979
102 31 605
104 31 4
105 31 309
106 31 3
107 31 2
108 31 92
109 31 1622
110 31 348
111 31 894
112 31 254
114 31 4
115 31 647
117 31 221
118 31 2578
119 31 404
120 31 1283
121 31 174
122 31 146
124 31 263
125 31 1436
127 31 137
128 31 8
129 31 304
133 31 257
134 31 409
135 31 4
136 31 169
137 31 197
138 31 351
139 31 1870
140 31 125
141 31 1180
142 31 329
143 31 71
144 31 701
146 31 4
147 31 695
148 31 1045
149 31 19
151 31 186
153 31 285
154 31 768
155 31 461
157 31 472
159 31 1490
160 31 308
161 31 161
162 31 123
163 31 194
166 31 5
167 31 429
168 31 2031
169 31 163
170 31 212
171 31 6
172 31 481
173 31 8
174 31 251
175 31 63
176 31 399
178 31 663
182 31 1212
184 31 138
185 31 792
186 31 230
187 31 85
188 31 514
190 31 259
191 31 386
192 31 774
193 31 55
195 31 4
198 31 95
199 31 210
200 31 253
201 31 447
202 31 115
203 31 206
204 31 493
206 31 86
207 31 134
208 31 98
209 31 79
210 31 409
211 31 1115
212 31 158
213 31 605
214 31 846
215 31 479
217 31 114
218 31 167
220 31 4
221 31 8
222 31 296
223 31 127
224 31 189
226 31 223
227 31 142
228 31 672
229 31 1776
230 31 412
232 31 347
234 31 1241
235 31 734
237 31 161
238 31 136
239 31 1270
240 31 522
241 31 7
242 31 689
243 31 586
244 31 298
245 31 527
246 31 361
248 31 173
250 31 313
251 31 68
252 31 76
254 31 33
257 31 572
258 31 7
259 31 298
260 31 287
261 31 313
263 31 328
265 31 4
267 31 144
269 31 75
270 31 275
273 31 888
274 31 1487
276 31 718
277 31 221
278 31 543
279 31 286
280 31 281
282 31 185
283 31 510
284 31 1022
285 31 791
286 31 395
287 31 212
288 31 658
292 31 270
294 31 201
295 31 23
296 31 256
297 31 127
299 31 510
300 31 5
301 31 1178
303 31 2451
304 31 140
306 31 7
308 31 585
311 31 6
312 31 4
313 31 103
314 31 2375
316 31 6
318 31 125
319 31 22
321 31 460
322 31 116
323 31 813
324 31 309
325 31 1380
326 31 262
328 31 162
329 31 436
330 31 264
333 31 214
334 31 1524
335 31 303
337 31 1318
338 31 251
339 31 469
340 31 908
341 31 172
342 31 1706
343 31 1879
344 31 21
345 31 1874
346 31 453
347 31 493
350 31 719
351 31 96
352 31 400
353 31 3
354 31 305
355 31 216
356 31 356
358 31 303
359 31 79
360 31 7
362 31 196
363 31 190
365 31 102
366 31 1997
367 31 325
368 31 394
369 31 21
370 31 342
372 31 7
373 31 387
375 31 6
377 31 1577
378 31 258
379 31 159
382 31 717
383 31 7
385 31 28
387 31 28
388 31 224
389 31 3
390 31 5
391 31 119
392 31 266
394 31 84
396 31 140
398 31 159
399 31 342
400 31 330
401 31 6
403 31 103
404 31 2101
405 31 428
407 31 2172
408 31 1155
411 31 1497
412 31 805
413 31 24
414 31 1164
416 31 520
417 31 90
419 31 284
420 31 4
421 31 271
424 31 146
425 31 1885
427 31 178
428 31 435
429 31 111
432 31 317
433 31 225
436 31 499
437 31 336
438 31 3
440 31 165
442 31 126
443 31 199
444 31 6
445 31 1228
446 31 557
447 31 9
449 31 513
450 31 321
451 31 134
452 31 9
453 31 843
454 31 349
456 31 480
457 31 1681
458 31 836
459 31 185
461 31 235
462 31 10
464 31 155
465 31 178
466 31 720
467 31 369
468 31 230
472 31 326
473 31 489
475 31 845
477 31 315
479 31 311
480 31 1284
482 31 432
483 31 236
484 31 515
485 31 257
490 31 6
491 31 8
494 31 242
495 31 1624
497 31 196
499 31 6
3 32 7
4 32 480
5 32 421
6 32 377
7 32 4
9 32 765
11 32 5
12 32 352
13 32 1140
16 32 504
17 32 859
18 32 23
19 32 554
20 32 362
23 32 506
24 32 969
27 32 590
29 32 373
30 32 3
34 32 1048
35 32 457
37 32 1
38 32 746
41 32 935
42 32 716
43 32 873
44 32 844
45 32 834
47 32 920
48 32 334
49 32 1173
50 32 532
51 32 1087
52 32 352
53 32 25
54 32 775
56 32 164
58 32 1215
59 32 24
60 32 808
62 32 1478
63 32 162
64 32 1115
65 32 407
66 32 1296
70 32 962
75 32 8
76 32 871
77 32 1171
78 32 1372
80 32 37
81 32 1385
83 32 1327
84 32 569
85 32 4
88 32 122
90 32 1432
93 32 1183
94 32 381
95 32 328
101 32 432
102 32 208
105 32 527
111 32 539
112 32 970
115 32 1021
117 32 167
119 32 312
121 32 779
122 32 697
123 32 927
124 32 191
127 32 231
128 32 712
129 32 699
131 32 97
133 32 362
134 32 845
135 32 592
136 32 832
137 32 1064
138 32 659
140 32 633
142 32 548
143 32 658
144 32 574
148 32 296
150 32 999
151 32 960
153 32 346
154 32 3
155 32 1118
157 32 213
160 32 368
161 32 914
162 32 596
163 32 356
166 32 718
167 32 435
169 32 325
170 32 666
174 32 765
176 32 1048
177 32 672
178 32 292
184 32 1334
185 32 5
186 32 312
187 32 1
188 32 522
190 32 632
191 32 506
193 32 434
198 32 664
199 32 1138
200 32 1476
202 32 734
203 32 887
204 32 572
206 32 438
207 32 564
208 32 908
209 32 422
210 32 639
212 32 409
213 32 627
215 32 878
218 32 1470
222 32 360
223 32 1113
224 32 415
226 32 680
227 32 327
230 32 1778
232 32 901
233 32 616
235 32 1212
237 32 604
238 32 642
240 32 782
241 32 623
242 32 871
243 32 1238
244 32 865
246 32 1031
247 32 690
248 32 430
249 32 1008
250 32 1026
252 32 366
253 32 1968
254 32 611
257 32 1156
258 32 1001
260 32 2062
261 32 1873
263 32 1054
264 32 1010
267 32 466
269 32 1243
270 32 1098
271 32 1059
272 32 1356
277 32 188
279 32 931
280 32 147
282 32 325
283 32 850
285 32 1648
286 32 471
287 32 397
288 32 1149
290 32 738
292 32 686
293 32 224
297 32 645
299 32 1336
304 32 574
308 32 1852
311 32 1
313 32 398
315 32 75
317 32 1124
318 32 803
320 32 3
321 32 610
322 32 451
323 32 4
324 32 1042
326 32 636
328 32 549
329 32 835
330 32 644
333 32 191
335 32 512
338 32 567
339 32 861
341 32 395
342 32 1
347 32 477
348 32 23
351 32 352
354 32 1025
355 32 1189
356 32 1449
358 32 552
359 32 442
360 32 1261
361 32 1018
362 32 275
363 32 862
365 32 637
367 32 1129
368 32 345
370 32 707
373 32 993
374 32 1056
378 32 1172
379 32 315
383 32 8
388 32 706
391 32 695
392 32 850
394 32 356
396 32 419
397 32 1040
398 32 234
400 32 1603
403 32 402
405 32 650
410 32 604
412 32 8
416 32 1161
419 32 301
422 32 403
424 32 252
427 32 823
428 32 654
429 32 167
430 32 10
431 32 986
432 32 302
433 32 672
434 32 660
436 32 770
437 32 546
440 32 801
442 32 390
443 32 1715
446 32 996
448 32 891
449 32 1089
450 32 946
451 32 231
452 32 940
454 32 995
456 32 195
457 32 2
459 32 689
461 32 324
463 32 857
464 32 459
465 32 1045
467 32 397
468 32 1879
472 32 928
475 32 798
477 32 678
479 32 1407
481 32 445
482 32 476
483 32 737
484 32 810
485 32 480
487 32 1058
488 32 1066
491 32 617
492 32 1316
493 32 180
494 32 686
496 32 345
497 32 340
498 32 544
1 33 1329
2 33 837
3 33 1401
4 33 7
6 33 7
7 33 403
8 33 1207
10 33 573
11 33 514
12 33 142
14 33 984
15 33 1692
17 33 74
18 33 529
19 33 7
20 33 50
21 33 497
22 33 2889
23 33 6
24 33 8
25 33 616
26 33 985
28 33 1837
29 33 7
30 33 1210
31 33 733
32 33 1029
33 33 1408
34 33 7
36 33 968
37 33 891
38 33 9
39 33 1708
40 33 985
41 33 7
43 33 6
44 33 11
45 33 8
46 33 1324
48 33 4
49 33 4
50 33 5
53 33 517
55 33 1433
56 33 924
57 33 1151
58 33 69
59 33 1718
61 33 1447
63 33 909
64 33 26
66 33 38
67 33 1890
68 33 292
69 33 1445
71 33 1147
72 33 903
73 33 1043
74 33 665
75 33 897
77 33 360
78 33 29
79 33 1263
80 33 1848
81 33 25
82 33 1584
84 33 2
85 33 978
86 33 1283
87 33 2320
88 33 29
89 33 844
91 33 1863
92 33 549
95 33 7
96 33 1153
97 33 2178
98 33 389
99 33 1344
100 33 622
101 33 3
102 33 5
103 33 1445
104 33 1588
106 33 1865
107 33 824
108 33 560
109 33 1377
110 33 874
113 33 2011
114 33 791
116 33 861
118 33 1493
120 33 1912
124 33 894
125 33 1263
126 33 1315
127 33 46
128 33 139
129 33 618
130 33 1417
131 33 1059
132 33 1961
134 33 33
138 33 9
139 33 1366
141 33 888
143 33 6
145 33 1089
146 33 1067
147 33 1743
148 33 343
149 33 1785
150 33 58
152 33 691
154 33 399
156 33 1494
158 33 1115
159 33 773
161 33 21
164 33 715
165 33 1592
167 33 49
168 33 1006
169 33 2
170 33 28
171 33 1002
172 33 1574
173 33 1054
175 33 921
177 33 76
178 33 29
179 33 1020
180 33 970
181 33 454
182 33 796
183 33 1520
184 33 49
185 33 414
187 33 1784
189 33 704
190 33 60
191 33 8
192 33 506
194 33 2021
195 33 1890
196 33 906
197 33 435
200 33 178
201 33 1592
203 33 98
205 33 1963
206 33 8
207 33 9
208 33 53
209 33 8
211 33 1242
212 33 3
214 33 1144
215 33 6
216 33 523
217 33 695
219 33 505
220 33 2387
221 33 1444
225 33 1641
227 33 6
228 33 768
229 33 860
230 33 56
231 33 936
234 33 1258
235 33 167
236 33 2061
237 33 3
239 33 2403
240 33 20
244 33 6
245 33 769
246 33 28
247 33 706
248 33 11
249 33 327
251 33 2099
254 33 51
255 33 1061
256 33 2072
257 33 157
258 33 62
259 33 1028
262 33 1121
264 33 206
265 33 1262
266 33 1468
268 33 2345
272 33 61
273 33 675
274 33 1496
275 33 1373
276 33 817
278 33 1255
279 33 79
280 33 27
281 33 1077
282 33 297
283 33 92
284 33 353
285 33 33
289 33 489
290 33 23
291 33 829
293 33 548
294 33 407
295 33 1660
296 33 805
297 33 29
298 33 2210
299 33 21
300 33 1253
301 33 519
302 33 999
303 33 538
304 33 4
305 33 1180
306 33 1187
307 33 1291
308 33 106
309 33 391
310 33 964
311 33 1155
312 33 800
314 33 1791
315 33 299
316 33 441
317 33 157
318 33 42
319 33 947
320 33 987
321 33 4
323 33 402
325 33 2323
326 33 69
327 33 510
328 33 4
329 33 5
331 33 1611
332 33 1009
334 33 1160
336 33 644
337 33 827
338 33 6
339 33 41
340 33 1401
341 33 6
342 33 720
343 33 1344
344 33 1281
345 33 1068
346 33 1271
347 33 8
348 33 581
349 33 585
350 33 799
351 33 76
352 33 1438
353 33 585
356 33 702
357 33 848
359 33 6
361 33 261
364 33 2225
366 33 1352
369 33 1568
370 33 22
371 33 1773
372 33 528
375 33 815
376 33 1454
377 33 1923
379 33 3
380 33 1376
381 33 1376
382 33 1106
383 33 688
384 33 303
385 33 1372
386 33 767
387 33 778
389 33 698
390 33 720
391 33 105
393 33 993
395 33 2077
397 33 268
399 33 815
401 33 667
402 33 1369
403 33 6
404 33 976
406 33 897
407 33 1006
408 33 1173
409 33 997
411 33 578
412 33 700
413 33 1984
414 33 799
415 33 1928
417 33 1160
418 33 1035
420 33 601
421 33 1188
422 33 24
423 33 683
425 33 1177
426 33 1287
428 33 97
429 33 2
430 33 1051
434 33 29
435 33 583
438 33 1332
439 33 1107
440 33 33
441 33 1423
443 33 9
444 33 850
445 33 1046
447 33 749
451 33 42
453 33 1119
455 33 656
457 33 1151
458 33 731
460 33 879
461 33 9
462 33 1094
465 33 52
466 33 637
467 33 25
469 33 1165
470 33 1141
471 33 1851
473 33 1516
474 33 280
475 33 19
476 33 1249
478 33 637
479 33 434
480 33 1033
482 33 4
486 33 447
487 33 424
488 33 29
489 33 1229
490 33 2756
491 33 7
492 33 5
493 33 525
495 33 1055
498 33 540
499 33 700
500 33 1152
1 34 418
2 34 126
3 34 425
4 34 663
5 34 863
6 34 752
7 34 293
8 34 247
9 34 565
11 34 195
12 34 525
13 34 1889
14 34 1020
15 34 71
16 34 1081
17 34 935
18 34 188
19 34 821
20 34 940
21 34 658
22 34 89
23 34 954
24 34 1140
25 34 133
26 34 192
27 34 377
28 34 153
29 34 1144
30 34 62
31 34 2
32 34 414
33 34 205
34 34 1160
35 34 1267
36 34 357
37 34 635
38 34 556
39 34 7
40 34 115
41 34 1092
42 34 315
43 34 734
44 34 1233
45 34 1026
46 34 3
47 34 429
48 34 714
49 34 2010
50 34 561
51 34 1308
52 34 671
53 34 199
54 34 487
55 34 283
56 34 54
57 34 25
58 34 1624
59 34 3
60 34 1217
61 34 56
62 34 1525
63 34 574
64 34 374
65 34 878
66 34 1282
67 34 362
68 34 164
69 34 70
70 34 1376
71 34 325
72 34 189
73 34 292
74 34 122
75 34 344
76 34 364
77 34 534
78 34 596
79 34 197
80 34 105
81 34 308
82 34 190
83 34 703
84 34 451
85 34 312
86 34 1536
87 34 20
88 34 1547
89 34 180
90 34 1717
91 34 24
92 34 4
93 34 507
94 34 2387
95 34 693
96 34 113
97 34 172
98 34 698
99 34 914
100 34 3
101 34 2048
102 34 514
103 34 63
104 34 72
105 34 385
107 34 103
108 34 152
109 34 278
110 34 228
111 34 695
112 34 336
113 34 149
115 34 1271
116 34 205
117 34 926
118 34 200
119 34 1141
120 34 681
121 34 428
122 34 941
123 34 531
124 34 1209
125 34 856
126 34 72
127 34 680
128 34 805
129 34 621
130 34 149
131 34 177
132 34 124
133 34 727
134 34 1099
135 34 1961
136 34 1496
137 34 985
138 34 1300
139 34 49
140 34 510
141 34 579
142 34 375
143 34 622
144 34 1379
145 34 24
146 34 128
147 34 378
148 34 1128
149 34 222
150 34 1198
151 34 495
152 34 355
153 34 830
154 34 326
155 34 717
156 34 58
157 34 910
158 34 208
159 34 611
160 34 587
161 34 1190
162 34 517
163 34 349
164 34 349
165 34 95
166 34 1590
167 34 1004
168 34 193
169 34 754
170 34 1003
172 34 112
173 34 6
174 34 990
175 34 72
176 34 1044
177 34 1356
178 34 2420
179 34 4
180 34 139
181 34 65
182 34 480
183 34 60
184 34 1334
185 34 1514
186 34 516
187 34 208
188 34 1241
189 34 346
190 34 708
191 34 759
192 34 90
193 34 487
194 34 116
195 34 169
196 34 7
197 34 353
198 34 217
199 34 770
200 34 1466
201 34 121
202 34 1122
203 34 2158
204 34 298
206 34 556
207 34 1202
208 34 552
209 34 526
210 34 618
211 34 253
212 34 566
213 34 1027
214 34 27
215 34 577
216 34 62
217 34 35
218 34 1255
219 34 232
220 34 179
222 34 566
223 34 1422
224 34 1060
225 34 215
226 34 937
227 34 730
228 34 852
229 34 251
230 34 1460
231 34 228
232 34 920
233 34 768
234 34 192
235 34 1946
236 34 3
237 34 900
238 34 1733
239 34 779
240 34 1157
241 34 1848
242 34 1526
243 34 1348
244 34 1114
245 34 115
246 34 1358
247 34 614
248 34 888
249 34 389
250 34 780
251 34 197
252 34 522
253 34 1381
254 34 860
255 34 385
256 34 141
257 34 1816
258 34 1212
259 34 210
260 34 1242
261 34 909
262 34 7
263 34 210
264 34 732
265 34 228
266 34 52
267 34 1328
268 34 23
269 34 1738
270 34 770
271 34 1875
272 34 1135
273 34 211
274 34 1500
275 34 247
276 34 863
277 34 898
278 34 144
279 34 622
280 34 1620
281 34 103
282 34 540
283 34 1601
284 34 226
285 34 487
286 34 1304
287 34 947
288 34 1365
289 34 47
290 34 920
291 34 138
292 34 754
293 34 183
294 34 161
295 34 691
296 34 77
297 34 116
299 34 1374
300 34 67
301 34 455
302 34 85
303 34 755
304 34 1194
305 34 721
306 34 390
307 34 156
308 34 566
309 34 133
310 34 384
311 34 198
313 34 524
314 34 277
315 34 434
316 34 134
317 34 537
318 34 1008
319 34 197
320 34 382
321 34 982
322 34 729
323 34 275
324 34 221
325 34 24
326 34 701
328 34 611
329 34 1231
330 34 1010
331 34 7
332 34 58
333 34 939
334 34 197
335 34 842
336 34 58
337 34 507
338 34 1064
339 34 339
340 34 315
341 34 756
342 34 316
343 34 53
344 34 297
345 34 112
346 34 141
347 34 2408
348 34 184
349 34 30
350 34 47
351 34 990
352 34 82
353 34 64
354 34 229
355 34 797
356 34 1147
357 34 221
358 34 766
359 34 514
360 34 1252
361 34 777
362 34 815
363 34 636
364 34 166
365 34 498
366 34 193
367 34 211
368 34 275
369 34 151
370 34 547
371 34 279
372 34 58
373 34 636
374 34 1118
375 34 87
376 34 71
377 34 173
378 34 846
379 34 735
380 34 206
381 34 244
382 34 748
383 34 64
385 34 134
386 34 274
387 34 104
388 34 503
389 34 191
390 34 274
391 34 2021
392 34 812
393 34 113
394 34 458
395 34 6
396 34 700
397 34 625
398 34 823
399 34 439
400 34 1938
401 34 50
402 34 254
403 34 514
404 34 292
405 34 1040
406 34 6
407 34 206
408 34 1482
409 34 129
410 34 1151
411 34 1783
412 34 1405
413 34 9
414 34 238
415 34 25
416 34 685
417 34 22
418 34 294
419 34 1316
420 34 145
421 34 123
422 34 2678
423 34 57
424 34 583
425 34 257
426 34 32
427 34 2351
428 34 1177
429 34 1594
430 34 374
431 34 1163
432 34 1373
433 34 1366
434 34 1819
435 34 19
436 34 842
437 34 1125
438 34 320
439 34 3
440 34 841
441 34 133
442 34 756
443 34 1417
444 34 246
445 34 562
446 34 962
447 34 25
448 34 699
449 34 690
450 34 1199
451 34 752
452 34 846
453 34 1235
454 34 1379
456 34 910
457 34 258
458 34 779
459 34 1232
460 34 276
461 34 547
462 34 609
463 34 1161
464 34 989
465 34 724
466 34 427
467 34 428
468 34 773
470 34 257
472 34 958
473 34 3
474 34 262
475 34 813
476 34 290
477 34 996
478 34 170
479 34 721
480 34 271
481 34 1125
482 34 484
483 34 477
484 34 551
485 34 1688
487 34 70
488 34 682
489 34 8
490 34 1302
491 34 1237
492 34 1595
493 34 212
494 34 667
495 34 360
496 34 330
497 34 1043
498 34 101
500 34 245
3 35 5
4 35 1481
5 35 535
6 35 579
7 35 621
8 35 63
9 35 922
12 35 851
13 35 840
14 35 103
16 35 284
17 35 461
19 35 1281
20 35 1262
21 35 647
23 35 445
24 35 1063
26 35 2
27 35 273
29 35 745
32 35 2
33 35 72
34 35 1160
35 35 346
37 35 4
38 35 884
41 35 1055
42 35 474
43 35 1260
44 35 486
45 35 759
47 35 1623
48 35 561
49 35 1148
50 35 419
51 35 418
52 35 609
54 35 836
58 35 400
60 35 1469
62 35 796
63 35 529
64 35 606
65 35 564
66 35 644
70 35 538
76 35 177
77 35 109
78 35 1496
81 35 1088
82 35 8
83 35 317
84 35 517
85 35 338
86 35 169
87 35 5
88 35 266
89 35 7
90 35 488
91 35 1
93 35 983
94 35 898
95 35 587
98 35 82
99 35 142
101 35 942
102 35 547
105 35 289
111 35 598
112 35 487
115 35 1070
116 35 6
117 35 608
118 35 94
119 35 1194
120 35 137
121 35 686
122 35 726
123 35 1427
124 35 805
125 35 211
127 35 299
128 35 378
129 35 1096
133 35 346
134 35 422
135 35 1502
136 35 596
137 35 1236
138 35 916
140 35 618
141 35 72
142 35 295
143 35 845
144 35 489
148 35 882
150 35 1106
151 35 488
153 35 331
154 35 404
155 35 897
157 35 513
159 35 21
160 35 955
161 35 894
162 35 601
163 35 338
166 35 696
167 35 434
168 35 3
169 35 548
170 35 752
174 35 926
176 35 478
177 35 1954
178 35 1421
182 35 26
184 35 642
185 35 951
186 35 278
188 35 981
189 35 9
190 35 261
191 35 812
193 35 602
198 35 665
199 35 1586
200 35 596
202 35 446
203 35 1494
204 35 774
206 35 672
207 35 956
208 35 851
209 35 669
210 35 781
211 35 5
212 35 146
213 35 632
215 35 1211
218 35 513
222 35 373
223 35 906
224 35 639
226 35 386
227 35 583
228 35 133
229 35 5
230 35 347
232 35 1048
233 35 660
234 35 7
235 35 1089
237 35 616
238 35 1339
239 35 686
240 35 461
241 35 1435
242 35 993
243 35 612
244 35 752
246 35 709
247 35 8
248 35 311
249 35 26
250 35 986
252 35 444
253 35 371
254 35 706
257 35 760
258 35 386
260 35 508
261 35 1237
263 35 597
264 35 421
267 35 735
268 35 6
269 35 743
270 35 577
271 35 860
272 35 905
273 35 22
274 35 545
276 35 115
277 35 601
278 35 7
279 35 425
280 35 242
282 35 907
283 35 1009
284 35 5
285 35 465
286 35 770
287 35 1563
288 35 1220
290 35 802
292 35 1121
295 35 6
297 35 446
299 35 606
301 35 716
303 35 18
304 35 955
305 35 195
308 35 845
310 35 28
313 35 458
314 35 18
315 35 7
317 35 1004
318 35 480
321 35 1350
322 35 349
323 35 457
324 35 607
326 35 232
328 35 422
329 35 694
330 35 1129
333 35 605
335 35 479
337 35 170
338 35 853
339 35 710
340 35 6
341 35 574
347 35 640
351 35 1640
354 35 577
355 35 1514
356 35 1285
358 35 433
359 35 684
360 35 390
361 35 508
362 35 324
363 35 1131
365 35 569
367 35 583
368 35 625
370 35 479
373 35 437
374 35 1084
378 35 699
379 35 564
382 35 376
388 35 855
389 35 26
391 35 384
392 35 1381
394 35 887
396 35 322
397 35 394
398 35 875
400 35 997
403 35 641
405 35 604
408 35 196
410 35 784
411 35 86
412 35 1254
414 35 6
416 35 875
419 35 1153
422 35 711
424 35 711
427 35 947
428 35 684
429 35 1044
431 35 686
432 35 1339
433 35 441
434 35 636
436 35 1051
437 35 1548
440 35 760
442 35 282
443 35 780
445 35 10
446 35 654
448 35 870
449 35 901
450 35 1164
451 35 316
452 35 624
453 35 462
454 35 709
456 35 521
458 35 262
459 35 728
461 35 515
463 35 1702
464 35 487
465 35 422
467 35 1289
468 35 497
472 35 1007
475 35 1699
476 35 5
477 35 284
479 35 1183
481 35 1061
482 35 828
483 35 845
484 35 411
485 35 658
487 35 5
488 35 1623
490 35 4
491 35 376
492 35 695
494 35 845
495 35 2
496 35 561
497 35 395
1 36 1020
2 36 2457
3 36 2302
4 36 4
7 36 303
8 36 1141
10 36 1932
11 36 1517
14 36 2544
15 36 3099
18 36 1332
21 36 102
22 36 3031
25 36 4832
26 36 2051
28 36 3638
30 36 3748
31 36 3009
32 36 1855
33 36 2389
34 36 4
36 36 1507
37 36 2959
39 36 3751
40 36 2629
46 36 4623
47 36 56
51 36 4
53 36 1296
55 36 1978
56 36 1376
57 36 665
59 36 1754
61 36 2142
64 36 7
67 36 2810
68 36 2331
69 36 3228
71 36 2410
72 36 2020
73 36 3095
74 36 1638
75 36 5440
77 36 3053
79 36 1591
80 36 1838
81 36 21
82 36 2278
85 36 1954
86 36 2239
87 36 2993
89 36 2223
91 36 1225
92 36 2386
96 36 2439
97 36 1720
98 36 3287
99 36 1334
100 36 2218
101 36 5
103 36 1823
104 36 2413
106 36 2771
107 36 2994
108 36 3086
109 36 2112
110 36 1652
113 36 2277
114 36 1217
116 36 3328
118 36 2055
120 36 2428
124 36 5
125 36 1452
126 36 4399
128 36 994
130 36 2520
131 36 2566
132 36 3668
139 36 1969
140 36 4
141 36 2407
145 36 1580
146 36 1737
147 36 1852
148 36 6
149 36 2247
152 36 1897
154 36 23
156 36 3739
158 36 1984
159 36 1208
162 36 5
164 36 1972
165 36 3343
168 36 1559
171 36 3732
172 36 2390
173 36 2553
175 36 2140
177 36 24
179 36 2793
180 36 1382
181 36 1189
182 36 2176
183 36 3035
185 36 100
187 36 1476
189 36 2043
192 36 3108
194 36 3297
195 36 3286
196 36 1596
197 36 4395
201 36 2364
205 36 3100
211 36 2049
214 36 2767
216 36 1600
217 36 1380
219 36 2682
220 36 3532
221 36 2206
225 36 3719
228 36 1280
229 36 2135
231 36 4918
234 36 1846
236 36 4785
239 36 496
245 36 2399
247 36 2881
249 36 2373
250 36 3
251 36 1698
252 36 6
255 36 1748
256 36 3195
259 36 2024
262 36 2074
264 36 474
265 36 2910
266 36 3628
268 36 2983
272 36 202
273 36 2740
274 36 31
275 36 2785
276 36 1180
278 36 2120
281 36 1988
284 36 2367
289 36 1589
291 36 2419
293 36 1899
294 36 2422
295 36 3568
296 36 2581
298 36 2379
300 36 2259
301 36 2052
302 36 1945
303 36 2995
305 36 1637
306 36 1005
307 36 3134
309 36 2523
310 36 3728
311 36 2608
312 36 3311
313 36 6
314 36 2798
315 36 1026
316 36 3206
318 36 5
319 36 4032
320 36 1562
323 36 29
325 36 1637
327 36 2186
331 36 2415
332 36 1944
334 36 2195
336 36 2110
337 36 1864
340 36 2509
342 36 3003
343 36 1939
344 36 2023
345 36 2568
346 36 2967
348 36 998
349 36 1412
350 36 1661
352 36 2666
353 36 2309
357 36 3140
360 36 107
361 36 33
364 36 1695
365 36 8
366 36 2625
369 36 2829
371 36 3595
372 36 3224
375 36 3052
376 36 3276
377 36 2361
380 36 799
381 36 3069
382 36 873
383 36 3205
384 36 3649
385 36 4359
386 36 2764
387 36 805
389 36 2075
390 36 3034
393 36 2832
395 36 2057
397 36 2938
399 36 1952
401 36 1744
402 36 2925
404 36 2844
406 36 3515
407 36 1843
408 36 2115
409 36 2056
411 36 1379
412 36 377
413 36 3954
414 36 2235
415 36 2788
417 36 2994
418 36 3212
420 36 4788
421 36 3080
422 36 96
423 36 2083
425 36 1276
426 36 1343
429 36 5
430 36 3127
432 36 10
435 36 2122
437 36 6
438 36 2661
439 36 1978
441 36 3472
444 36 3104
445 36 1892
447 36 1681
452 36 6
453 36 374
455 36 3161
457 36 1358
458 36 2022
460 36 1649
461 36 8
462 36 4311
465 36 61
466 36 3173
469 36 2144
470 36 1869
471 36 2199
473 36 819
474 36 2466
476 36 2994
478 36 2399
480 36 2985
486 36 2410
487 36 1693
489 36 4135
490 36 3601
493 36 1853
495 36 3627
498 36 2880
499 36 4094
500 36 5719
1 37 1866
2 37 874
3 37 742
4 37 8
5 37 7
6 37 5
7 37 817
8 37 1575
10 37 1892
11 37 919
12 37 108
13 37 18
14 37 1148
15 37 1394
17 37 21
18 37 667
21 37 400
22 37 793
23 37 15
25 37 1641
26 37 1016
28 37 1715
30 37 1466
31 37 1158
32 37 1120
33 37 936
35 37 2
36 37 1205
37 37 2247
39 37 1574
40 37 1378
42 37 4
43 37 6
46 37 2309
47 37 211
48 37 7
49 37 31
50 37 5
51 37 2
52 37 4
53 37 679
55 37 829
56 37 522
57 37 1365
58 37 7
59 37 1101
61 37 601
65 37 8
67 37 2455
68 37 1376
69 37 1177
71 37 1124
72 37 2938
73 37 1356
74 37 1063
75 37 1306
77 37 1178
79 37 1557
80 37 1105
81 37 196
82 37 1459
84 37 23
85 37 2378
86 37 1403
87 37 2014
89 37 947
90 37 4
91 37 1542
92 37 1997
93 37 10
94 37 22
95 37 7
96 37 1339
97 37 1230
98 37 1417
99 37 1467
100 37 1503
101 37 52
102 37 6
103 37 2068
104 37 1823
106 37 1966
107 37 1666
108 37 1103
109 37 1466
110 37 1001
112 37 1
113 37 2059
114 37 1632
116 37 2526
118 37 670
119 37 2
120 37 1413
123 37 59
124 37 127
125 37 1401
126 37 783
127 37 2
128 37 1426
129 37 161
130 37 2245
131 37 1839
132 37 1681
133 37 6
134 37 11
135 37 3
138 37 46
139 37 1250
140 37 6
141 37 1962
145 37 1030
146 37 1029
147 37 982
148 37 98
149 37 1244
152 37 1212
153 37 8
154 37 149
155 37 5
156 37 487
158 37 2053
159 37 936
160 37 12
161 37 4
162 37 5
163 37 52
164 37 1226
165 37 743
166 37 8
167 37 8
168 37 1657
169 37 9
170 37 8
171 37 971
172 37 1848
173 37 1764
175 37 1121
177 37 250
178 37 5
179 37 2205
180 37 1293
181 37 1917
182 37 1302
183 37 1782
185 37 461
187 37 1849
189 37 2629
191 37 8
192 37 1156
193 37 22
194 37 1630
195 37 1260
196 37 2925
197 37 1303
199 37 24
200 37 5
201 37 1860
205 37 1381
210 37 5
211 37 1745
214 37 1165
215 37 9
216 37 1800
217 37 1147
218 37 10
219 37 2205
220 37 1281
221 37 854
224 37 6
225 37 1744
227 37 3
228 37 2309
229 37 1467
231 37 1438
233 37 27
234 37 1461
236 37 1984
238 37 6
239 37 1318
240 37 4
241 37 4
244 37 3
245 37 1313
246 37 6
247 37 2092
248 37 23
249 37 1600
251 37 2119
254 37 6
255 37 1060
256 37 1677
257 37 6
259 37 1223
262 37 1021
264 37 481
265 37 2125
266 37 504
267 37 29
268 37 2043
269 37 32
271 37 29
272 37 209
273 37 1038
274 37 333
275 37 1340
276 37 2260
278 37 545
279 37 4
281 37 602
282 37 26
283 37 28
284 37 959
289 37 1794
290 37 6
291 37 3290
293 37 3384
294 37 2659
295 37 1180
296 37 895
298 37 977
300 37 1329
301 37 948
302 37 1195
303 37 1901
305 37 2427
306 37 2060
307 37 922
309 37 1384
310 37 1664
311 37 1940
312 37 3317
314 37 1613
315 37 1650
316 37 2110
317 37 4
318 37 4
319 37 1486
320 37 1281
322 37 5
323 37 146
325 37 630
327 37 1229
328 37 8
331 37 1104
332 37 1213
334 37 872
336 37 866
337 37 1011
340 37 1692
341 37 5
342 37 1182
343 37 1337
344 37 1416
345 37 1241
346 37 824
347 37 7
348 37 613
349 37 1164
350 37 1468
352 37 878
353 37 1263
355 37 24
356 37 23
357 37 1952
358 37 9
360 37 217
361 37 214
362 37 5
364 37 1289
365 37 3
366 37 1501
369 37 1654
371 37 1358
372 37 1384
374 37 21
375 37 2135
376 37 938
377 37 1638
378 37 4
379 37 3
380 37 1682
381 37 1229
382 37 1542
383 37 1714
384 37 1424
385 37 978
386 37 2641
387 37 1265
389 37 1238
390 37 1121
391 37 2
393 37 2297
395 37 2097
396 37 7
397 37 749
399 37 1917
400 37 5
401 37 856
402 37 1360
404 37 768
406 37 1090
407 37 2207
408 37 1398
409 37 1112
411 37 1311
412 37 1293
413 37 1486
414 37 1527
415 37 1673
416 37 21
417 37 659
418 37 1304
419 37 6
420 37 1661
421 37 1146
422 37 198
423 37 832
424 37 15
425 37 1117
426 37 2044
427 37 7
428 37 5
429 37 2
430 37 1051
433 37 4
435 37 1290
438 37 2117
439 37 1020
440 37 6
441 37 2159
442 37 8
443 37 12
444 37 1550
445 37 2578
447 37 1248
449 37 33
450 37 27
451 37 2
453 37 864
455 37 1218
457 37 1187
458 37 1307
459 37 6
460 37 2122
461 37 8
462 37 1527
464 37 9
465 37 7
466 37 1372
468 37 30
469 37 1775
470 37 1271
471 37 1452
473 37 1480
474 37 1214
476 37 1662
478 37 1878
480 37 1520
486 37 1108
487 37 1855
488 37 5
489 37 2106
490 37 2712
491 37 6
493 37 3373
495 37 2624
498 37 1152
499 37 1956
500 37 1730
1 38 4
2 38 21
3 38 24
4 38 1746
5 38 860
6 38 1114
7 38 84
9 38 1816
10 38 30
11 38 115
12 38 474
13 38 1959
14 38 168
16 38 1467
17 38 1059
18 38 781
19 38 1208
20 38 2580
21 38 6
22 38 29
23 38 1537
24 38 1470
25 38 32
26 38 70
27 38 520
28 38 514
29 38 2404
30 38 152
31 38 7
32 38 117
33 38 90
34 38 1592
35 38 1993
36 38 6
37 38 455
38 38 699
40 38 8
41 38 1380
42 38 778
43 38 1850
44 38 1216
45 38 1209
47 38 417
48 38 1110
49 38 1368
50 38 394
51 38 599
52 38 314
53 38 787
54 38 1413
55 38 106
56 38 2535
57 38 130
58 38 982
59 38 636
60 38 955
61 38 31
62 38 1122
63 38 208
64 38 1153
65 38 892
66 38 2709
68 38 22
69 38 42
70 38 643
72 38 145
73 38 24
74 38 57
75 38 10
76 38 1442
77 38 762
78 38 349
79 38 115
80 38 949
81 38 807
82 38 23
83 38 1204
84 38 863
85 38 60
86 38 23
87 38 73
88 38 1542
89 38 30
90 38 1435
91 38 24
92 38 166
93 38 2069
94 38 1225
95 38 1131
96 38 1
97 38 206
98 38 136
99 38 52
100 38 48
101 38 1560
102 38 1816
103 38 31
104 38 306
105 38 509
106 38 6
107 38 26
108 38 8
109 38 52
110 38 65
111 38 1436
112 38 852
114 38 4
115 38 1604
116 38 3
117 38 737
118 38 52
119 38 624
120 38 25
121 38 1115
122 38 1084
123 38 905
124 38 177
125 38 59
127 38 836
128 38 1695
129 38 182
130 38 7
131 38 327
132 38 567
133 38 156
134 38 2194
135 38 2856
136 38 1057
137 38 694
138 38 1603
139 38 6
140 38 1009
141 38 94
142 38 559
143 38 672
144 38 1493
145 38 75
147 38 20
148 38 135
149 38 19
150 38 2241
151 38 1971
152 38 4
153 38 149
154 38 19
155 38 1488
156 38 5
157 38 1184
158 38 707
159 38 4
160 38 1297
161 38 1413
162 38 1001
163 38 1493
164 38 7
165 38 2
166 38 1156
167 38 1551
168 38 25
169 38 1134
170 38 2184
172 38 87
173 38 31
174 38 1606
175 38 82
176 38 1453
177 38 1222
178 38 790
179 38 11
180 38 295
181 38 111
182 38 7
184 38 2731
185 38 116
186 38 1156
187 38 22
188 38 467
189 38 62
190 38 869
191 38 342
192 38 116
193 38 1931
194 38 24
195 38 279
196 38 206
197 38 62
198 38 1031
199 38 1448
200 38 433
201 38 107
202 38 2629
203 38 1033
204 38 835
206 38 785
207 38 456
208 38 933
209 38 799
210 38 766
211 38 175
212 38 355
213 38 1122
214 38 6
215 38 1164
216 38 77
217 38 6
218 38 1297
219 38 499
220 38 72
221 38 151
222 38 944
223 38 1431
224 38 1349
225 38 113
226 38 702
227 38 1151
228 38 58
229 38 62
230 38 997
232 38 733
233 38 1385
234 38 25
235 38 308
236 38 186
237 38 421
238 38 1962
239 38 54
240 38 1283
241 38 2786
242 38 1153
243 38 1186
244 38 1511
246 38 1496
247 38 1218
248 38 1610
249 38 725
250 38 631
251 38 198
252 38 573
253 38 806
254 38 1908
255 38 17
256 38 21
257 38 466
258 38 2690
259 38 66
260 38 839
261 38 1487
263 38 1522
264 38 2175
266 38 5
267 38 251
268 38 66
269 38 1253
270 38 1629
271 38 1039
272 38 611
273 38 55
274 38 108
275 38 5
276 38 46
277 38 697
279 38 725
280 38 1488
281 38 3
282 38 175
283 38 850
284 38 23
285 38 1496
286 38 972
287 38 1775
288 38 1631
289 38 108
290 38 2074
292 38 1144
293 38 1625
294 38 69
295 38 498
296 38 58
297 38 972
298 38 112
299 38 1212
300 38 1707
301 38 90
303 38 3
304 38 449
305 38 94
306 38 109
307 38 62
308 38 332
309 38 109
311 38 1207
312 38 113
313 38 599
314 38 30
315 38 782
316 38 206
317 38 1566
318 38 691
319 38 26
320 38 9
321 38 1703
322 38 1249
323 38 24
324 38 1466
325 38 4
326 38 896
327 38 1158
328 38 481
329 38 655
330 38 537
331 38 68
333 38 742
334 38 36
335 38 818
336 38 8
337 38 33
338 38 992
339 38 913
341 38 1152
342 38 138
343 38 2
346 38 23
347 38 1606
348 38 358
349 38 181
350 38 5
351 38 1402
353 38 98
354 38 1561
355 38 1358
356 38 98
358 38 340
359 38 868
360 38 2022
361 38 1328
362 38 1860
363 38 782
364 38 187
365 38 1002
366 38 19
367 38 1500
368 38 965
369 38 92
370 38 682
371 38 64
372 38 7
373 38 718
374 38 1201
375 38 139
376 38 110
377 38 33
378 38 2725
379 38 1187
380 38 5
382 38 47
383 38 149
384 38 69
385 38 197
387 38 211
388 38 1385
389 38 61
390 38 28
391 38 288
392 38 1127
393 38 84
394 38 705
395 38 111
396 38 1254
397 38 2391
398 38 1082
399 38 28
400 38 1424
402 38 6
403 38 745
404 38 9
405 38 1054
407 38 55
408 38 39
409 38 79
410 38 1320
411 38 118
412 38 133
413 38 163
414 38 4
416 38 833
417 38 5
418 38 20
419 38 448
420 38 25
421 38 27
422 38 698
423 38 9
424 38 573
425 38 20
427 38 2002
428 38 641
429 38 1783
430 38 1
431 38 1088
432 38 1096
433 38 1690
434 38 869
436 38 1392
437 38 1192
438 38 8
440 38 1133
441 38 309
442 38 1286
443 38 778
444 38 24
445 38 151
446 38 612
447 38 32
448 38 1775
449 38 830
450 38 1944
451 38 818
452 38 1611
453 38 196
454 38 1084
455 38 101
456 38 1174
457 38 51
458 38 126
459 38 681
460 38 2
461 38 625
462 38 29
463 38 1651
464 38 675
465 38 1520
466 38 59
467 38 1151
468 38 1554
469 38 115
470 38 21
472 38 783
473 38 33
474 38 146
475 38 810
476 38 1
477 38 1849
478 38 3
479 38 206
480 38 24
481 38 1625
482 38 327
483 38 1427
484 38 626
485 38 1140
486 38 24
487 38 712
488 38 2112
490 38 236
491 38 2214
492 38 2600
493 38 1596
494 38 452
495 38 77
496 38 813
497 38 1090
498 38 1152
500 38 235
4 39 1892
5 39 1197
6 39 616
7 39 31
9 39 550
11 39 4
12 39 161
13 39 646
16 39 897
17 39 285
18 39 597
19 39 981
20 39 2177
23 39 334
24 39 1235
27 39 336
28 39 6
29 39 1104
30 39 24
32 39 4
34 39 1101
35 39 937
37 39 232
38 39 471
40 39 5
41 39 1189
42 39 640
43 39 509
44 39 881
45 39 685
47 39 586
48 39 622
49 39 786
50 39 313
51 39 362
52 39 421
53 39 597
54 39 357
56 39 652
58 39 1807
59 39 151
60 39 1322
62 39 1445
63 39 54
64 39 562
65 39 1162
66 39 289
70 39 494
74 39 5
76 39 428
77 39 605
78 39 571
79 39 8
80 39 331
81 39 366
83 39 687
84 39 322
86 39 6
88 39 847
89 39 25
90 39 622
92 39 112
93 39 1131
94 39 616
95 39 663
97 39 63
98 39 20
101 39 488
102 39 819
103 39 129
105 39 314
111 39 962
112 39 230
115 39 672
117 39 1087
119 39 249
121 39 788
122 39 1650
123 39 1023
124 39 21
125 39 22
127 39 1036
128 39 605
129 39 86
131 39 217
132 39 7
133 39 747
134 39 391
135 39 1070
136 39 499
137 39 317
138 39 499
140 39 509
142 39 360
143 39 433
144 39 927
150 39 605
151 39 261
153 39 692
155 39 444
157 39 744
158 39 314
159 39 7
160 39 527
161 39 448
162 39 490
163 39 565
166 39 1257
167 39 741
168 39 3
169 39 659
170 39 1234
172 39 8
174 39 920
175 39 2
176 39 331
177 39 1245
178 39 363
180 39 105
184 39 312
185 39 5
186 39 304
188 39 248
190 39 217
191 39 526
192 39 8
193 39 928
194 39 4
196 39 10
197 39 29
198 39 453
199 39 1036
200 39 96
201 39 2
202 39 613
203 39 555
204 39 782
205 39 6
206 39 573
207 39 498
208 39 564
209 39 592
210 39 166
211 39 5
212 39 340
213 39 833
215 39 1589
218 39 562
219 39 269
222 39 517
223 39 388
224 39 143
225 39 5
226 39 983
227 39 640
230 39 892
232 39 1498
233 39 924
235 39 51
237 39 454
238 39 522
240 39 1368
241 39 1127
242 39 1639
243 39 531
244 39 948
246 39 1258
247 39 525
248 39 1157
249 39 1176
250 39 175
251 39 6
252 39 174
253 39 1118
254 39 536
256 39 4
257 39 193
258 39 1593
260 39 1247
261 39 704
263 39 336
264 39 753
267 39 154
269 39 495
270 39 413
271 39 894
272 39 383
274 39 5
277 39 1160
279 39 853
280 39 871
282 39 5
283 39 54
285 39 959
286 39 522
287 39 1112
288 39 653
290 39 971
292 39 1213
293 39 1244
295 39 382
296 39 1
297 39 786
299 39 932
300 39 220
301 39 30
304 39 464
305 39 24
306 39 20
308 39 122
311 39 336
313 39 177
315 39 1027
316 39 107
317 39 708
318 39 805
319 39 3
321 39 681
322 39 732
324 39 339
326 39 232
327 39 267
328 39 308
329 39 565
330 39 622
333 39 1207
335 39 459
338 39 716
339 39 1687
341 39 693
347 39 199
348 39 304
349 39 6
351 39 560
354 39 385
355 39 1117
356 39 25
358 39 1371
359 39 566
360 39 1294
361 39 660
362 39 669
363 39 839
364 39 52
365 39 476
367 39 330
368 39 895
370 39 618
371 39 5
373 39 564
374 39 945
378 39 708
379 39 651
388 39 405
390 39 3
391 39 128
392 39 638
393 39 25
394 39 341
396 39 723
397 39 546
398 39 627
400 39 303
403 39 579
405 39 854
407 39 9
408 39 4
410 39 848
416 39 959
419 39 329
422 39 1166
424 39 420
427 39 920
428 39 239
429 39 707
430 39 5
431 39 787
432 39 808
433 39 542
434 39 1286
436 39 328
437 39 1052
438 39 7
440 39 497
441 39 2
442 39 748
443 39 1101
444 39 3
446 39 861
448 39 1057
449 39 985
450 39 375
451 39 977
452 39 1320
453 39 3
454 39 515
456 39 749
459 39 742
461 39 797
462 39 5
463 39 649
464 39 823
465 39 1128
466 39 9
467 39 401
468 39 607
472 39 1476
474 39 3
475 39 419
477 39 1008
479 39 32
481 39 681
482 39 1406
483 39 387
484 39 1042
485 39 600
486 39 2
487 39 1295
488 39 226
491 39 1035
492 39 644
493 39 1213
494 39 564
496 39 500
497 39 766
498 39 461
500 39 8
4 40 599
5 40 221
6 40 413
9 40 498
12 40 94
13 40 564
16 40 464
17 40 579
18 40 282
19 40 677
20 40 741
23 40 255
24 40 744
27 40 465
29 40 454
30 40 8
34 40 587
35 40 723
37 40 414
38 40 432
41 40 674
42 40 259
43 40 488
44 40 660
45 40 328
47 40 842
48 40 365
49 40 572
50 40 290
51 40 368
52 40 1201
53 40 245
54 40 336
56 40 929
58 40 512
59 40 226
60 40 331
62 40 796
63 40 2
64 40 864
65 40 208
66 40 274
70 40 542
76 40 461
77 40 453
78 40 499
80 40 530
81 40 265
83 40 1277
84 40 233
88 40 307
90 40 565
92 40 21
93 40 490
94 40 472
95 40 391
97 40 117
98 40 1
101 40 313
102 40 419
105 40 489
111 40 468
112 40 798
115 40 678
117 40 76
119 40 578
121 40 603
122 40 442
123 40 331
127 40 232
128 40 343
129 40 4
131 40 445
133 40 409
134 40 301
135 40 222
136 40 745
137 40 950
138 40 944
140 40 395
142 40 468
143 40 477
144 40 153
150 40 256
151 40 945
153 40 377
155 40 527
157 40 281
158 40 492
160 40 459
161 40 285
162 40 385
163 40 789
166 40 528
167 40 682
169 40 403
170 40 321
172 40 5
174 40 227
176 40 650
177 40 512
178 40 740
180 40 66
184 40 269
186 40 559
188 40 360
190 40 267
191 40 191
193 40 423
198 40 491
199 40 985
200 40 119
201 40 3
202 40 706
203 40 255
204 40 567
206 40 259
207 40 997
208 40 661
209 40 227
210 40 489
212 40 121
213 40 406
215 40 865
218 40 1373
219 40 525
222 40 475
223 40 560
224 40 346
226 40 1044
227 40 344
230 40 522
232 40 361
233 40 196
235 40 101
237 40 472
238 40 452
240 40 362
241 40 281
242 40 270
243 40 653
244 40 182
246 40 424
247 40 816
248 40 295
249 40 549
250 40 397
252 40 175
253 40 843
254 40 336
257 40 406
258 40 365
260 40 413
261 40 141
263 40 111
264 40 516
267 40 312
269 40 464
270 40 324
271 40 385
272 40 971
277 40 70
279 40 422
280 40 363
282 40 9
283 40 155
285 40 1322
286 40 523
287 40 533
288 40 633
290 40 608
292 40 192
293 40 286
295 40 251
297 40 299
299 40 418
300 40 273
304 40 992
308 40 61
311 40 370
313 40 208
315 40 916
316 40 4
317 40 494
318 40 144
321 40 339
322 40 302
324 40 122
326 40 303
327 40 370
328 40 324
329 40 359
330 40 311
333 40 62
335 40 203
338 40 607
339 40 193
341 40 372
347 40 1140
348 40 371
351 40 627
353 40 2
354 40 118
355 40 982
356 40 8
358 40 552
359 40 277
360 40 621
361 40 331
362 40 268
363 40 264
364 40 131
365 40 406
367 40 124
368 40 451
370 40 295
373 40 613
374 40 1344
378 40 518
379 40 392
388 40 314
391 40 170
392 40 417
394 40 513
396 40 308
397 40 441
398 40 578
400 40 799
403 40 261
405 40 404
410 40 749
416 40 594
419 40 526
422 40 875
424 40 402
427 40 575
428 40 306
429 40 445
431 40 289
432 40 716
433 40 203
434 40 1065
436 40 543
437 40 508
440 40 1087
441 40 19
442 40 279
443 40 1136
446 40 432
448 40 612
449 40 603
450 40 135
451 40 205
452 40 1000
453 40 8
454 40 193
456 40 280
459 40 379
461 40 467
463 40 933
464 40 515
465 40 652
467 40 778
468 40 426
472 40 364
475 40 813
477 40 885
481 40 457
482 40 379
483 40 286
484 40 647
485 40 853
487 40 434
488 40 160
491 40 514
492 40 522
493 40 281
494 40 529
496 40 385
497 40 475
498 40 550
1 41 659
2 41 1439
3 41 860
4 41 956
5 41 223
6 41 270
7 41 531
8 41 429
9 41 192
10 41 414
11 41 1135
12 41 1436
13 41 743
14 41 1061
15 41 1445
16 41 530
17 41 466
18 41 1662
19 41 471
20 41 488
21 41 1445
22 41 876
23 41 583
24 41 416
25 41 454
26 41 387
27 41 321
28 41 711
29 41 936
30 41 874
31 41 605
32 41 490
33 41 654
34 41 1087
35 41 888
36 41 1119
37 41 1552
38 41 200
39 41 740
40 41 496
41 41 429
42 41 550
43 41 1624
44 41 335
45 41 505
46 41 2418
47 41 700
48 41 293
49 41 851
50 41 594
51 41 136
52 41 555
53 41 1665
54 41 567
55 41 826
56 41 358
57 41 437
58 41 520
59 41 1376
60 41 956
61 41 779
62 41 624
63 41 895
64 41 1192
65 41 234
66 41 793
67 41 541
68 41 709
69 41 759
70 41 511
71 41 841
72 41 2634
73 41 758
74 41 1109
75 41 461
76 41 591
77 41 839
78 41 752
79 41 566
80 41 730
81 41 604
82 41 716
83 41 640
84 41 883
85 41 845
86 41 604
87 41 1061
88 41 1217
89 41 1704
90 41 797
91 41 675
92 41 957
93 41 189
94 41 1043
95 41 295
96 41 548
97 41 1087
98 41 945
99 41 291
100 41 480
101 41 1057
102 41 834
103 41 887
104 41 307
105 41 341
106 41 522
107 41 737
108 41 959
109 41 285
110 41 320
111 41 829
112 41 317
113 41 609
114 41 771
115 41 394
116 41 1310
117 41 501
118 41 331
119 41 1284
120 41 909
121 41 1097
122 41 525
123 41 1029
124 41 865
125 41 554
126 41 548
127 41 518
128 41 329
129 41 1563
130 41 885
131 41 1112
132 41 627
133 41 359
134 41 950
135 41 698
136 41 321
137 41 698
138 41 841
139 41 425
140 41 261
141 41 562
142 41 326
143 41 204
144 41 488
145 41 951
146 41 1132
147 41 1066
148 41 504
149 41 614
150 41 441
151 41 624
152 41 1395
153 41 360
154 41 1056
155 41 1159
156 41 386
157 41 338
158 41 1305
159 41 766
160 41 884
161 41 389
162 41 261
163 41 603
164 41 1465
165 41 1249
166 41 306
167 41 1138
168 41 716
169 41 297
170 41 569
171 41 886
172 41 506
173 41 1133
174 41 432
175 41 1000
176 41 306
177 41 890
178 41 774
179 41 541
180 41 321
181 41 1111
182 41 393
183 41 389
184 41 815
185 41 364
186 41 646
187 41 942
188 41 418
189 41 1235
190 41 526
191 41 678
192 41 273
193 41 415
194 41 502
195 41 923
196 41 570
197 41 1036
198 41 410
199 41 806
200 41 1107
201 41 487
202 41 364
203 41 486
204 41 465
205 41 1299
206 41 729
207 41 348
208 41 512
209 41 765
210 41 412
211 41 462
212 41 282
213 41 312
214 41 805
215 41 709
216 41 570
217 41 365
218 41 195
219 41 1479
220 41 1609
221 41 1080
222 41 626
223 41 762
224 41 566
225 41 567
226 41 359
227 41 318
228 41 582
229 41 1085
230 41 295
231 41 655
232 41 605
233 41 1223
234 41 524
235 41 705
236 41 878
237 41 410
238 41 1239
239 41 400
240 41 770
241 41 730
242 41 638
243 41 861
244 41 198
245 41 791
246 41 869
247 41 372
248 41 893
249 41 190
250 41 1238
251 41 485
252 41 504
253 41 421
254 41 929
255 41 590
256 41 570
257 41 745
258 41 338
259 41 484
260 41 559
261 41 756
262 41 1244
263 41 365
264 41 399
265 41 1102
266 41 405
267 41 492
268 41 1046
269 41 768
270 41 250
271 41 613
272 41 603
273 41 724
274 41 346
275 41 438
276 41 598
277 41 495
278 41 414
279 41 328
280 41 1194
281 41 415
282 41 1089
283 41 242
284 41 479
285 41 455
286 41 1161
287 41 1374
288 41 389
289 41 546
290 41 526
291 41 1470
292 41 459
293 41 594
294 41 447
295 41 914
296 41 453
297 41 598
298 41 1913
299 41 1617
300 41 794
301 41 495
302 41 445
303 41 616
304 41 390
305 41 1249
306 41 1178
307 41 471
308 41 488
309 41 793
310 41 831
311 41 495
312 41 508
313 41 496
314 41 523
315 41 2286
316 41 581
317 41 476
318 41 440
319 41 568
320 41 590
321 41 264
322 41 156
323 41 1007
324 41 376
325 41 536
326 41 578
327 41 1019
328 41 604
329 41 534
330 41 428
331 41 526
332 41 417
333 41 478
334 41 330
335 41 713
336 41 1085
337 41 470
338 41 493
339 41 700
340 41 872
341 41 299
342 41 442
343 41 433
344 41 400
345 41 1412
346 41 874
347 41 1136
348 41 748
349 41 970
350 41 469
351 41 747
352 41 956
353 41 704
354 41 418
355 41 754
356 41 696
357 41 571
358 41 410
359 41 786
360 41 1509
361 41 391
362 41 363
363 41 583
364 41 1060
365 41 262
366 41 570
367 41 410
368 41 893
369 41 1357
370 41 534
371 41 1515
372 41 671
373 41 763
374 41 325
375 41 235
376 41 404
377 41 313
378 41 649
379 41 313
380 41 848
381 41 1123
382 41 556
383 41 817
384 41 1074
385 41 2931
386 41 1336
387 41 671
388 41 621
389 41 1239
390 41 488
391 41 639
392 41 709
393 41 956
394 41 637
395 41 2007
396 41 150
397 41 1153
398 41 637
399 41 1361
400 41 1098
401 41 779
402 41 468
403 41 712
404 41 1048
405 41 830
406 41 1367
407 41 950
408 41 657
409 41 759
410 41 418
411 41 760
412 41 1133
413 41 1181
414 41 744
415 41 1461
416 41 609
417 41 468
418 41 1330
419 41 905
420 41 508
421 41 954
422 41 435
423 41 1046
424 41 192
425 41 1054
426 41 962
427 41 1169
428 41 827
429 41 509
430 41 1071
431 41 1084
432 41 520
433 41 1052
434 41 271
435 41 807
436 41 241
437 41 275
438 41 352
439 41 1207
440 41 1625
441 41 352
442 41 148
443 41 632
444 41 925
445 41 532
446 41 1071
447 41 1310
448 41 571
449 41 590
450 41 644
451 41 500
452 41 1024
453 41 515
454 41 1111
455 41 629
456 41 347
457 41 712
458 41 404
459 41 550
460 41 629
461 41 1029
462 41 1123
463 41 792
464 41 442
465 41 353
466 41 758
467 41 697
468 41 276
469 41 1167
470 41 1385
471 41 1639
472 41 572
473 41 313
474 41 457
475 41 468
476 41 988
477 41 932
478 41 926
479 41 1049
480 41 775
481 41 735
482 41 596
483 41 551
484 41 526
485 41 976
486 41 917
487 41 817
488 41 564
489 41 657
490 41 924
491 41 858
492 41 826
493 41 603
494 41 419
495 41 1224
496 41 501
497 41 817
498 41 793
499 41 774
500 41 1555
1 42 27
2 42 150
3 42 113
4 42 52
5 42 20
6 42 49
7 42 86
8 42 187
10 42 183
11 42 5
12 42 145
13 42 27
14 42 127
15 42 158
16 42 28
17 42 7
18 42 218
20 42 111
21 42 165
22 42 185
23 42 14
24 42 4
25 42 26
26 42 43
27 42 58
28 42 5
29 42 100
30 42 19
31 42 297
32 42 184
33 42 92
34 42 230
35 42 3
36 42 7
37 42 34
38 42 86
39 42 99
40 42 14
41 42 8
42 42 7
43 42 95
44 42 87
45 42 23
46 42 239
48 42 47
49 42 3
50 42 20
51 42 10
52 42 12
53 42 210
54 42 5
55 42 105
57 42 332
58 42 182
59 42 100
60 42 7
61 42 182
62 42 6
63 42 137
64 42 28
65 42 18
66 42 16
67 42 293
68 42 121
69 42 195
70 42 92
71 42 70
72 42 111
73 42 162
74 42 31
75 42 165
76 42 5
77 42 105
78 42 32
79 42 66
80 42 143
81 42 5
82 42 101
83 42 25
84 42 14
85 42 188
86 42 122
87 42 67
88 42 8
89 42 33
90 42 128
91 42 191
92 42 5
93 42 42
94 42 16
95 42 49
96 42 102
97 42 136
98 42 195
99 42 235
100 42 28
101 42 5
102 42 28
103 42 24
104 42 69
105 42 52
106 42 94
107 42 101
108 42 83
109 42 72
111 42 114
112 42 54
113 42 135
114 42 111
115 42 7
116 42 191
117 42 68
118 42 27
119 42 6
120 42 294
121 42 6
122 42 53
123 42 26
124 42 172
125 42 186
126 42 158
127 42 63
128 42 102
129 42 102
130 42 133
131 42 91
132 42 5
133 42 5
134 42 112
135 42 37
136 42 5
137 42 23
138 42 56
139 42 8
140 42 47
141 42 121
142 42 51
143 42 80
144 42 70
145 42 8
146 42 173
147 42 142
148 42 148
149 42 69
150 42 124
151 42 132
152 42 192
153 42 2
154 42 137
155 42 93
156 42 69
157 42 64
158 42 23
159 42 32
160 42 50
161 42 55
162 42 32
163 42 56
164 42 248
165 42 13
166 42 33
167 42 17
168 42 199
169 42 48
170 42 35
171 42 151
172 42 142
173 42 264
174 42 43
175 42 121
176 42 19
177 42 59
179 42 64
180 42 165
181 42 152
182 42 6
183 42 140
184 42 25
185 42 93
187 42 69
188 42 107
189 42 420
190 42 86
191 42 61
192 42 129
193 42 122
194 42 193
195 42 258
196 42 3
197 42 339
198 42 95
199 42 24
200 42 55
201 42 130
203 42 22
204 42 10
205 42 8
206 42 37
207 42 52
208 42 5
209 42 37
210 42 4
211 42 114
212 42 33
213 42 105
214 42 141
215 42 6
216 42 103
217 42 142
218 42 36
219 42 25
220 42 276
221 42 200
222 42 7
223 42 29
224 42 41
225 42 228
226 42 5
227 42 41
228 42 112
229 42 105
230 42 99
231 42 173
233 42 33
234 42 185
235 42 192
236 42 272
237 42 64
238 42 58
239 42 161
240 42 22
241 42 32
242 42 119
243 42 54
244 42 48
245 42 172
246 42 74
247 42 26
248 42 54
249 42 193
250 42 150
251 42 162
252 42 20
253 42 26
254 42 98
255 42 156
256 42 202
257 42 78
258 42 139
259 42 6
261 42 183
262 42 4
263 42 54
264 42 3
265 42 164
266 42 74
268 42 63
269 42 30
270 42 41
271 42 85
272 42 56
273 42 27
274 42 99
275 42 116
276 42 106
277 42 75
278 42 106
279 42 12
280 42 7
281 42 192
282 42 6
283 42 170
284 42 150
285 42 19
286 42 39
287 42 22
288 42 6
289 42 94
290 42 57
291 42 102
292 42 42
293 42 86
294 42 93
295 42 27
296 42 99
297 42 64
298 42 263
299 42 6
300 42 101
301 42 54
302 42 23
303 42 223
304 42 37
306 42 113
307 42 136
308 42 28
309 42 16
310 42 123
311 42 4
312 42 260
313 42 33
314 42 118
315 42 138
316 42 146
317 42 51
318 42 7
319 42 104
320 42 83
322 42 71
323 42 99
324 42 44
325 42 41
326 42 64
327 42 53
328 42 19
330 42 96
331 42 29
332 42 29
333 42 60
334 42 111
335 42 68
336 42 103
337 42 58
338 42 55
339 42 7
340 42 140
341 42 55
342 42 137
343 42 3
344 42 181
345 42 57
346 42 105
347 42 83
348 42 82
349 42 22
350 42 196
351 42 107
352 42 64
353 42 88
354 42 47
355 42 18
356 42 129
357 42 168
358 42 48
359 42 37
360 42 31
362 42 26
363 42 52
364 42 165
365 42 45
366 42 110
367 42 58
368 42 42
369 42 213
370 42 117
371 42 23
372 42 424
373 42 5
374 42 112
375 42 156
376 42 70
377 42 157
378 42 187
379 42 51
380 42 289
381 42 104
382 42 155
383 42 6
384 42 146
385 42 154
386 42 26
387 42 174
388 42 5
389 42 24
390 42 60
391 42 4
392 42 55
393 42 117
394 42 34
395 42 104
396 42 60
397 42 112
398 42 44
399 42 72
400 42 34
401 42 186
402 42 127
403 42 46
404 42 128
405 42 58
406 42 22
407 42 147
408 42 123
409 42 210
410 42 31
411 42 158
412 42 154
413 42 147
414 42 45
415 42 293
416 42 30
417 42 536
418 42 22
419 42 138
420 42 30
421 42 76
422 42 7
423 42 98
424 42 53
425 42 333
426 42 280
427 42 19
428 42 83
429 42 24
430 42 176
431 42 53
432 42 27
433 42 139
434 42 46
435 42 110
437 42 106
438 42 67
439 42 6
441 42 31
442 42 66
443 42 23
444 42 24
445 42 132
446 42 50
447 42 71
448 42 93
449 42 21
450 42 7
451 42 56
452 42 59
453 42 142
454 42 21
455 42 271
456 42 49
457 42 48
458 42 244
459 42 5
460 42 106
461 42 69
462 42 86
463 42 94
464 42 5
465 42 9
466 42 113
467 42 20
468 42 27
469 42 120
470 42 193
471 42 59
473 42 113
474 42 126
475 42 68
476 42 103
477 42 26
478 42 143
479 42 125
480 42 171
481 42 34
482 42 96
483 42 3
484 42 50
485 42 6
486 42 177
488 42 115
489 42 273
490 42 235
491 42 5
492 42 21
493 42 112
494 42 96
495 42 122
496 42 82
498 42 25
499 42 171
500 42 32
11 43 9
18 43 25
28 43 3
31 43 6
32 43 5
46 43 6
53 43 33
59 43 5
68 43 5
92 43 11
94 43 4
97 43 8
132 43 5
141 43 5
144 43 5
147 43 6
158 43 4
167 43 5
195 43 34
205 43 4
220 43 23
234 43 7
248 43 8
257 43 6
290 43 1
292 43 9
296 43 4
315 43 10
320 43 8
340 43 7
361 43 5
364 43 6
412 43 4
414 43 3
415 43 4
421 43 27
427 43 5
447 43 7
455 43 4
474 43 2
479 43 8
488 43 5
490 43 32
492 43 6
1 44 677
2 44 824
3 44 336
4 44 727
5 44 558
6 44 705
7 44 318
8 44 578
9 44 302
10 44 344
11 44 1397
12 44 1103
13 44 732
14 44 1512
15 44 842
16 44 259
17 44 813
18 44 431
19 44 1460
20 44 675
21 44 948
22 44 1930
23 44 642
24 44 551
25 44 456
26 44 1587
27 44 186
28 44 955
29 44 142
30 44 874
31 44 1388
32 44 407
33 44 976
34 44 252
35 44 295
36 44 846
37 44 1353
38 44 953
39 44 428
40 44 377
41 44 580
42 44 265
43 44 919
44 44 966
45 44 825
46 44 1193
47 44 1541
48 44 698
49 44 917
50 44 326
51 44 520
52 44 345
53 44 423
54 44 881
55 44 1152
56 44 777
57 44 545
58 44 518
59 44 1210
60 44 840
61 44 647
62 44 1090
63 44 439
64 44 611
65 44 526
66 44 442
67 44 309
68 44 992
69 44 1568
70 44 584
71 44 605
72 44 830
73 44 1233
74 44 642
75 44 2146
76 44 873
77 44 1131
78 44 776
79 44 835
80 44 1723
81 44 963
82 44 823
83 44 676
84 44 536
85 44 605
86 44 451
87 44 787
88 44 910
89 44 652
90 44 962
91 44 315
92 44 455
93 44 448
94 44 707
95 44 718
96 44 1884
97 44 1151
98 44 452
99 44 505
100 44 312
101 44 786
102 44 1095
103 44 1008
104 44 1127
105 44 194
106 44 552
107 44 1707
108 44 734
109 44 478
110 44 628
111 44 558
112 44 208
113 44 720
114 44 364
115 44 250
116 44 1366
117 44 607
118 44 1694
119 44 614
120 44 761
121 44 497
122 44 863
123 44 1022
124 44 801
125 44 670
126 44 469
127 44 866
128 44 582
129 44 513
130 44 851
131 44 909
132 44 910
133 44 198
134 44 700
135 44 517
136 44 412
137 44 339
138 44 494
139 44 711
140 44 443
141 44 707
142 44 202
143 44 872
144 44 1144
145 44 1137
146 44 1152
147 44 398
148 44 558
149 44 350
150 44 906
151 44 759
152 44 608
153 44 222
154 44 347
155 44 912
156 44 827
157 44 377
158 44 384
159 44 617
160 44 747
161 44 505
162 44 413
163 44 1220
164 44 655
165 44 663
166 44 702
167 44 975
168 44 824
169 44 791
170 44 954
171 44 436
172 44 1099
173 44 335
174 44 822
175 44 594
176 44 576
177 44 1180
178 44 1615
179 44 745
180 44 534
181 44 916
182 44 1063
183 44 554
184 44 463
185 44 912
186 44 320
187 44 1005
188 44 690
189 44 381
190 44 316
191 44 128
192 44 1804
193 44 1260
194 44 257
195 44 627
196 44 1329
197 44 1001
198 44 1158
199 44 660
200 44 666
201 44 1210
202 44 838
203 44 1177
204 44 1428
205 44 1429
206 44 523
207 44 430
208 44 768
209 44 556
210 44 406
211 44 651
212 44 184
213 44 247
214 44 297
215 44 529
216 44 1436
217 44 573
218 44 719
219 44 471
220 44 667
221 44 461
222 44 287
223 44 791
224 44 1413
225 44 1664
226 44 356
227 44 744
228 44 1176
229 44 1687
230 44 371
231 44 373
232 44 897
233 44 442
234 44 376
235 44 190
236 44 1355
237 44 463
238 44 575
239 44 294
240 44 238
241 44 495
242 44 321
243 44 982
244 44 418
245 44 612
246 44 479
247 44 636
248 44 303
249 44 448
250 44 340
251 44 1065
252 44 404
253 44 1435
254 44 517
255 44 699
256 44 266
257 44 957
258 44 501
259 44 728
260 44 598
261 44 407
262 44 624
263 44 317
264 44 1227
265 44 592
266 44 891
267 44 408
268 44 893
269 44 256
270 44 220
271 44 755
272 44 476
273 44 330
274 44 822
275 44 923
276 44 1176
277 44 644
278 44 558
279 44 176
280 44 900
281 44 404
282 44 259
283 44 579
284 44 922
285 44 792
286 44 253
287 44 794
288 44 231
289 44 1505
290 44 868
291 44 954
292 44 414
293 44 913
294 44 876
295 44 1372
296 44 500
297 44 528
298 44 585
299 44 1375
300 44 1426
301 44 437
302 44 1036
303 44 592
304 44 462
305 44 486
306 44 915
307 44 1041
308 44 442
309 44 715
310 44 656
311 44 911
312 44 1757
313 44 380
314 44 1278
315 44 316
316 44 430
317 44 935
318 44 615
319 44 1100
320 44 729
321 44 620
322 44 397
323 44 355
324 44 341
325 44 730
326 44 333
327 44 684
328 44 341
329 44 258
330 44 1039
331 44 1173
332 44 973
333 44 655
334 44 430
335 44 181
336 44 1222
337 44 743
338 44 740
339 44 748
340 44 396
341 44 725
342 44 647
343 44 660
344 44 602
345 44 1693
346 44 1342
347 44 1264
348 44 875
349 44 1209
350 44 508
351 44 561
352 44 928
353 44 798
354 44 316
355 44 635
356 44 483
357 44 785
358 44 474
359 44 506
360 44 493
361 44 997
362 44 1194
363 44 173
364 44 1204
365 44 401
366 44 740
367 44 284
368 44 659
369 44 1571
370 44 235
371 44 549
372 44 787
373 44 325
374 44 612
375 44 790
376 44 419
377 44 280
378 44 1166
379 44 749
380 44 324
381 44 741
382 44 581
383 44 2252
384 44 425
385 44 619
386 44 747
387 44 1444
388 44 845
389 44 499
390 44 1382
391 44 692
392 44 722
393 44 963
394 44 1067
395 44 892
396 44 375
397 44 1414
398 44 339
399 44 1000
400 44 852
401 44 502
402 44 886
403 44 508
404 44 321
405 44 1079
406 44 1233
407 44 649
408 44 457
409 44 350
410 44 971
411 44 1107
412 44 1060
413 44 1051
414 44 891
415 44 364
416 44 643
417 44 507
418 44 1039
419 44 671
420 44 468
421 44 550
422 44 563
423 44 1184
424 44 129
425 44 484
426 44 993
427 44 338
428 44 839
429 44 675
430 44 1012
431 44 810
432 44 628
433 44 582
434 44 460
435 44 875
436 44 530
437 44 707
438 44 1214
439 44 614
440 44 987
441 44 1073
442 44 381
443 44 602
444 44 1329
445 44 559
446 44 782
447 44 1036
448 44 753
449 44 668
450 44 692
451 44 879
452 44 707
453 44 707
454 44 344
455 44 596
456 44 363
457 44 594
458 44 608
459 44 505
460 44 824
461 44 818
462 44 663
463 44 458
464 44 350
465 44 618
466 44 572
467 44 636
468 44 688
469 44 409
470 44 1226
471 44 510
472 44 854
473 44 1356
474 44 756
475 44 923
476 44 673
477 44 854
478 44 1274
479 44 477
480 44 1207
481 44 623
482 44 923
483 44 839
484 44 778
485 44 1256
486 44 429
487 44 2434
488 44 601
489 44 722
490 44 1001
491 44 574
492 44 642
493 44 913
494 44 601
495 44 516
496 44 203
497 44 1012
498 44 318
499 44 759
500 44 1540
1 45 77
2 45 74
3 45 208
4 45 180
5 45 52
6 45 35
8 45 171
9 45 51
10 45 76
11 45 83
12 45 78
13 45 5
14 45 248
15 45 181
16 45 7
17 45 116
18 45 110
19 45 119
20 45 84
21 45 26
22 45 241
23 45 32
24 45 6
25 45 116
26 45 115
27 45 52
28 45 142
29 45 159
30 45 4
31 45 106
32 45 30
33 45 126
34 45 33
35 45 117
36 45 262
37 45 71
38 45 41
39 45 257
40 45 136
41 45 4
42 45 44
43 45 22
44 45 84
45 45 106
46 45 121
47 45 126
48 45 34
49 45 141
50 45 62
51 45 40
52 45 8
53 45 112
54 45 4
55 45 83
56 45 55
57 45 182
58 45 226
59 45 213
60 45 132
61 45 111
62 45 61
63 45 82
64 45 47
65 45 67
66 45 5
67 45 117
68 45 122
69 45 110
70 45 77
71 45 29
72 45 131
73 45 45
74 45 140
75 45 86
76 45 9
77 45 169
79 45 149
80 45 56
81 45 22
82 45 268
83 45 57
84 45 100
85 45 73
86 45 127
87 45 113
88 45 79
89 45 110
90 45 121
91 45 139
92 45 146
93 45 13
94 45 113
95 45 36
96 45 70
97 45 280
98 45 76
99 45 294
100 45 17
101 45 48
102 45 98
103 45 6
104 45 299
105 45 41
106 45 23
107 45 104
108 45 58
109 45 24
110 45 3
111 45 17
112 45 37
113 45 4
114 45 138
115 45 67
116 45 340
117 45 115
118 45 58
119 45 5
120 45 29
121 45 12
122 45 32
123 45 5
124 45 6
125 45 124
126 45 135
127 45 123
128 45 164
129 45 132
130 45 98
131 45 142
132 45 135
133 45 31
134 45 49
135 45 114
136 45 43
137 45 105
138 45 133
139 45 33
140 45 42
141 45 82
142 45 46
143 45 34
144 45 24
145 45 124
146 45 7
147 45 22
148 45 26
149 45 345
150 45 91
151 45 6
152 45 173
153 45 32
154 45 36
155 45 178
156 45 146
157 45 170
158 45 250
159 45 58
160 45 104
161 45 101
162 45 47
163 45 99
164 45 189
165 45 63
166 45 94
167 45 47
168 45 79
169 45 35
170 45 79
171 45 273
172 45 115
173 45 162
174 45 101
175 45 96
176 45 79
177 45 10
178 45 8
179 45 82
180 45 205
181 45 108
182 45 141
183 45 60
184 45 4
185 45 58
186 45 25
187 45 82
188 45 64
189 45 97
190 45 38
191 45 50
192 45 31
193 45 105
194 45 127
195 45 348
196 45 2
197 45 24
198 45 108
199 45 90
200 45 199
201 45 109
202 45 57
203 45 30
204 45 56
205 45 113
206 45 18
207 45 63
208 45 34
209 45 12
210 45 25
211 45 4
212 45 60
213 45 124
214 45 94
215 45 77
216 45 128
217 45 149
220 45 114
221 45 56
222 45 51
223 45 5
225 45 25
227 45 38
228 45 76
229 45 45
230 45 20
231 45 153
232 45 40
233 45 127
234 45 140
235 45 93
236 45 80
237 45 46
238 45 64
239 45 32
240 45 127
241 45 124
242 45 121
243 45 143
244 45 13
245 45 152
246 45 157
247 45 24
248 45 2
249 45 125
250 45 176
251 45 125
252 45 17
253 45 96
254 45 89
255 45 70
256 45 160
257 45 132
258 45 167
259 45 62
260 45 41
261 45 42
262 45 93
263 45 80
264 45 4
265 45 170
266 45 136
267 45 24
268 45 114
269 45 47
270 45 86
271 45 4
272 45 174
273 45 63
274 45 112
275 45 25
276 45 56
277 45 105
278 45 128
279 45 72
280 45 80
281 45 222
282 45 7
283 45 125
284 45 196
285 45 41
286 45 121
287 45 58
288 45 76
289 45 126
290 45 80
291 45 160
292 45 71
293 45 135
294 45 129
295 45 19
296 45 135
297 45 71
298 45 32
299 45 90
300 45 100
301 45 162
302 45 123
303 45 114
304 45 64
305 45 150
306 45 168
307 45 164
308 45 153
309 45 94
310 45 343
311 45 4
312 45 51
313 45 11
314 45 88
315 45 11
316 45 3
317 45 50
318 45 17
319 45 144
320 45 2
321 45 91
322 45 53
323 45 31
324 45 78
325 45 15
326 45 38
327 45 52
328 45 73
329 45 77
330 45 110
331 45 10
332 45 126
333 45 103
334 45 82
335 45 93
336 45 194
337 45 23
338 45 125
339 45 58
340 45 112
341 45 36
342 45 55
343 45 16
344 45 67
345 45 93
346 45 142
347 45 31
348 45 240
349 45 27
350 45 94
351 45 59
352 45 4
353 45 6
354 45 79
355 45 70
357 45 127
358 45 58
359 45 25
360 45 76
361 45 90
362 45 24
363 45 67
364 45 297
365 45 45
366 45 131
367 45 86
368 45 69
369 45 136
370 45 50
371 45 1
372 45 221
374 45 160
375 45 65
376 45 90
377 45 158
378 45 61
379 45 30
380 45 175
381 45 17
382 45 75
383 45 73
384 45 192
385 45 75
386 45 27
387 45 138
388 45 7
389 45 66
390 45 122
391 45 33
392 45 102
394 45 56
396 45 53
397 45 29
398 45 15
399 45 7
400 45 64
401 45 19
402 45 21
403 45 17
404 45 72
405 45 63
406 45 158
407 45 220
408 45 155
409 45 161
410 45 48
411 45 60
412 45 96
413 45 29
414 45 97
415 45 2
417 45 218
418 45 76
419 45 156
420 45 118
421 45 21
422 45 129
423 45 180
424 45 40
425 45 27
426 45 121
427 45 88
428 45 111
429 45 20
430 45 29
431 45 185
433 45 123
434 45 22
435 45 64
436 45 20
437 45 109
438 45 240
439 45 123
440 45 25
441 45 114
442 45 40
443 45 90
444 45 214
445 45 79
446 45 19
447 45 2
448 45 9
450 45 62
451 45 101
452 45 85
453 45 2
454 45 4
455 45 227
456 45 163
457 45 132
458 45 160
459 45 46
460 45 141
461 45 121
462 45 136
463 45 179
464 45 21
465 45 41
466 45 7
467 45 72
468 45 75
469 45 198
470 45 30
471 45 56
472 45 44
473 45 81
474 45 169
475 45 140
476 45 241
477 45 68
478 45 157
479 45 73
480 45 49
481 45 151
482 45 98
483 45 6
484 45 64
485 45 7
486 45 202
487 45 36
488 45 87
489 45 126
490 45 65
492 45 6
493 45 126
494 45 17
495 45 60
496 45 205
497 45 22
498 45 91
499 45 8
1 46 144
2 46 296
3 46 377
4 46 1726
5 46 755
6 46 307
7 46 385
8 46 198
9 46 972
10 46 179
11 46 414
12 46 790
13 46 1408
14 46 236
15 46 2421
16 46 748
17 46 1434
18 46 2036
19 46 1167
20 46 985
21 46 658
22 46 2465
23 46 662
24 46 1380
25 46 491
26 46 455
27 46 565
28 46 1472
29 46 1215
30 46 1259
31 46 1942
32 46 439
33 46 298
34 46 1096
35 46 788
36 46 1129
37 46 1781
38 46 670
39 46 1581
40 46 277
41 46 1365
42 46 928
43 46 1102
44 46 758
45 46 892
46 46 1014
47 46 1276
48 46 296
49 46 755
50 46 501
51 46 772
52 46 535
53 46 1993
54 46 361
55 46 295
56 46 1613
57 46 100
58 46 1244
59 46 987
60 46 776
61 46 212
62 46 1563
63 46 207
64 46 737
65 46 810
66 46 912
67 46 788
68 46 178
69 46 336
70 46 410
71 46 633
72 46 509
73 46 298
74 46 542
75 46 1492
76 46 719
77 46 2161
78 46 790
79 46 59
80 46 1336
81 46 2012
82 46 531
83 46 1711
84 46 891
85 46 430
86 46 167
87 46 1346
88 46 1014
89 46 365
90 46 514
91 46 208
92 46 487
93 46 482
94 46 1273
95 46 320
96 46 414
97 46 1596
98 46 152
99 46 742
100 46 787
101 46 1755
102 46 1402
103 46 2382
104 46 858
105 46 546
106 46 253
107 46 1787
108 46 746
109 46 326
110 46 101
111 46 1403
112 46 691
113 46 215
114 46 948
115 46 1014
116 46 844
117 46 913
118 46 165
119 46 167
120 46 255
121 46 1128
122 46 1701
123 46 2113
124 46 395
125 46 352
126 46 210
127 46 956
128 46 1082
129 46 670
130 46 339
131 46 808
132 46 1467
133 46 394
134 46 1370
135 46 1072
136 46 2078
137 46 925
138 46 1406
139 46 533
140 46 565
141 46 593
142 46 536
143 46 658
144 46 1684
145 46 1791
146 46 476
147 46 364
148 46 242
149 46 633
150 46 642
151 46 302
152 46 974
153 46 386
154 46 137
155 46 699
156 46 1304
157 46 745
158 46 675
159 46 243
160 46 906
161 46 665
162 46 563
163 46 922
164 46 944
165 46 596
166 46 1172
167 46 2015
168 46 193
169 46 285
170 46 1740
171 46 1188
172 46 468
173 46 588
174 46 1568
175 46 641
176 46 770
177 46 1253
178 46 470
179 46 2506
180 46 715
181 46 853
182 46 131
183 46 345
184 46 1004
185 46 519
186 46 1776
187 46 613
188 46 1876
189 46 2415
190 46 1240
191 46 916
192 46 417
193 46 1096
194 46 1456
195 46 2500
196 46 1983
197 46 1182
198 46 647
199 46 787
200 46 171
201 46 485
202 46 1153
203 46 2336
204 46 1383
205 46 405
206 46 644
207 46 1150
208 46 745
209 46 655
210 46 899
211 46 167
212 46 413
213 46 1432
214 46 690
215 46 1178
216 46 1776
217 46 236
218 46 1320
219 46 1768
220 46 1389
221 46 789
222 46 1136
223 46 1378
224 46 680
225 46 268
226 46 1134
227 46 316
228 46 555
229 46 386
230 46 756
231 46 562
232 46 1614
233 46 2363
234 46 248
235 46 180
236 46 1104
237 46 822
238 46 1617
239 46 112
240 46 872
241 46 1132
242 46 610
243 46 1016
244 46 1014
245 46 252
246 46 936
247 46 2939
248 46 745
249 46 1199
250 46 1389
251 46 429
252 46 1168
253 46 1550
254 46 1818
255 46 551
256 46 1429
257 46 1046
258 46 2418
259 46 126
260 46 731
261 46 394
262 46 1824
263 46 606
264 46 868
265 46 1769
266 46 1345
267 46 165
268 46 1377
269 46 1537
270 46 882
271 46 1700
272 46 1368
273 46 294
274 46 277
275 46 268
276 46 551
277 46 849
278 46 244
279 46 679
280 46 1028
281 46 653
282 46 282
283 46 306
284 46 185
285 46 1387
286 46 1166
287 46 1227
288 46 963
289 46 1719
290 46 1088
291 46 1319
292 46 1188
293 46 2869
294 46 394
295 46 1292
296 46 116
297 46 1069
298 46 860
299 46 1022
300 46 561
301 46 171
302 46 327
303 46 783
304 46 1199
305 46 1431
306 46 1083
307 46 1572
308 46 429
309 46 1095
310 46 589
311 46 1357
312 46 133
313 46 1108
314 46 283
315 46 1698
316 46 1823
317 46 1263
318 46 669
319 46 513
320 46 857
321 46 1672
322 46 630
323 46 143
324 46 614
325 46 57
326 46 1265
327 46 528
328 46 485
329 46 1197
330 46 964
331 46 1976
332 46 322
333 46 841
334 46 236
335 46 1319
336 46 2539
337 46 280
338 46 723
339 46 1090
340 46 249
341 46 292
342 46 706
343 46 603
344 46 591
345 46 223
346 46 218
347 46 927
348 46 2688
349 46 500
350 46 365
351 46 1430
352 46 203
353 46 220
354 46 609
355 46 791
356 46 253
357 46 458
358 46 883
359 46 690
360 46 2669
361 46 2301
362 46 689
363 46 1064
364 46 1585
365 46 538
366 46 223
367 46 566
368 46 1343
369 46 334
370 46 1876
371 46 30
372 46 464
373 46 737
374 46 1062
375 46 2887
376 46 905
377 46 875
378 46 709
379 46 299
380 46 349
381 46 992
382 46 266
383 46 447
384 46 691
385 46 2987
386 46 1492
387 46 307
388 46 361
389 46 2781
390 46 1861
391 46 279
392 46 366
393 46 889
394 46 1386
395 46 1102
396 46 636
397 46 2093
398 46 857
399 46 286
400 46 541
401 46 299
402 46 286
403 46 660
404 46 404
405 46 1119
406 46 441
407 46 454
408 46 161
409 46 218
410 46 843
411 46 168
412 46 179
413 46 903
414 46 205
415 46 1556
416 46 2320
417 46 348
418 46 152
419 46 339
420 46 503
421 46 224
422 46 800
423 46 2491
424 46 829
425 46 365
426 46 342
427 46 538
428 46 1004
429 46 1411
430 46 307
431 46 2198
432 46 942
433 46 724
434 46 2549
435 46 485
436 46 827
437 46 1036
438 46 421
439 46 1907
440 46 1552
441 46 1554
442 46 628
443 46 1163
444 46 1958
445 46 266
446 46 998
447 46 249
448 46 1397
449 46 2387
450 46 838
451 46 860
452 46 1295
453 46 314
454 46 788
455 46 612
456 46 766
457 46 427
458 46 653
459 46 1564
460 46 2299
461 46 1342
462 46 893
463 46 1436
464 46 858
465 46 778
466 46 332
467 46 862
468 46 145
469 46 1235
470 46 530
471 46 1668
472 46 1675
473 46 328
474 46 271
475 46 1287
476 46 298
477 46 710
478 46 511
479 46 252
480 46 302
481 46 1680
482 46 931
483 46 384
484 46 805
485 46 1086
486 46 1734
487 46 1386
488 46 1380
489 46 373
490 46 1610
491 46 1390
492 46 1160
493 46 2928
494 46 650
495 46 174
496 46 2648
497 46 1106
498 46 1891
499 46 342
500 46 274
1 47 502
2 47 1209
3 47 647
7 47 1376
8 47 1180
10 47 922
11 47 849
12 47 1278
14 47 488
15 47 1678
19 47 64
20 47 931
21 47 1089
22 47 592
25 47 507
26 47 616
29 47 180
32 47 689
33 47 783
36 47 4
37 47 7
40 47 758
43 47 1372
44 47 1610
46 47 658
51 47 7
55 47 1077
57 47 733
60 47 626
61 47 1605
63 47 854
67 47 1548
68 47 688
69 47 1941
70 47 384
71 47 1225
72 47 678
73 47 631
74 47 997
75 47 818
78 47 954
79 47 1189
82 47 1422
85 47 556
86 47 1090
87 47 59
88 47 197
89 47 868
90 47 613
91 47 2301
93 47 647
96 47 996
98 47 1442
99 47 565
106 47 1006
108 47 807
109 47 1342
110 47 291
113 47 174
114 47 60
115 47 806
116 47 861
118 47 1224
119 47 574
120 47 490
124 47 604
125 47 791
126 47 477
129 47 1053
130 47 771
139 47 1387
141 47 1208
145 47 561
146 47 1219
147 47 1030
148 47 418
149 47 1365
151 47 806
152 47 830
154 47 963
155 47 613
156 47 433
159 47 908
164 47 900
165 47 2446
168 47 1265
171 47 798
172 47 1326
173 47 928
174 47 422
175 47 704
178 47 469
179 47 319
182 47 726
183 47 787
185 47 721
187 47 395
189 47 71
192 47 603
195 47 6
197 47 1218
199 47 128
200 47 1482
201 47 1396
205 47 1027
211 47 1124
214 47 1066
217 47 1584
220 47 2159
221 47 1010
225 47 424
226 47 4
228 47 1098
229 47 1550
230 47 1237
231 47 979
234 47 1136
235 47 1075
236 47 1809
238 47 24
239 47 932
242 47 1025
243 47 583
245 47 940
246 47 921
250 47 2097
251 47 800
255 47 650
257 47 724
259 47 998
261 47 873
262 47 11
263 47 11
265 47 257
266 47 460
267 47 305
268 47 72
273 47 936
274 47 721
275 47 1480
276 47 1128
278 47 577
280 47 161
281 47 5
282 47 858
283 47 687
284 47 865
285 47 677
286 47 18
288 47 764
291 47 4
294 47 1110
296 47 966
298 47 1403
299 47 156
301 47 982
302 47 762
303 47 1288
307 47 19
308 47 1482
310 47 829
312 47 692
314 47 738
319 47 694
320 47 810
321 47 6
323 47 970
324 47 3
325 47 306
330 47 509
332 47 816
334 47 1197
337 47 622
338 47 1503
340 47 888
342 47 906
343 47 1304
344 47 485
345 47 856
346 47 1932
347 47 687
349 47 566
350 47 1035
352 47 1593
353 47 1050
354 47 8
355 47 122
356 47 420
357 47 999
366 47 734
367 47 2
369 47 1178
371 47 1511
372 47 681
376 47 801
377 47 304
378 47 683
380 47 338
382 47 1048
383 47 1127
384 47 1198
385 47 923
386 47 2199
387 47 1033
389 47 5
391 47 630
392 47 1009
393 47 749
395 47 1577
399 47 961
400 47 1035
401 47 727
402 47 1446
404 47 1201
405 47 8
406 47 733
407 47 727
408 47 1185
409 47 772
411 47 856
412 47 1299
413 47 27
414 47 2162
415 47 554
417 47 440
418 47 967
419 47 592
420 47 477
421 47 1681
425 47 607
426 47 831
428 47 856
430 47 1420
431 47 3
433 47 737
435 47 924
438 47 1111
439 47 4
441 47 4
445 47 779
446 47 111
447 47 1628
453 47 333
454 47 160
455 47 1160
457 47 1357
458 47 793
460 47 72
462 47 1089
465 47 65
466 47 997
468 47 1036
470 47 1187
471 47 769
473 47 1162
474 47 341
476 47 936
477 47 26
478 47 930
479 47 864
480 47 631
485 47 145
486 47 313
489 47 736
490 47 114
495 47 468
499 47 547
500 47 1073
4 48 3998
5 48 1706
6 48 1267
7 48 6
9 48 2309
11 48 59
12 48 4
13 48 2271
14 48 6
15 48 769
16 48 1659
17 48 2048
18 48 2104
19 48 1974
20 48 731
21 48 9
22 48 2430
23 48 1462
24 48 2832
26 48 21
27 48 971
28 48 2989
29 48 1546
30 48 2703
31 48 562
32 48 346
33 48 72
34 48 3301
35 48 2338
36 48 2868
37 48 1953
38 48 2402
39 48 2780
40 48 4
41 48 2762
42 48 1770
43 48 1105
44 48 526
45 48 1820
46 48 1750
47 48 3732
48 48 1202
49 48 2627
50 48 1607
51 48 1305
52 48 859
53 48 2095
54 48 1921
55 48 171
56 48 2560
58 48 1788
59 48 1797
60 48 1253
62 48 2412
63 48 11
64 48 1300
65 48 1685
66 48 1583
67 48 155
69 48 26
70 48 265
72 48 700
74 48 65
75 48 1666
76 48 1569
77 48 3187
78 48 322
80 48 3901
81 48 3585
82 48 7
83 48 3331
84 48 2135
85 48 126
86 48 35
87 48 2594
88 48 634
89 48 4
90 48 202
91 48 25
92 48 2811
93 48 269
94 48 1413
95 48 1314
96 48 64
97 48 2782
99 48 30
100 48 2048
101 48 2538
102 48 3203
103 48 2554
104 48 2978
105 48 923
107 48 3740
108 48 8
111 48 1784
112 48 1657
113 48 10
114 48 1435
115 48 1541
116 48 6
117 48 1575
118 48 8
120 48 101
121 48 1577
122 48 2274
123 48 2592
124 48 35
125 48 121
127 48 1933
128 48 3911
129 48 74
130 48 7
131 48 2599
132 48 2880
133 48 1167
134 48 1684
135 48 2740
136 48 2165
137 48 1866
138 48 1678
139 48 101
140 48 1284
141 48 6
142 48 956
143 48 2480
144 48 2290
145 48 1840
147 48 28
148 48 5
150 48 3032
152 48 237
153 48 1207
154 48 6
155 48 471
156 48 1643
157 48 1806
158 48 3091
159 48 26
160 48 2037
161 48 1771
162 48 1253
163 48 2149
164 48 250
165 48 71
166 48 2711
167 48 1971
169 48 1219
170 48 1915
171 48 1068
174 48 1867
175 48 28
176 48 1043
177 48 3551
178 48 95
179 48 4006
180 48 3232
181 48 2859
184 48 1571
185 48 140
186 48 1794
188 48 2437
189 48 2560
190 48 1572
191 48 1915
192 48 57
193 48 1997
194 48 2661
195 48 2049
196 48 3264
197 48 228
198 48 1706
199 48 3231
202 48 1933
203 48 2320
204 48 1431
205 48 173
206 48 1647
207 48 1899
208 48 2060
209 48 1640
210 48 1188
212 48 935
213 48 1540
214 48 24
215 48 2604
216 48 4803
218 48 1868
219 48 3322
220 48 2241
221 48 163
222 48 1909
223 48 2809
224 48 1928
226 48 2758
227 48 1323
228 48 141
230 48 192
231 48 64
232 48 2548
233 48 2552
236 48 394
237 48 2719
238 48 1280
240 48 1860
241 48 2816
242 48 584
243 48 1165
244 48 2624
245 48 5
246 48 1746
247 48 2558
248 48 2961
249 48 2653
250 48 466
251 48 918
252 48 992
253 48 3012
254 48 2156
255 48 444
256 48 2822
257 48 331
258 48 2354
260 48 2513
261 48 111
262 48 2988
263 48 990
264 48 4946
265 48 1758
266 48 1792
268 48 2537
269 48 1313
270 48 868
271 48 3473
272 48 1031
273 48 23
275 48 4
276 48 159
277 48 1551
278 48 22
279 48 1425
280 48 655
281 48 2908
282 48 4
285 48 41
286 48 2564
287 48 1788
288 48 1530
289 48 4845
290 48 1914
291 48 3037
292 48 2174
293 48 1896
295 48 4086
297 48 1401
298 48 549
299 48 1403
300 48 2267
301 48 111
302 48 22
303 48 132
304 48 1877
305 48 3004
306 48 6671
307 48 1477
309 48 2974
310 48 9
311 48 2202
313 48 926
314 48 6
315 48 1391
316 48 3374
317 48 2795
318 48 1298
319 48 4
320 48 184
321 48 2580
322 48 1161
323 48 8
324 48 970
326 48 1539
327 48 2921
328 48 1513
329 48 1635
330 48 165
331 48 1888
332 48 27
333 48 1612
335 48 1012
336 48 3253
337 48 14
338 48 126
339 48 2863
340 48 6
341 48 1300
343 48 96
344 48 51
345 48 89
346 48 5
347 48 143
348 48 3608
350 48 5
351 48 2212
352 48 7
354 48 1019
355 48 3126
356 48 198
357 48 22
358 48 1592
359 48 1644
360 48 2074
361 48 2882
362 48 2590
363 48 2980
364 48 2815
365 48 1279
367 48 1071
368 48 1710
369 48 4
370 48 1855
372 48 63
373 48 2119
374 48 1835
375 48 2807
376 48 475
377 48 127
378 48 1768
379 48 1319
381 48 2484
383 48 65
385 48 907
386 48 782
388 48 1905
389 48 2105
390 48 2083
391 48 159
392 48 104
393 48 5
394 48 1546
395 48 251
396 48 1235
397 48 2253
398 48 1739
399 48 7
400 48 220
402 48 3
403 48 1742
404 48 7
405 48 2053
406 48 36
408 48 29
410 48 2127
411 48 6
413 48 4104
414 48 3
415 48 1720
416 48 1721
418 48 10
419 48 51
421 48 51
422 48 3236
423 48 3309
424 48 2136
425 48 59
426 48 70
427 48 3230
428 48 81
429 48 1709
430 48 34
431 48 2261
432 48 2892
433 48 72
434 48 2870
435 48 2
436 48 2501
437 48 2914
438 48 5
439 48 2987
440 48 6187
441 48 3879
442 48 1172
443 48 2186
444 48 2969
445 48 120
446 48 1886
447 48 31
448 48 1511
449 48 1784
450 48 1107
451 48 1923
452 48 1796
453 48 5
454 48 1191
455 48 188
456 48 1858
458 48 30
459 48 1240
460 48 3253
461 48 2132
462 48 1374
463 48 3009
464 48 1352
465 48 2616
467 48 2902
468 48 28
469 48 3111
471 48 3229
472 48 2612
474 48 5
475 48 1329
477 48 2055
478 48 76
479 48 32
481 48 2759
482 48 1783
483 48 1913
484 48 2021
485 48 2389
486 48 2245
487 48 3932
488 48 3020
489 48 21
490 48 2481
491 48 2016
492 48 3387
493 48 1999
494 48 2556
496 48 2008
497 48 1799
498 48 3941
499 48 44
1 49 8
2 49 1387
4 49 1336
10 49 1614
11 49 501
13 49 748
15 49 2362
17 49 5
18 49 616
22 49 1926
25 49 2149
26 49 47
28 49 685
30 49 705
31 49 1143
32 49 206
34 49 440
36 49 1127
37 49 1560
39 49 1066
40 49 1585
46 49 1196
47 49 1555
49 49 311
53 49 632
55 49 115
56 49 638
57 49 1312
58 49 1200
59 49 592
61 49 519
62 49 206
67 49 472
68 49 105
69 49 840
71 49 742
72 49 1185
74 49 775
75 49 2468
77 49 413
79 49 327
80 49 774
81 49 412
82 49 777
83 49 27
87 49 565
89 49 1756
91 49 195
92 49 534
94 49 411
96 49 1092
97 49 927
100 49 1051
101 49 523
103 49 1295
104 49 1790
106 49 790
107 49 1192
108 49 671
109 49 118
110 49 1124
113 49 1689
114 49 829
116 49 583
123 49 304
126 49 1286
128 49 1024
130 49 943
131 49 831
132 49 663
135 49 1124
139 49 25
141 49 866
145 49 1390
146 49 858
147 49 72
149 49 880
150 49 909
152 49 925
156 49 792
158 49 1424
164 49 985
165 49 1425
166 49 607
171 49 698
172 49 83
173 49 1079
175 49 1323
177 49 622
179 49 508
180 49 980
181 49 1896
183 49 1249
186 49 28
187 49 837
189 49 1087
192 49 993
193 49 6
194 49 1229
195 49 952
196 49 527
197 49 841
201 49 87
202 49 24
203 49 6
205 49 956
211 49 549
214 49 775
216 49 1082
217 49 656
219 49 368
220 49 1084
221 49 1574
223 49 25
225 49 397
231 49 1268
233 49 1442
234 49 153
236 49 1537
241 49 1042
245 49 1068
247 49 540
249 49 701
251 49 901
253 49 95
254 49 124
255 49 1342
256 49 1208
258 49 1385
259 49 482
262 49 574
264 49 218
265 49 562
266 49 863
268 49 549
271 49 732
272 49 361
275 49 799
278 49 566
281 49 1250
284 49 223
289 49 1007
290 49 339
291 49 1418
293 49 818
294 49 1324
295 49 501
296 49 1103
298 49 1307
300 49 1884
302 49 708
305 49 1883
306 49 1075
307 49 879
309 49 339
310 49 1232
311 49 339
312 49 1431
315 49 703
316 49 1114
317 49 546
319 49 1137
320 49 500
325 49 219
327 49 713
331 49 1204
332 49 667
336 49 1060
343 49 20
344 49 591
345 49 833
346 49 816
348 49 1658
349 49 934
350 49 567
352 49 1268
353 49 1098
357 49 1621
360 49 803
361 49 1006
364 49 972
366 49 3
369 49 604
371 49 502
372 49 1353
374 49 91
375 49 1014
376 49 1828
380 49 867
381 49 658
383 49 798
384 49 843
385 49 1432
386 49 1029
387 49 748
389 49 1379
390 49 569
393 49 1548
395 49 1221
397 49 1473
399 49 818
401 49 709
402 49 805
404 49 107
406 49 1222
407 49 223
409 49 1962
410 49 202
413 49 466
414 49 5
415 49 769
417 49 1003
418 49 1500
420 49 2204
421 49 1363
422 49 961
423 49 1084
426 49 1383
430 49 3233
431 49 423
434 49 481
435 49 656
438 49 808
439 49 586
441 49 987
444 49 607
445 49 352
447 49 586
448 49 346
452 49 577
455 49 1931
457 49 189
460 49 1413
462 49 1173
463 49 1212
469 49 607
470 49 1181
471 49 832
473 49 512
474 49 919
476 49 1566
478 49 1017
481 49 273
486 49 1556
487 49 707
488 49 1563
489 49 783
490 49 853
491 49 350
492 49 299
493 49 913
496 49 662
498 49 1470
499 49 807
500 49 820
1 50 1472
2 50 1842
3 50 1318
4 50 1811
5 50 970
6 50 1375
7 50 1656
8 50 1456
9 50 1107
10 50 1973
11 50 1658
12 50 2043
13 50 1179
14 50 1961
15 50 811
16 50 2124
17 50 1342
18 50 898
19 50 1421
20 50 1633
21 50 1535
22 50 2718
23 50 562
24 50 1792
25 50 2048
26 50 2696
27 50 819
28 50 3081
29 50 2008
30 50 2213
31 50 1243
32 50 1154
33 50 2311
34 50 3993
35 50 3413
36 50 1294
37 50 1953
38 50 1025
39 50 2392
40 50 1240
41 50 1761
42 50 1686
43 50 2948
44 50 1677
45 50 2377
46 50 2228
47 50 3786
48 50 1384
49 50 1490
50 50 519
51 50 1893
52 50 765
53 50 948
54 50 1023
55 50 1352
56 50 974
57 50 1751
58 50 1915
59 50 2082
60 50 1077
61 50 1861
62 50 2429
63 50 2010
64 50 2631
65 50 999
66 50 2520
67 50 3969
68 50 1503
69 50 2342
70 50 1445
71 50 1545
72 50 1432
73 50 2320
74 50 2266
75 50 1681
76 50 1752
77 50 1736
78 50 1858
79 50 2579
80 50 1560
81 50 1222
82 50 1453
83 50 718
84 50 1879
85 50 2051
86 50 2445
87 50 2931
88 50 1198
89 50 1156
90 50 945
91 50 2737
92 50 2040
93 50 2104
94 50 1797
95 50 1325
96 50 1280
97 50 1166
98 50 1080
99 50 2442
100 50 778
101 50 1122
102 50 617
103 50 1910
104 50 1952
105 50 822
106 50 1583
107 50 1230
108 50 954
109 50 1227
110 50 2053
111 50 2317
112 50 869
113 50 1708
114 50 1717
115 50 2727
116 50 2423
117 50 748
118 50 1182
119 50 1666
120 50 1722
121 50 820
122 50 1610
123 50 1145
124 50 2668
125 50 1158
126 50 2459
127 50 1637
128 50 3121
129 50 1727
130 50 3128
131 50 1250
132 50 3104
133 50 981
134 50 1893
135 50 1664
136 50 2080
137 50 845
138 50 1816
139 50 708
140 50 740
141 50 1878
142 50 796
143 50 1065
144 50 1286
145 50 3259
146 50 2409
147 50 2006
148 50 1504
149 50 1301
150 50 2100
151 50 1131
152 50 3648
153 50 870
154 50 1268
155 50 2252
156 50 2097
157 50 1596
158 50 2653
159 50 866
160 50 1880
161 50 1528
162 50 754
163 50 957
164 50 3665
165 50 1720
166 50 2601
167 50 638
168 50 1361
169 50 1393
170 50 2332
171 50 2724
172 50 1676
173 50 2905
174 50 2810
175 50 2060
176 50 1672
177 50 1846
178 50 2443
179 50 1785
180 50 546
181 50 2290
182 50 553
183 50 1406
184 50 2516
185 50 1895
186 50 1246
187 50 1609
188 50 1277
189 50 3492
190 50 1140
191 50 1263
192 50 2276
193 50 934
194 50 1322
195 50 1676
196 50 2035
197 50 2706
198 50 1200
199 50 1101
200 50 3112
201 50 1750
202 50 713
203 50 1734
204 50 2223
205 50 1736
206 50 1354
207 50 1447
208 50 1341
209 50 1359
210 50 652
211 50 1509
212 50 536
213 50 1490
214 50 1005
215 50 727
216 50 2449
217 50 2664
218 50 1440
219 50 1357
220 50 3422
221 50 1342
222 50 1330
223 50 1835
224 50 871
225 50 1451
226 50 1075
227 50 1410
228 50 2380
229 50 1461
230 50 1588
231 50 1515
232 50 2003
233 50 1584
234 50 1766
235 50 2370
236 50 3435
237 50 750
238 50 1823
239 50 924
240 50 1899
241 50 1698
242 50 2126
243 50 1061
244 50 1185
245 50 1892
246 50 2182
247 50 1552
248 50 1809
249 50 1268
250 50 1794
251 50 2662
252 50 932
253 50 1464
254 50 1621
255 50 2515
256 50 1348
257 50 1925
258 50 2519
259 50 947
260 50 1502
261 50 1265
262 50 1908
263 50 782
264 50 1667
265 50 2085
266 50 2040
267 50 1508
268 50 2975
269 50 1586
270 50 600
271 50 1975
272 50 2943
273 50 2887
274 50 1451
275 50 1035
276 50 2348
277 50 763
278 50 2581
279 50 447
280 50 1209
281 50 1961
282 50 2761
283 50 1107
284 50 654
285 50 782
286 50 910
287 50 1280
288 50 2671
289 50 2373
290 50 2044
291 50 1989
292 50 1146
293 50 2614
294 50 942
295 50 2362
296 50 2497
297 50 1852
298 50 991
299 50 1147
300 50 1513
301 50 1697
302 50 1417
303 50 1088
304 50 1494
305 50 3529
306 50 2375
307 50 1731
308 50 1067
309 50 1007
310 50 3153
311 50 1798
312 50 3862
313 50 872
314 50 2292
315 50 1601
316 50 1696
317 50 1942
318 50 1005
319 50 1334
320 50 1185
321 50 1080
322 50 711
323 50 1348
324 50 810
325 50 1611
326 50 1035
327 50 2076
328 50 504
329 50 1003
330 50 1707
331 50 2197
332 50 1439
333 50 817
334 50 1574
335 50 1065
336 50 2489
337 50 3197
338 50 2394
339 50 1269
340 50 939
341 50 1368
342 50 1217
343 50 712
344 50 2124
345 50 368
346 50 2312
347 50 2193
348 50 1628
349 50 2805
350 50 2151
351 50 2422
352 50 2538
353 50 1182
354 50 795
355 50 1194
356 50 917
357 50 2965
358 50 1271
359 50 1357
360 50 2238
361 50 1005
362 50 932
363 50 1258
364 50 1167
365 50 740
366 50 1843
367 50 825
368 50 2039
369 50 1967
370 50 1395
371 50 1253
372 50 1708
373 50 1829
374 50 917
375 50 1518
376 50 1843
377 50 1464
378 50 1953
379 50 1424
380 50 1860
381 50 2026
382 50 1785
383 50 3112
384 50 3679
385 50 3381
386 50 1599
387 50 1573
388 50 1028
389 50 1917
390 50 1943
391 50 1437
392 50 2468
393 50 2054
394 50 1654
395 50 2362
396 50 651
397 50 2381
398 50 1250
399 50 2089
400 50 894
401 50 3140
402 50 1058
403 50 1386
404 50 2227
405 50 943
406 50 3349
407 50 2316
408 50 2468
409 50 1806
410 50 1398
411 50 1157
412 50 3155
413 50 3087
414 50 2159
415 50 1918
416 50 1903
417 50 1061
418 50 1003
419 50 738
420 50 2094
421 50 2141
422 50 2222
423 50 2415
424 50 612
425 50 1846
426 50 1703
427 50 2362
428 50 2070
429 50 495
430 50 1793
431 50 2643
432 50 1808
433 50 2115
434 50 1770
435 50 983
436 50 1013
437 50 791
438 50 1645
439 50 1935
440 50 843
441 50 2276
442 50 702
443 50 1228
444 50 2900
445 50 1844
446 50 1131
447 50 2307
448 50 1966
449 50 1836
450 50 2216
451 50 1627
452 50 840
453 50 1148
454 50 1078
455 50 2568
456 50 1593
457 50 1517
458 50 2080
459 50 747
460 50 2353
461 50 1007
462 50 1750
463 50 2248
464 50 939
465 50 1368
466 50 824
467 50 1573
468 50 604
469 50 2629
470 50 4008
471 50 1889
472 50 1934
473 50 3447
474 50 2051
475 50 1094
476 50 2031
477 50 1755
478 50 1733
479 50 2369
480 50 2371
481 50 2227
482 50 1916
483 50 1002
484 50 1967
485 50 1210
486 50 974
487 50 2042
488 50 1048
489 50 2200
490 50 1184
491 50 1254
492 50 927
493 50 2577
494 50 1223
495 50 2353
496 50 1967
497 50 1198
498 50 863
499 50 1823
500 50 1924
2 51 2
9 51 6
14 51 8
18 51 4
23 51 5
30 51 23
34 51 3
50 51 3
51 51 17
53 51 6
60 51 5
71 51 4
80 51 7
82 51 24
88 51 6
107 51 4
109 51 2
110 51 3
120 51 35
124 51 2
126 51 7
127 51 20
129 51 33
131 51 6
145 51 8
155 51 7
158 51 3
160 51 2
166 51 6
175 51 5
177 51 2
179 51 5
180 51 3
187 51 3
197 51 7
203 51 3
206 51 6
209 51 4
212 51 4
215 51 6
222 51 3
239 51 8
242 51 19
245 51 3
251 51 5
257 51 8
258 51 5
262 51 6
265 51 5
267 51 5
278 51 4
280 51 6
281 51 4
282 51 6
286 51 2
287 51 4
294 51 5
296 51 8
302 51 22
307 51 4
308 51 8
310 51 4
312 51 6
321 51 4
322 51 7
328 51 4
331 51 6
332 51 28
340 51 3
342 51 5
346 51 8
359 51 8
361 51 10
369 51 31
377 51 2
380 51 8
386 51 24
396 51 5
399 51 26
403 51 5
407 51 4
413 51 7
416 51 5
425 51 5
432 51 4
433 51 4
434 51 5
435 51 5
437 51 4
439 51 5
440 51 7
442 51 2
445 51 7
446 51 6
449 51 5
451 51 25
453 51 3
454 51 6
459 51 19
460 51 6
467 51 8
469 51 4
470 51 5
476 51 12
478 51 5
485 51 3
487 51 9
496 51 3
499 51 1
1 52 1694
2 52 1829
3 52 1233
4 52 2279
5 52 695
6 52 1355
7 52 4560
8 52 2265
9 52 2103
10 52 3857
11 52 1891
12 52 2493
13 52 1115
14 52 1946
15 52 5148
16 52 1497
17 52 1472
18 52 2446
19 52 1505
20 52 2166
21 52 1964
22 52 1762
23 52 1339
24 52 1792
25 52 3175
26 52 1904
27 52 1233
28 52 2269
29 52 2515
30 52 2568
31 52 1368
32 52 1943
33 52 2988
34 52 3471
35 52 1704
36 52 3374
37 52 2890
38 52 1289
39 52 3047
40 52 2766
41 52 1851
42 52 1838
43 52 2194
44 52 3755
45 52 2276
46 52 2647
47 52 2496
48 52 1332
49 52 3314
50 52 934
51 52 1440
52 52 1255
53 52 2353
54 52 1487
55 52 3345
56 52 1467
57 52 3865
58 52 2396
59 52 2314
60 52 2931
61 52 2653
62 52 2105
63 52 2004
64 52 2547
65 52 690
66 52 1510
67 52 2994
68 52 1383
69 52 2167
70 52 1782
71 52 2546
72 52 2063
73 52 2323
74 52 2421
75 52 1958
76 52 1971
77 52 2861
78 52 2121
79 52 2310
80 52 3536
81 52 1935
82 52 3582
83 52 2094
84 52 818
85 52 2584
86 52 2548
87 52 2344
88 52 1642
89 52 3154
90 52 1912
91 52 1948
92 52 642
93 52 2607
94 52 1459
95 52 1331
96 52 2838
97 52 3127
98 52 3053
99 52 3052
100 52 3646
101 52 2489
102 52 1853
103 52 4326
104 52 2568
105 52 1256
106 52 1742
107 52 3335
108 52 3251
109 52 682
110 52 2645
111 52 1555
112 52 1223
113 52 2895
114 52 3138
115 52 1713
116 52 2840
117 52 1058
118 52 2348
119 52 1773
120 52 2992
121 52 1365
122 52 1031
123 52 3856
124 52 2109
125 52 2251
126 52 2509
127 52 1696
128 52 4090
129 52 2797
130 52 1916
131 52 2300
132 52 2290
133 52 1779
134 52 1652
135 52 2041
136 52 2343
137 52 1701
138 52 2261
139 52 1506
140 52 1277
141 52 1893
142 52 1228
143 52 1293
144 52 1589
145 52 1817
146 52 2749
147 52 3456
148 52 3145
149 52 1476
150 52 2166
151 52 1838
152 52 3347
153 52 1762
154 52 2558
155 52 1511
156 52 3535
157 52 1507
158 52 1659
159 52 771
160 52 1209
161 52 2013
162 52 1257
163 52 1475
164 52 3422
165 52 2673
166 52 3088
167 52 1081
168 52 2116
169 52 1291
170 52 1963
171 52 3631
172 52 2644
173 52 3767
174 52 2334
175 52 1600
176 52 2376
177 52 2587
178 52 1750
179 52 3781
180 52 2626
181 52 2104
182 52 2905
183 52 3375
184 52 1444
185 52 1982
186 52 2309
187 52 2127
188 52 733
189 52 2963
190 52 1662
191 52 1738
192 52 2215
193 52 1825
194 52 2490
195 52 2964
196 52 3370
197 52 2143
198 52 1162
199 52 968
200 52 2694
201 52 2638
202 52 2604
203 52 2805
204 52 1604
205 52 3327
206 52 1236
207 52 1300
208 52 2146
209 52 1315
210 52 1551
211 52 2531
212 52 1184
213 52 959
214 52 3126
215 52 1386
216 52 1443
217 52 1950
218 52 1356
219 52 3235
220 52 2609
221 52 4140
222 52 2117
223 52 4102
224 52 2042
225 52 3352
226 52 923
227 52 1367
228 52 2973
229 52 2135
230 52 2837
231 52 3357
232 52 2442
233 52 2710
234 52 1668
235 52 3814
236 52 3038
237 52 1409
238 52 2035
239 52 2124
240 52 1058
241 52 1993
242 52 2926
243 52 2183
244 52 1451
245 52 2183
246 52 1350
247 52 2885
248 52 1627
249 52 2800
250 52 2728
251 52 2934
252 52 1228
253 52 2662
254 52 2549
255 52 3105
256 52 2529
257 52 2989
258 52 2176
259 52 1935
260 52 3138
261 52 1447
262 52 2107
263 52 558
264 52 1497
265 52 2886
266 52 3589
267 52 2781
268 52 2398
269 52 1819
270 52 726
271 52 3228
272 52 2281
273 52 2028
274 52 3008
275 52 2856
276 52 2957
277 52 1090
278 52 1788
279 52 1640
280 52 1635
281 52 3878
282 52 1796
283 52 2421
284 52 2031
285 52 2500
286 52 2016
287 52 1914
288 52 1669
289 52 1506
290 52 2444
291 52 2487
292 52 1396
293 52 3158
294 52 3341
295 52 2031
296 52 2422
297 52 525
298 52 3006
299 52 1704
300 52 2005
301 52 2852
302 52 3072
303 52 1186
304 52 1302
305 52 2051
306 52 3821
307 52 2622
308 52 1834
309 52 1249
310 52 3788
311 52 2178
312 52 1945
313 52 1210
314 52 2056
315 52 3576
316 52 3063
317 52 1948
318 52 1539
319 52 3638
320 52 3249
321 52 1513
322 52 1660
323 52 2643
324 52 563
325 52 2071
326 52 1714
327 52 2706
328 52 932
329 52 1306
330 52 1794
331 52 2011
332 52 2949
333 52 1058
334 52 1308
335 52 2084
336 52 1621
337 52 1328
338 52 2334
339 52 1462
340 52 1589
341 52 1320
342 52 3766
343 52 1610
344 52 2171
345 52 2524
346 52 2248
347 52 1850
348 52 2888
349 52 4334
350 52 2235
351 52 2125
352 52 2734
353 52 1843
354 52 568
355 52 993
356 52 2105
357 52 2072
358 52 1329
359 52 1345
360 52 1997
361 52 2682
362 52 1289
363 52 1420
364 52 3115
365 52 1209
366 52 2736
367 52 587
368 52 1442
369 52 1696
370 52 1236
371 52 2011
372 52 2484
373 52 1234
374 52 3006
375 52 3096
376 52 4701
377 52 717
378 52 1134
379 52 1346
380 52 2364
381 52 3285
382 52 2497
383 52 4167
384 52 2527
385 52 1986
386 52 2372
387 52 2994
388 52 1530
389 52 3754
390 52 3165
391 52 1646
392 52 1742
393 52 1854
394 52 1617
395 52 3670
396 52 1646
397 52 3029
398 52 1588
399 52 2561
400 52 1859
401 52 2901
402 52 2828
403 52 1349
404 52 2620
405 52 2241
406 52 3070
407 52 2439
408 52 2584
409 52 1864
410 52 3873
411 52 3824
412 52 1462
413 52 2944
414 52 2350
415 52 3616
416 52 1160
417 52 2496
418 52 3412
419 52 2617
420 52 3096
421 52 2810
422 52 1738
423 52 1630
424 52 1893
425 52 2092
426 52 4386
427 52 1300
428 52 2417
429 52 882
430 52 2553
431 52 1626
432 52 1344
433 52 1833
434 52 3056
435 52 2630
436 52 1983
437 52 2175
438 52 1467
439 52 2165
440 52 2345
441 52 2454
442 52 1732
443 52 2219
444 52 2599
445 52 1115
446 52 1952
447 52 3564
448 52 3550
449 52 1222
450 52 1550
451 52 1818
452 52 2129
453 52 2411
454 52 1962
455 52 2432
456 52 1563
457 52 2614
458 52 3011
459 52 2085
460 52 1398
461 52 1244
462 52 2927
463 52 1277
464 52 1105
465 52 2230
466 52 2945
467 52 2552
468 52 2487
469 52 3082
470 52 4291
471 52 2810
472 52 2454
473 52 2768
474 52 1290
475 52 2377
476 52 2425
477 52 1801
478 52 2874
479 52 2934
480 52 2345
481 52 1402
482 52 1584
483 52 1566
484 52 1534
485 52 1958
486 52 2822
487 52 2538
488 52 2087
489 52 3140
490 52 4318
491 52 1538
492 52 1884
493 52 3077
494 52 1165
495 52 2097
496 52 2353
497 52 2227
498 52 2614
499 52 2257
500 52 1521
1 53 436
2 53 590
3 53 783
4 53 689
5 53 500
6 53 447
7 53 492
8 53 1153
9 53 319
10 53 483
11 53 339
12 53 391
13 53 684
14 53 750
15 53 1703
16 53 409
17 53 654
18 53 490
19 53 447
20 53 1133
21 53 949
22 53 817
23 53 788
24 53 793
25 53 1172
26 53 640
27 53 306
28 53 601
29 53 753
30 53 1398
31 53 452
32 53 819
33 53 328
34 53 528
35 53 876
36 53 583
37 53 437
38 53 207
39 53 833
40 53 776
41 53 842
42 53 614
43 53 844
44 53 977
45 53 1417
46 53 603
47 53 1068
48 53 444
49 53 630
50 53 235
51 53 343
52 53 185
53 53 501
54 53 573
55 53 577
56 53 667
57 53 266
58 53 766
59 53 619
60 53 759
61 53 583
62 53 479
63 53 841
64 53 866
65 53 463
66 53 737
67 53 1003
68 53 742
69 53 514
70 53 1133
71 53 312
72 53 356
73 53 869
74 53 711
75 53 1521
76 53 515
77 53 321
78 53 930
79 53 739
80 53 970
81 53 1067
82 53 1365
83 53 708
84 53 207
85 53 1099
86 53 679
87 53 1014
88 53 878
89 53 425
90 53 448
91 53 935
92 53 777
93 53 332
94 53 1226
95 53 477
96 53 1112
97 53 846
98 53 796
99 53 1285
100 53 1039
101 53 335
102 53 693
103 53 1122
104 53 377
105 53 318
106 53 568
107 53 606
108 53 587
109 53 242
110 53 538
111 53 743
112 53 244
113 53 449
114 53 2121
115 53 683
116 53 1970
117 53 920
118 53 455
119 53 1264
120 53 917
121 53 1222
122 53 563
123 53 1236
124 53 380
125 53 704
126 53 633
127 53 776
128 53 1545
129 53 1368
130 53 1201
131 53 448
132 53 610
133 53 610
134 53 503
135 53 733
136 53 175
137 53 489
138 53 172
139 53 472
140 53 606
141 53 1336
142 53 352
143 53 206
144 53 609
145 53 1034
146 53 423
147 53 286
148 53 425
149 53 408
150 53 262
151 53 619
152 53 575
153 53 634
154 53 664
155 53 246
156 53 412
157 53 702
158 53 720
159 53 987
160 53 514
161 53 776
162 53 688
163 53 563
164 53 628
165 53 957
166 53 689
167 53 358
168 53 970
169 53 502
170 53 317
171 53 588
172 53 1289
173 53 906
174 53 624
175 53 380
176 53 389
177 53 758
178 53 961
179 53 333
180 53 971
181 53 1096
182 53 907
183 53 801
184 53 766
185 53 384
186 53 365
187 53 713
188 53 284
189 53 953
190 53 859
191 53 940
192 53 756
193 53 449
194 53 559
195 53 995
196 53 1059
197 53 301
198 53 500
199 53 744
200 53 810
201 53 1212
202 53 745
203 53 851
204 53 416
205 53 1073
206 53 628
207 53 191
208 53 232
209 53 619
210 53 381
211 53 847
212 53 478
213 53 818
214 53 665
215 53 454
216 53 367
217 53 402
218 53 606
219 53 675
220 53 797
221 53 2377
222 53 266
223 53 790
224 53 799
225 53 858
226 53 356
227 53 492
228 53 625
229 53 656
230 53 862
231 53 479
232 53 853
233 53 296
234 53 307
235 53 583
236 53 735
237 53 625
238 53 452
239 53 862
240 53 1482
241 53 764
242 53 714
243 53 1036
244 53 409
245 53 978
246 53 632
247 53 325
248 53 254
249 53 774
250 53 367
251 53 1223
252 53 631
253 53 881
254 53 807
255 53 492
256 53 531
257 53 748
258 53 443
259 53 724
260 53 629
261 53 379
262 53 934
263 53 297
264 53 736
265 53 1200
266 53 429
267 53 395
268 53 1018
269 53 498
270 53 584
271 53 1758
272 53 558
273 53 1035
274 53 372
275 53 873
276 53 627
277 53 915
278 53 277
279 53 1053
280 53 859
281 53 759
282 53 1320
283 53 345
284 53 492
285 53 558
286 53 765
287 53 768
288 53 717
289 53 392
290 53 816
291 53 478
292 53 420
293 53 732
294 53 1068
295 53 644
296 53 829
297 53 681
298 53 573
299 53 515
300 53 1440
301 53 584
302 53 601
303 53 835
304 53 205
305 53 762
306 53 365
307 53 1255
308 53 756
309 53 787
310 53 1045
311 53 377
312 53 768
313 53 575
314 53 669
315 53 1042
316 53 843
317 53 365
318 53 801
319 53 855
320 53 826
321 53 592
322 53 331
323 53 660
324 53 336
325 53 974
326 53 871
327 53 799
328 53 300
329 53 488
330 53 539
331 53 500
332 53 647
333 53 937
334 53 353
335 53 464
336 53 1305
337 53 428
338 53 736
339 53 221
340 53 328
341 53 505
342 53 430
343 53 459
344 53 727
345 53 436
346 53 468
347 53 547
348 53 1081
349 53 791
350 53 841
351 53 356
352 53 767
353 53 615
354 53 290
355 53 704
356 53 893
357 53 1114
358 53 140
359 53 623
360 53 712
361 53 597
362 53 492
363 53 397
364 53 864
365 53 667
366 53 859
367 53 291
368 53 457
369 53 580
370 53 621
371 53 711
372 53 531
373 53 797
374 53 685
375 53 408
376 53 656
377 53 962
378 53 837
379 53 513
380 53 817
381 53 996
382 53 345
383 53 769
384 53 1807
385 53 762
386 53 621
387 53 588
388 53 575
389 53 461
390 53 996
391 53 457
392 53 350
393 53 687
394 53 147
395 53 481
396 53 336
397 53 519
398 53 505
399 53 798
400 53 817
401 53 1234
402 53 893
403 53 638
404 53 841
405 53 282
406 53 1516
407 53 1610
408 53 686
409 53 347
410 53 612
411 53 1422
412 53 683
413 53 918
414 53 352
415 53 599
416 53 1078
417 53 684
418 53 596
419 53 1408
420 53 1122
421 53 1283
422 53 829
423 53 1319
424 53 292
425 53 982
426 53 1322
427 53 405
428 53 863
429 53 325
430 53 717
431 53 1227
432 53 863
433 53 801
434 53 635
435 53 967
436 53 1590
437 53 472
438 53 1385
439 53 969
440 53 623
441 53 934
442 53 349
443 53 240
444 53 543
445 53 786
446 53 362
447 53 2054
448 53 1091
449 53 1087
450 53 650
451 53 763
452 53 1674
453 53 712
454 53 681
455 53 817
456 53 718
457 53 1228
458 53 406
459 53 669
460 53 739
461 53 1127
462 53 770
463 53 990
464 53 230
465 53 262
466 53 790
467 53 539
468 53 221
469 53 562
470 53 800
471 53 1016
472 53 826
473 53 1021
474 53 782
475 53 792
476 53 764
477 53 560
478 53 1992
479 53 434
480 53 800
481 53 431
482 53 655
483 53 549
484 53 296
485 53 410
486 53 440
487 53 1029
488 53 917
489 53 1002
490 53 415
491 53 1474
492 53 765
493 53 748
494 53 425
495 53 192
496 53 659
497 53 364
498 53 792
499 53 982
500 53 625
2 54 727
4 54 858
10 54 1532
13 54 1515
15 54 1905
17 54 108
18 54 1073
22 54 1529
25 54 837
28 54 378
30 54 1722
31 54 759
34 54 573
35 54 123
36 54 1105
37 54 756
39 54 302
40 54 519
46 54 934
47 54 1491
49 54 323
53 54 1068
56 54 657
57 54 306
58 54 1158
59 54 514
61 54 147
62 54 1237
67 54 1104
69 54 2597
71 54 160
72 54 1173
75 54 1917
77 54 2553
79 54 886
80 54 919
81 54 1166
82 54 1074
83 54 214
87 54 944
89 54 1223
92 54 1341
94 54 1442
96 54 1089
97 54 673
100 54 1071
101 54 1369
103 54 865
104 54 332
106 54 1771
107 54 995
108 54 3
113 54 903
114 54 756
116 54 927
123 54 670
126 54 1338
128 54 802
130 54 195
131 54 1023
132 54 340
135 54 690
145 54 959
146 54 367
149 54 1066
150 54 558
152 54 967
156 54 842
158 54 634
164 54 989
165 54 1264
166 54 1251
171 54 1667
173 54 1142
175 54 81
177 54 339
179 54 646
180 54 1649
181 54 718
183 54 690
187 54 5
189 54 839
194 54 1243
195 54 2460
196 54 1171
197 54 994
202 54 24
205 54 1619
208 54 9
216 54 1340
219 54 1257
220 54 669
221 54 680
225 54 812
231 54 1429
233 54 1195
236 54 909
241 54 678
247 54 658
249 54 1129
251 54 803
253 54 69
254 54 254
255 54 1375
256 54 1329
258 54 1289
262 54 888
264 54 659
265 54 893
266 54 851
268 54 857
271 54 614
272 54 1252
275 54 1049
281 54 843
289 54 1355
290 54 189
291 54 3058
293 54 1143
294 54 69
295 54 859
298 54 1600
300 54 1129
302 54 1035
305 54 2059
306 54 568
307 54 1451
309 54 1021
310 54 2166
311 54 1022
312 54 548
315 54 822
316 54 1683
317 54 1693
319 54 253
320 54 1770
327 54 358
331 54 2085
332 54 1181
336 54 559
344 54 544
348 54 832
349 54 2736
352 54 3
353 54 54
357 54 457
360 54 687
361 54 1091
364 54 673
369 54 1136
371 54 839
372 54 1819
374 54 245
375 54 765
376 54 1485
380 54 1087
381 54 441
383 54 766
384 54 1221
385 54 1231
386 54 562
387 54 256
389 54 897
390 54 1102
393 54 693
395 54 701
397 54 932
401 54 1634
402 54 1038
406 54 1349
409 54 1127
410 54 187
413 54 954
415 54 1556
417 54 173
418 54 1369
420 54 866
422 54 1041
423 54 583
426 54 590
430 54 1264
431 54 1542
434 54 1337
435 54 1080
438 54 976
439 54 875
441 54 1435
444 54 405
447 54 588
448 54 404
452 54 721
455 54 1524
460 54 1664
462 54 1864
463 54 1228
469 54 2405
470 54 811
471 54 717
474 54 511
476 54 1551
478 54 318
481 54 406
486 54 1945
487 54 1634
488 54 795
489 54 2030
490 54 1252
491 54 1147
492 54 936
493 54 1025
496 54 441
498 54 1280
499 54 475
500 54 2262
2 55 939
4 55 1501
9 55 9
10 55 971
13 55 596
15 55 733
17 55 192
18 55 661
22 55 542
25 55 408
28 55 870
30 55 1003
31 55 996
34 55 779
35 55 220
36 55 938
37 55 1257
39 55 386
40 55 1044
46 55 1903
47 55 406
49 55 899
53 55 706
56 55 1273
57 55 365
58 55 741
59 55 779
61 55 226
62 55 646
67 55 738
69 55 588
71 55 221
72 55 1465
74 55 102
75 55 1071
77 55 1028
79 55 534
80 55 527
81 55 841
82 55 723
83 55 166
87 55 679
89 55 1306
92 55 1419
94 55 796
96 55 1284
97 55 828
100 55 1149
101 55 348
103 55 713
104 55 747
106 55 1492
107 55 466
108 55 168
110 55 29
113 55 1042
114 55 1397
116 55 991
122 55 46
123 55 419
126 55 744
128 55 1043
130 55 294
131 55 638
132 55 814
134 55 7
135 55 390
138 55 3
145 55 1078
146 55 273
149 55 2031
150 55 684
152 55 620
156 55 943
158 55 575
164 55 634
165 55 1547
166 55 600
170 55 69
171 55 924
173 55 377
175 55 364
176 55 6
177 55 528
179 55 1906
180 55 849
181 55 941
183 55 494
186 55 6
187 55 147
189 55 1033
193 55 106
194 55 550
195 55 787
196 55 886
197 55 879
198 55 5
202 55 300
203 55 132
205 55 796
208 55 219
211 55 5
214 55 5
216 55 1253
217 55 183
219 55 1032
220 55 452
221 55 788
223 55 150
225 55 654
231 55 906
233 55 1383
236 55 1616
241 55 381
245 55 111
247 55 1222
249 55 768
251 55 446
253 55 496
254 55 192
255 55 871
256 55 554
258 55 1091
259 55 157
262 55 602
264 55 1674
265 55 1023
266 55 964
268 55 689
271 55 1267
272 55 1628
275 55 1389
278 55 98
281 55 552
284 55 5
289 55 1325
290 55 432
291 55 680
293 55 1174
294 55 328
295 55 570
296 55 168
298 55 1616
300 55 645
302 55 1576
305 55 658
306 55 868
307 55 386
309 55 975
310 55 1966
311 55 486
312 55 1545
315 55 573
316 55 632
317 55 366
319 55 390
320 55 874
325 55 8
327 55 571
331 55 664
332 55 1470
336 55 1146
344 55 415
346 55 4
348 55 612
349 55 982
350 55 22
351 55 56
352 55 170
353 55 295
357 55 328
360 55 1270
361 55 950
364 55 776
369 55 440
371 55 478
372 55 406
374 55 281
375 55 761
376 55 992
380 55 688
381 55 897
383 55 508
384 55 713
385 55 777
386 55 710
387 55 790
389 55 572
390 55 1268
393 55 1143
395 55 564
397 55 674
399 55 83
401 55 546
402 55 1473
406 55 1836
409 55 561
410 55 532
413 55 662
415 55 1947
417 55 397
418 55 1143
420 55 362
421 55 157
422 55 854
423 55 1193
426 55 1306
427 55 80
429 55 4
430 55 1038
431 55 550
434 55 576
435 55 455
437 55 31
438 55 483
439 55 492
441 55 989
443 55 5
444 55 415
445 55 31
447 55 434
448 55 597
452 55 630
455 55 785
459 55 3
460 55 1197
462 55 2278
463 55 1101
469 55 907
470 55 428
471 55 1128
474 55 800
476 55 861
478 55 1326
481 55 332
486 55 706
487 55 1447
488 55 577
489 55 733
490 55 2140
491 55 552
492 55 980
493 55 1238
496 55 577
498 55 573
499 55 409
500 55 1168
1 56 994
2 56 9
3 56 1702
4 56 19
5 56 1218
6 56 631
7 56 851
8 56 907
9 56 783
11 56 1037
12 56 1923
14 56 725
16 56 1009
17 56 23
19 56 920
20 56 1284
21 56 1000
23 56 1439
24 56 1350
25 56 6
26 56 1171
27 56 645
29 56 1029
32 56 934
33 56 1256
34 56 2
35 56 103
36 56 27
38 56 325
41 56 1273
42 56 758
43 56 2087
44 56 1908
45 56 1462
47 56 6
48 56 671
49 56 25
50 56 722
51 56 985
52 56 658
54 56 994
55 56 1374
56 56 31
57 56 30
58 56 2
59 56 6
60 56 2105
61 56 34
62 56 1
63 56 1380
64 56 845
65 56 1140
66 56 952
67 56 24
68 56 1450
70 56 1426
71 56 75
73 56 1390
74 56 190
75 56 4
76 56 1081
78 56 1059
79 56 4
82 56 12
83 56 60
84 56 693
85 56 2001
86 56 1150
88 56 476
89 56 31
90 56 837
91 56 636
93 56 1363
94 56 20
95 56 665
98 56 948
99 56 450
100 56 5
102 56 739
104 56 5
105 56 666
107 56 3
108 56 158
109 56 830
110 56 219
111 56 1399
112 56 1020
113 56 10
114 56 5
115 56 946
117 56 1184
118 56 533
119 56 790
120 56 1281
121 56 538
122 56 437
124 56 1105
125 56 777
126 56 4
127 56 719
129 56 768
130 56 21
133 56 257
134 56 1318
136 56 912
137 56 261
138 56 214
139 56 1991
140 56 670
141 56 1346
142 56 676
143 56 313
144 56 446
145 56 22
146 56 1
147 56 1489
148 56 1796
149 56 4
150 56 9
151 56 1363
153 56 278
154 56 793
155 56 594
157 56 764
158 56 10
159 56 1787
160 56 810
161 56 1222
162 56 639
163 56 903
167 56 1398
168 56 1248
169 56 649
170 56 335
171 56 3
172 56 531
173 56 10
174 56 1197
175 56 28
176 56 736
177 56 5
178 56 1546
182 56 1274
184 56 956
185 56 1112
186 56 190
187 56 4
188 56 1104
189 56 3
190 56 797
191 56 758
192 56 1285
193 56 53
197 56 5
198 56 1162
199 56 1616
200 56 871
201 56 493
202 56 54
203 56 106
204 56 1332
206 56 613
207 56 910
208 56 146
209 56 591
210 56 768
211 56 377
212 56 191
213 56 1297
214 56 125
215 56 1361
217 56 173
218 56 343
220 56 7
221 56 5
222 56 1019
223 56 216
224 56 1483
226 56 532
227 56 738
228 56 544
229 56 907
230 56 1825
232 56 537
233 56 23
234 56 1739
235 56 1596
237 56 673
238 56 1314
239 56 1388
240 56 1570
242 56 2485
243 56 686
244 56 1666
245 56 156
246 56 884
247 56 6
248 56 1121
249 56 3
250 56 1235
251 56 20
252 56 576
254 56 24
255 56 3
257 56 762
259 56 133
260 56 847
261 56 971
263 56 630
267 56 711
269 56 1212
270 56 625
272 56 4
273 56 722
274 56 1134
276 56 538
277 56 1128
278 56 619
279 56 1198
280 56 484
281 56 22
282 56 968
283 56 1314
284 56 1564
285 56 618
286 56 1185
287 56 1240
288 56 1013
290 56 54
291 56 28
292 56 854
293 56 5
294 56 56
295 56 12
296 56 204
297 56 1011
299 56 753
301 56 986
302 56 8
303 56 934
304 56 978
306 56 4
307 56 5
308 56 1522
313 56 553
314 56 1241
315 56 3
316 56 7
317 56 4
318 56 691
319 56 82
321 56 1220
322 56 535
323 56 770
324 56 622
325 56 334
326 56 792
327 56 27
328 56 768
329 56 1205
330 56 1336
331 56 6
332 56 3
333 56 1137
334 56 538
335 56 773
337 56 1486
338 56 1069
339 56 1639
340 56 415
341 56 701
342 56 1349
343 56 2050
344 56 5
345 56 1486
346 56 203
347 56 2355
348 56 19
350 56 347
351 56 88
352 56 148
353 56 20
354 56 643
355 56 1531
356 56 714
357 56 6
358 56 1435
359 56 664
361 56 21
362 56 1013
363 56 1289
365 56 700
366 56 1807
367 56 604
368 56 1493
370 56 803
371 56 21
372 56 5
373 56 749
374 56 25
377 56 965
378 56 1294
379 56 741
382 56 1233
384 56 7
387 56 3
388 56 994
390 56 3
391 56 1793
392 56 1562
394 56 742
395 56 6
396 56 542
397 56 6
398 56 418
399 56 180
400 56 1330
403 56 639
404 56 1483
405 56 849
407 56 1310
408 56 1154
409 56 3
410 56 55
411 56 1494
412 56 1483
414 56 460
416 56 948
417 56 73
419 56 1848
420 56 9
421 56 132
422 56 7
424 56 462
425 56 1863
427 56 330
428 56 1663
429 56 494
430 56 5
431 56 28
432 56 588
433 56 1159
434 56 6
435 56 109
436 56 1404
437 56 304
438 56 6
440 56 891
442 56 503
443 56 420
445 56 399
446 56 1414
447 56 7
449 56 931
450 56 807
451 56 751
452 56 8
453 56 543
454 56 647
456 56 735
457 56 1390
458 56 1236
459 56 1279
461 56 574
463 56 57
464 56 838
465 56 447
466 56 1100
467 56 1058
468 56 728
469 56 3
470 56 6
472 56 507
473 56 1110
474 56 5
475 56 889
477 56 1060
479 56 1845
480 56 1440
481 56 8
482 56 659
483 56 967
484 56 611
485 56 1705
486 56 22
491 56 8
492 56 4
493 56 5
494 56 853
495 56 1180
496 56 7
497 56 1193
498 56 31
2 57 2683
4 57 1712
10 57 1804
13 57 1449
15 57 1969
17 57 44
18 57 1259
22 57 1460
25 57 422
28 57 1251
30 57 1114
31 57 1062
34 57 1834
35 57 95
36 57 1656
37 57 1341
39 57 872
40 57 591
46 57 3070
47 57 2048
49 57 1123
53 57 1264
56 57 1460
57 57 288
58 57 1243
59 57 1706
61 57 63
62 57 365
67 57 1682
69 57 1458
71 57 50
72 57 3407
75 57 1317
77 57 1782
79 57 656
80 57 476
81 57 1601
82 57 1134
83 57 207
87 57 2061
89 57 2273
92 57 1893
94 57 1053
96 57 928
97 57 444
100 57 2188
101 57 1313
103 57 1063
104 57 799
106 57 1358
107 57 628
113 57 715
114 57 800
116 57 1553
123 57 1084
126 57 516
128 57 2545
130 57 125
131 57 1926
132 57 1240
135 57 781
145 57 666
146 57 4
149 57 1374
150 57 1943
152 57 3584
156 57 1368
158 57 2121
164 57 3665
165 57 2105
166 57 701
171 57 441
173 57 1135
175 57 94
177 57 1456
179 57 983
180 57 908
181 57 1285
183 57 577
189 57 1106
194 57 1995
195 57 1230
196 57 777
197 57 2736
205 57 2274
216 57 1376
219 57 2393
220 57 1419
221 57 704
225 57 1193
231 57 1910
233 57 1271
236 57 3066
241 57 833
247 57 1359
249 57 751
251 57 1872
253 57 125
254 57 340
255 57 1397
256 57 2001
258 57 910
262 57 1884
264 57 891
265 57 1812
266 57 1292
268 57 2065
271 57 816
272 57 1438
275 57 729
281 57 2189
289 57 1334
290 57 163
291 57 423
293 57 705
294 57 5
295 57 1815
298 57 1880
300 57 2291
302 57 446
305 57 2155
306 57 1863
307 57 969
309 57 698
310 57 1294
311 57 1713
312 57 661
315 57 1909
316 57 1476
317 57 1242
319 57 562
320 57 1764
327 57 962
331 57 802
332 57 466
336 57 1289
344 57 1395
348 57 1378
349 57 2561
353 57 167
357 57 253
360 57 1850
361 57 2870
364 57 428
369 57 2658
371 57 796
372 57 1989
374 57 230
375 57 1229
376 57 1552
380 57 731
381 57 2393
383 57 1679
384 57 1401
385 57 1863
386 57 1612
387 57 301
389 57 1672
390 57 567
393 57 1747
395 57 601
397 57 1000
401 57 1187
402 57 722
406 57 1844
409 57 1455
410 57 229
413 57 1943
415 57 961
417 57 52
418 57 1576
420 57 370
422 57 842
423 57 1349
426 57 2088
430 57 659
431 57 2848
434 57 1614
435 57 637
438 57 1980
439 57 1871
441 57 1908
444 57 429
447 57 2418
448 57 898
452 57 546
455 57 1986
460 57 1690
462 57 793
463 57 2436
469 57 2048
470 57 1807
471 57 1423
474 57 1892
476 57 1787
478 57 1705
481 57 1041
486 57 1554
487 57 1487
488 57 1482
489 57 1258
490 57 1192
491 57 1257
492 57 1942
493 57 733
496 57 452
498 57 757
499 57 495
500 57 1506
2 58 445
4 58 1055
10 58 721
13 58 301
15 58 994
17 58 80
18 58 444
22 58 620
25 58 392
28 58 1033
30 58 534
31 58 936
34 58 1723
35 58 57
36 58 218
37 58 1550
39 58 306
40 58 927
45 58 7
46 58 520
47 58 527
49 58 226
53 58 456
56 58 365
57 58 274
58 58 300
59 58 527
61 58 235
62 58 175
67 58 447
69 58 862
71 58 173
72 58 550
75 58 464
77 58 1036
79 58 402
80 58 359
81 58 505
82 58 307
83 58 141
87 58 590
89 58 840
92 58 649
94 58 139
96 58 335
97 58 479
100 58 595
101 58 318
103 58 340
104 58 1060
106 58 691
107 58 509
108 58 140
113 58 391
114 58 298
116 58 681
123 58 729
126 58 714
128 58 490
130 58 287
131 58 486
132 58 1007
135 58 294
138 58 6
145 58 702
146 58 105
149 58 744
150 58 236
152 58 466
156 58 508
158 58 256
164 58 477
165 58 347
166 58 229
171 58 871
173 58 468
175 58 93
177 58 1048
179 58 294
180 58 609
181 58 539
183 58 393
187 58 92
189 58 537
193 58 100
194 58 559
195 58 438
196 58 362
197 58 628
202 58 76
203 58 74
205 58 487
208 58 68
216 58 990
217 58 23
219 58 494
220 58 432
221 58 625
223 58 23
225 58 690
231 58 268
233 58 906
236 58 845
241 58 285
245 58 7
247 58 950
249 58 880
251 58 344
253 58 143
254 58 177
255 58 411
256 58 554
258 58 251
259 58 3
262 58 439
264 58 939
265 58 722
266 58 503
268 58 610
271 58 739
272 58 213
275 58 223
278 58 8
281 58 816
289 58 1000
290 58 240
291 58 628
293 58 606
294 58 67
295 58 899
296 58 54
298 58 495
300 58 444
302 58 531
305 58 1017
306 58 832
307 58 574
309 58 311
310 58 653
311 58 479
312 58 250
315 58 303
316 58 880
317 58 357
319 58 348
320 58 723
327 58 311
331 58 851
332 58 579
336 58 382
344 58 289
346 58 25
348 58 556
349 58 635
350 58 3
351 58 93
352 58 105
353 58 228
357 58 268
360 58 666
361 58 519
364 58 504
369 58 560
371 58 282
372 58 346
374 58 125
375 58 204
376 58 632
380 58 704
381 58 562
383 58 416
384 58 840
385 58 902
386 58 1189
387 58 269
389 58 447
390 58 332
393 58 503
395 58 266
397 58 594
399 58 20
401 58 548
402 58 239
406 58 608
409 58 670
410 58 220
413 58 720
415 58 520
417 58 200
418 58 619
420 58 356
421 58 18
422 58 272
423 58 398
426 58 482
427 58 5
430 58 780
431 58 375
434 58 322
435 58 1159
438 58 635
439 58 450
441 58 716
444 58 445
445 58 3
447 58 364
448 58 319
452 58 468
455 58 528
460 58 578
462 58 1308
463 58 741
469 58 526
470 58 731
471 58 1464
474 58 373
476 58 751
478 58 597
481 58 258
486 58 386
487 58 327
488 58 229
489 58 631
490 58 963
491 58 386
492 58 632
493 58 600
496 58 407
498 58 296
499 58 513
500 58 662
1 59 1657
2 59 27
3 59 1488
4 59 130
5 59 2057
6 59 1724
7 59 1451
8 59 2256
9 59 1585
10 59 157
11 59 2615
12 59 1728
13 59 61
14 59 2550
15 59 197
16 59 1658
17 59 158
18 59 24
19 59 2522
20 59 2970
21 59 2490
22 59 121
23 59 1490
24 59 2219
25 59 3
26 59 2387
27 59 1182
28 59 120
29 59 2546
30 59 100
31 59 192
32 59 3169
33 59 2717
34 59 142
35 59 93
36 59 88
37 59 118
38 59 1800
39 59 152
40 59 178
41 59 2258
42 59 985
43 59 3308
44 59 1981
45 59 1910
47 59 67
48 59 1641
49 59 84
50 59 1041
51 59 1543
52 59 827
53 59 29
54 59 2074
55 59 1573
56 59 25
57 59 173
58 59 137
59 59 100
60 59 3028
61 59 185
62 59 127
63 59 2365
64 59 912
65 59 1987
66 59 2299
67 59 336
68 59 2073
69 59 122
70 59 2787
71 59 256
72 59 183
73 59 2638
74 59 986
76 59 1875
77 59 48
78 59 2553
79 59 205
80 59 42
81 59 136
82 59 59
83 59 262
84 59 1271
85 59 3474
86 59 3767
87 59 61
88 59 3719
89 59 161
90 59 2394
91 59 1344
92 59 4
93 59 2431
94 59 88
95 59 1758
96 59 69
97 59 146
98 59 2311
99 59 2508
100 59 4
101 59 97
102 59 2120
103 59 170
104 59 156
105 59 1097
106 59 57
107 59 264
108 59 285
109 59 3008
110 59 483
111 59 3255
112 59 2014
113 59 114
114 59 59
115 59 1756
116 59 104
117 59 1494
118 59 2037
119 59 2834
120 59 3653
121 59 1303
122 59 1345
123 59 78
124 59 2774
125 59 1251
126 59 214
127 59 1778
128 59 126
129 59 2791
130 59 302
131 59 218
132 59 121
133 59 1294
134 59 2582
135 59 130
136 59 1415
137 59 2031
138 59 975
139 59 2465
140 59 1405
141 59 3685
142 59 1137
143 59 1761
144 59 1279
145 59 125
146 59 317
147 59 2452
148 59 2805
149 59 200
150 59 54
151 59 2766
152 59 88
153 59 1316
154 59 2329
155 59 2288
156 59 102
157 59 1947
158 59 141
159 59 1468
160 59 2100
161 59 1493
162 59 1485
163 59 2099
164 59 82
165 59 66
166 59 93
167 59 3016
168 59 2496
169 59 1725
170 59 1917
171 59 27
172 59 2282
173 59 172
174 59 3097
175 59 259
176 59 1461
177 59 202
178 59 2872
179 59 353
180 59 5
181 59 5
182 59 2715
183 59 220
184 59 2305
185 59 2794
186 59 2553
187 59 221
188 59 1885
189 59 213
190 59 1553
191 59 1933
192 59 2454
193 59 257
194 59 64
195 59 136
196 59 131
197 59 131
198 59 1173
199 59 1354
200 59 1671
201 59 2267
202 59 531
203 59 741
204 59 2321
205 59 22
206 59 977
207 59 2131
208 59 395
209 59 1050
210 59 1471
211 59 2286
212 59 1319
213 59 2488
214 59 979
215 59 2491
216 59 66
217 59 460
218 59 1323
219 59 219
220 59 79
221 59 166
222 59 868
223 59 1354
224 59 921
225 59 159
226 59 1871
227 59 1823
228 59 1816
229 59 1784
230 59 2370
231 59 135
232 59 2408
233 59 139
234 59 2102
235 59 2452
236 59 42
237 59 1550
238 59 2174
239 59 3004
240 59 1448
241 59 120
242 59 933
243 59 1992
244 59 1448
245 59 1122
246 59 1513
247 59 24
248 59 1810
249 59 137
250 59 1678
251 59 79
252 59 1953
253 59 137
254 59 202
255 59 60
256 59 53
257 59 3056
258 59 145
259 59 858
260 59 1992
261 59 1918
262 59 24
263 59 1137
264 59 187
265 59 5
266 59 106
267 59 3661
268 59 63
269 59 3312
270 59 925
271 59 26
272 59 29
273 59 3627
274 59 2314
275 59 7
276 59 1763
277 59 1563
278 59 1334
279 59 1496
280 59 3921
281 59 109
282 59 3251
283 59 1950
284 59 2508
285 59 1079
286 59 1163
287 59 2117
288 59 1789
289 59 66
290 59 84
291 59 129
292 59 1952
293 59 163
294 59 478
295 59 204
296 59 1245
297 59 1500
298 59 213
299 59 3641
300 59 89
301 59 1907
302 59 119
303 59 3182
304 59 2241
305 59 100
306 59 104
307 59 53
308 59 2413
309 59 160
310 59 193
311 59 161
312 59 225
313 59 1986
314 59 2536
315 59 27
316 59 113
317 59 67
318 59 1242
319 59 115
320 59 4
321 59 1611
322 59 1465
323 59 2254
324 59 1125
325 59 2357
326 59 1531
327 59 133
328 59 1048
329 59 1187
330 59 1931
331 59 150
332 59 113
333 59 1513
334 59 1499
335 59 2101
336 59 9
337 59 1962
338 59 2260
339 59 1068
340 59 2436
341 59 1705
342 59 2682
343 59 2330
344 59 235
345 59 3005
346 59 543
347 59 2571
348 59 92
350 59 996
351 59 404
352 59 472
353 59 263
354 59 1175
355 59 1286
356 59 2922
357 59 222
358 59 2509
359 59 987
360 59 236
361 59 5
362 59 1595
363 59 2383
364 59 170
365 59 1576
366 59 2630
367 59 1161
368 59 1903
369 59 156
370 59 1043
371 59 242
372 59 117
373 59 1833
374 59 207
375 59 4
376 59 157
377 59 2817
378 59 2345
379 59 1731
380 59 125
381 59 128
382 59 1969
383 59 165
384 59 262
385 59 74
386 59 15
387 59 241
388 59 2120
389 59 115
390 59 251
391 59 2344
392 59 2133
393 59 232
394 59 1477
395 59 199
396 59 1482
397 59 111
398 59 1586
399 59 703
400 59 1122
401 59 145
402 59 6
403 59 954
404 59 2827
405 59 1726
406 59 212
407 59 3933
408 59 3757
409 59 121
410 59 208
411 59 2018
412 59 2166
413 59 183
414 59 2537
415 59 16
416 59 1398
417 59 280
418 59 247
419 59 1999
420 59 8
421 59 382
422 59 26
423 59 10
424 59 836
425 59 1880
426 59 77
427 59 873
428 59 2317
429 59 1539
430 59 173
431 59 45
432 59 1720
433 59 2424
434 59 217
435 59 190
436 59 1593
437 59 1594
438 59 150
439 59 31
440 59 1946
441 59 28
442 59 1536
443 59 2951
444 59 102
445 59 1748
446 59 2600
447 59 155
448 59 199
449 59 1472
450 59 1821
451 59 1798
452 59 21
453 59 1912
454 59 1330
455 59 191
456 59 1906
457 59 2637
458 59 2069
459 59 1502
460 59 61
461 59 2085
462 59 79
463 59 50
464 59 1229
465 59 1450
466 59 2136
467 59 1837
468 59 1612
469 59 7
470 59 90
471 59 69
472 59 2399
473 59 1441
474 59 123
475 59 2042
476 59 192
477 59 1040
478 59 305
479 59 2475
480 59 2605
481 59 58
482 59 2064
483 59 2095
484 59 2212
485 59 1558
486 59 80
487 59 22
488 59 129
489 59 40
490 59 237
491 59 54
492 59 120
493 59 143
494 59 1057
495 59 2896
496 59 155
497 59 1522
498 59 1
499 59 147
500 59 70
2 60 317
4 60 790
10 60 296
13 60 1002
15 60 1051
17 60 61
18 60 1316
22 60 645
25 60 892
28 60 1212
30 60 444
31 60 818
34 60 335
35 60 57
36 60 1824
37 60 464
39 60 1349
40 60 260
46 60 1048
47 60 740
49 60 662
53 60 1240
56 60 1021
57 60 206
58 60 936
59 60 683
61 60 28
62 60 537
67 60 748
69 60 445
71 60 224
72 60 674
74 60 9
75 60 1493
77 60 1315
79 60 696
80 60 333
81 60 714
82 60 545
83 60 94
87 60 663
89 60 1788
92 60 275
94 60 504
96 60 335
97 60 469
100 60 988
101 60 358
103 60 402
104 60 1831
106 60 454
107 60 625
108 60 6
113 60 651
114 60 1143
116 60 1085
123 60 490
126 60 642
128 60 1968
130 60 272
131 60 838
132 60 1256
135 60 389
145 60 799
146 60 174
149 60 891
150 60 263
152 60 1696
156 60 378
158 60 657
164 60 1649
165 60 1326
166 60 467
171 60 650
173 60 674
175 60 168
177 60 344
179 60 631
180 60 704
181 60 578
183 60 434
189 60 339
193 60 7
194 60 970
195 60 547
196 60 1162
197 60 524
202 60 2
203 60 10
205 60 861
208 60 7
214 60 4
216 60 764
217 60 5
219 60 1279
220 60 427
221 60 669
225 60 1926
231 60 523
233 60 654
236 60 1081
241 60 387
247 60 447
249 60 548
251 60 614
253 60 202
254 60 272
255 60 815
256 60 918
258 60 321
262 60 1265
264 60 397
265 60 818
266 60 384
268 60 737
271 60 947
272 60 467
275 60 1331
281 60 613
289 60 753
290 60 218
291 60 835
293 60 844
294 60 7
295 60 1043
298 60 552
300 60 648
302 60 269
305 60 878
306 60 1527
307 60 270
309 60 255
310 60 1072
311 60 296
312 60 228
315 60 330
316 60 456
317 60 1072
319 60 462
320 60 1576
327 60 250
331 60 379
332 60 263
336 60 710
344 60 877
348 60 848
349 60 1683
351 60 24
352 60 6
353 60 147
357 60 323
360 60 309
361 60 1003
364 60 474
369 60 898
371 60 496
372 60 451
374 60 215
375 60 642
376 60 900
380 60 615
381 60 336
383 60 625
384 60 418
385 60 1636
386 60 682
387 60 184
389 60 396
390 60 994
393 60 746
395 60 413
397 60 818
401 60 668
402 60 1304
406 60 1135
409 60 1034
410 60 179
413 60 1484
415 60 538
417 60 248
418 60 610
420 60 899
422 60 247
423 60 716
426 60 659
430 60 1058
431 60 331
434 60 870
435 60 1117
438 60 734
439 60 1235
441 60 1029
444 60 414
447 60 736
448 60 420
452 60 568
455 60 310
460 60 1027
462 60 1246
463 60 670
469 60 1801
470 60 859
471 60 832
474 60 642
476 60 1599
478 60 482
481 60 273
486 60 607
487 60 1009
488 60 616
489 60 698
490 60 513
491 60 283
492 60 492
493 60 825
496 60 135
498 60 694
499 60 232
500 60 820
2 61 749
4 61 889
10 61 482
13 61 680
15 61 882
17 61 222
18 61 593
22 61 1282
25 61 1878
28 61 599
30 61 607
31 61 1080
34 61 1309
35 61 315
36 61 1098
37 61 839
39 61 716
40 61 1321
46 61 884
47 61 633
49 61 481
53 61 594
56 61 410
57 61 535
58 61 397
59 61 714
61 61 149
62 61 984
64 61 15
67 61 383
69 61 662
71 61 419
72 61 966
74 61 98
75 61 899
77 61 1363
79 61 1418
80 61 335
81 61 616
82 61 450
83 61 407
87 61 552
89 61 450
92 61 1040
94 61 528
96 61 1102
97 61 728
100 61 779
101 61 768
102 61 3
103 61 905
104 61 1161
106 61 980
107 61 881
108 61 161
110 61 25
113 61 381
114 61 551
116 61 962
122 61 9
123 61 431
126 61 1088
128 61 588
130 61 438
131 61 782
132 61 591
134 61 11
135 61 451
138 61 38
144 61 8
145 61 633
146 61 402
149 61 702
150 61 1199
152 61 1316
156 61 1183
158 61 506
164 61 1527
165 61 911
166 61 457
170 61 42
171 61 1385
173 61 537
175 61 462
177 61 916
179 61 803
180 61 661
181 61 608
183 61 602
186 61 24
187 61 220
189 61 1314
193 61 184
194 61 1256
195 61 682
196 61 826
197 61 1457
202 61 130
203 61 167
205 61 592
208 61 237
214 61 27
216 61 352
217 61 212
219 61 317
220 61 886
221 61 960
223 61 217
225 61 497
231 61 634
233 61 837
236 61 1093
241 61 422
245 61 135
247 61 346
249 61 1172
251 61 1348
253 61 446
254 61 509
255 61 741
256 61 1276
258 61 920
259 61 186
262 61 659
264 61 542
265 61 1493
266 61 1118
268 61 547
271 61 544
272 61 1181
275 61 814
278 61 56
281 61 394
289 61 357
290 61 1007
291 61 975
293 61 460
294 61 723
295 61 914
296 61 194
298 61 837
300 61 1035
302 61 531
305 61 335
306 61 861
307 61 870
309 61 953
310 61 814
311 61 808
312 61 312
315 61 671
316 61 1092
317 61 1372
319 61 864
320 61 1229
327 61 244
331 61 927
332 61 564
336 61 310
344 61 451
346 61 63
348 61 443
349 61 472
350 61 5
351 61 360
352 61 318
353 61 568
357 61 403
360 61 810
361 61 193
364 61 702
369 61 1285
371 61 305
372 61 431
374 61 512
375 61 602
376 61 1121
380 61 696
381 61 550
383 61 386
384 61 337
385 61 1492
386 61 2195
387 61 343
389 61 728
390 61 328
393 61 526
395 61 877
397 61 526
399 61 96
401 61 452
402 61 857
406 61 838
409 61 541
410 61 820
413 61 832
415 61 657
417 61 287
418 61 491
420 61 1921
421 61 112
422 61 401
423 61 332
426 61 1422
427 61 57
429 61 9
430 61 1362
431 61 311
432 61 3
434 61 186
435 61 636
437 61 5
438 61 597
439 61 661
441 61 467
444 61 604
445 61 29
447 61 628
448 61 482
452 61 468
455 61 675
460 61 581
462 61 445
463 61 637
469 61 583
470 61 1175
471 61 1182
474 61 498
476 61 541
478 61 2094
481 61 1020
486 61 678
487 61 1085
488 61 859
489 61 1393
490 61 549
491 61 1035
492 61 851
493 61 464
496 61 1516
498 61 477
499 61 547
500 61 1899
2 62 1411
4 62 1657
10 62 2193
13 62 1132
15 62 1297
17 62 862
18 62 1188
22 62 1196
25 62 1162
28 62 1397
30 62 1624
31 62 2089
34 62 1863
35 62 1021
36 62 676
37 62 2814
39 62 1602
40 62 1865
46 62 1818
47 62 879
49 62 1643
53 62 1231
56 62 2242
57 62 1088
58 62 1853
59 62 2394
61 62 1404
62 62 1308
67 62 2119
69 62 1504
71 62 1331
72 62 1904
74 62 771
75 62 1238
77 62 1046
79 62 1568
80 62 2227
81 62 813
82 62 912
83 62 1514
87 62 1143
89 62 1683
92 62 2367
94 62 780
96 62 816
97 62 1313
100 62 1183
101 62 1805
103 62 1671
104 62 1342
106 62 1325
107 62 2232
108 62 634
110 62 58
113 62 2071
114 62 505
116 62 1613
122 62 84
123 62 824
126 62 1280
128 62 2561
130 62 1393
131 62 879
132 62 1422
134 62 8
135 62 751
138 62 100
144 62 39
145 62 2573
146 62 681
149 62 2250
150 62 1276
152 62 2243
156 62 1116
158 62 1924
164 62 2161
165 62 844
166 62 705
170 62 101
171 62 1610
173 62 1123
175 62 922
177 62 770
179 62 1396
180 62 2013
181 62 1675
183 62 837
186 62 7
187 62 282
189 62 1454
193 62 534
194 62 1666
195 62 776
196 62 1219
197 62 2117
202 62 986
203 62 334
205 62 952
208 62 483
211 62 5
214 62 236
216 62 2099
217 62 711
219 62 1175
220 62 2103
221 62 1819
223 62 581
225 62 867
231 62 1522
233 62 1208
236 62 2228
241 62 733
245 62 147
247 62 2532
249 62 1372
251 62 2039
253 62 602
254 62 1500
255 62 2677
256 62 1717
258 62 913
259 62 262
262 62 682
264 62 1055
265 62 1125
266 62 1049
268 62 1151
271 62 1528
272 62 835
275 62 979
278 62 159
281 62 1602
289 62 2135
290 62 928
291 62 1448
293 62 1605
294 62 244
295 62 1397
296 62 390
298 62 2012
300 62 1076
302 62 1478
305 62 1471
306 62 1685
307 62 1082
309 62 2910
310 62 1739
311 62 1262
312 62 2135
315 62 812
316 62 1640
317 62 634
319 62 2061
320 62 2448
327 62 2284
331 62 2306
332 62 1345
336 62 1561
344 62 1433
345 62 4
346 62 235
348 62 1528
349 62 3996
350 62 163
351 62 304
352 62 572
353 62 1221
357 62 1223
360 62 785
361 62 1380
364 62 1224
369 62 1401
371 62 2053
372 62 1460
374 62 1004
375 62 1769
376 62 785
380 62 1303
381 62 604
383 62 1989
384 62 1468
385 62 1475
386 62 1030
387 62 1286
389 62 936
390 62 659
393 62 1263
395 62 2255
397 62 1278
399 62 422
401 62 1981
402 62 979
406 62 2215
409 62 2611
410 62 1077
413 62 1554
415 62 1141
417 62 289
418 62 1568
420 62 1251
421 62 191
422 62 2067
423 62 1658
426 62 1988
427 62 278
429 62 6
430 62 2580
431 62 720
434 62 1881
435 62 881
437 62 4
438 62 1597
439 62 708
440 62 20
441 62 1808
444 62 2242
445 62 61
447 62 1311
448 62 1629
452 62 936
455 62 2269
460 62 2145
462 62 992
463 62 1576
469 62 868
470 62 1465
471 62 1421
474 62 1051
476 62 2130
478 62 1213
481 62 977
486 62 1433
487 62 3014
488 62 1667
489 62 1269
490 62 1375
491 62 1051
492 62 1005
493 62 1511
496 62 1299
498 62 1134
499 62 1381
500 62 2022
2 63 8
4 63 1465
6 63 593
8 63 6
13 63 1177
15 63 911
17 63 441
18 63 695
20 63 8
22 63 2303
23 63 186
27 63 578
28 63 447
30 63 1227
31 63 1789
33 63 10
34 63 858
35 63 1103
36 63 327
37 63 557
38 63 353
39 63 1933
42 63 297
45 63 414
46 63 1039
47 63 931
48 63 574
49 63 645
50 63 98
52 63 696
53 63 702
54 63 341
56 63 389
58 63 605
59 63 1162
62 63 724
64 63 606
66 63 162
67 63 8
68 63 5
72 63 524
75 63 2547
76 63 157
77 63 644
80 63 395
81 63 896
82 63 8
83 63 422
84 63 5
87 63 1190
89 63 265
92 63 253
94 63 648
95 63 575
97 63 460
100 63 485
101 63 605
102 63 618
103 63 570
104 63 1340
105 63 602
107 63 749
114 63 828
116 63 39
117 63 482
122 63 357
123 63 1027
128 63 453
131 63 480
132 63 509
133 63 259
134 63 848
135 63 464
136 63 114
138 63 1136
140 63 232
141 63 3
142 63 582
143 63 394
144 63 1133
145 63 431
150 63 290
152 63 1530
153 63 248
156 63 771
157 63 752
158 63 817
160 63 36
162 63 231
163 63 8
164 63 1480
165 63 472
166 63 966
167 63 593
169 63 557
170 63 1216
171 63 794
173 63 304
176 63 336
177 63 438
179 63 572
180 63 700
181 63 600
184 63 174
186 63 771
189 63 960
190 63 539
193 63 966
194 63 957
195 63 458
196 63 929
197 63 1790
198 63 793
202 63 1018
203 63 1404
204 63 417
205 63 333
206 63 672
207 63 5
208 63 647
209 63 706
210 63 240
211 63 9
212 63 157
216 63 1364
219 63 672
220 63 524
221 63 494
222 63 108
223 63 740
224 63 9
227 63 562
232 63 228
233 63 725
236 63 739
237 63 349
240 63 102
241 63 467
242 63 22
247 63 754
248 63 329
249 63 1210
251 63 515
252 63 363
253 63 716
254 63 587
255 63 382
256 63 945
258 63 840
261 63 6
262 63 942
263 63 482
264 63 455
265 63 788
266 63 770
268 63 1145
269 63 500
270 63 5
271 63 1697
272 63 926
277 63 454
279 63 33
281 63 545
283 63 11
287 63 345
289 63 1356
290 63 549
291 63 834
292 63 111
293 63 520
295 63 878
297 63 8
298 63 750
300 63 363
302 63 9
304 63 5
305 63 887
306 63 1229
307 63 938
309 63 892
310 63 781
311 63 1754
313 63 390
315 63 560
316 63 941
317 63 384
318 63 850
320 63 1285
322 63 553
324 63 548
325 63 3
326 63 614
327 63 618
328 63 98
329 63 117
331 63 359
332 63 8
333 63 481
336 63 640
338 63 5
339 63 10
340 63 6
341 63 595
348 63 462
351 63 512
352 63 7
354 63 555
358 63 20
359 63 611
360 63 471
361 63 681
362 63 481
363 63 7
364 63 397
365 63 203
367 63 532
368 63 190
369 63 477
370 63 30
372 63 464
373 63 170
374 63 1051
375 63 919
376 63 147
378 63 4
379 63 599
381 63 1192
383 63 365
385 63 1023
386 63 514
388 63 330
389 63 738
390 63 530
392 63 2
393 63 716
394 63 865
395 63 598
396 63 526
397 63 1094
398 63 9
399 63 7
400 63 3
403 63 654
409 63 598
410 63 1100
413 63 616
415 63 1653
416 63 818
418 63 4
422 63 564
423 63 620
424 63 618
425 63 5
426 63 454
427 63 591
429 63 1219
430 63 4
431 63 389
432 63 660
434 63 705
437 63 545
438 63 654
439 63 869
440 63 484
441 63 523
442 63 540
443 63 520
444 63 425
445 63 6
448 63 649
449 63 833
450 63 4
452 63 941
455 63 694
456 63 749
460 63 810
462 63 370
463 63 1437
464 63 4
467 63 252
469 63 299
470 63 233
471 63 725
472 63 257
475 63 162
481 63 718
482 63 174
483 63 350
484 63 25
486 63 1058
487 63 1486
488 63 1181
489 63 487
490 63 1277
491 63 302
492 63 1016
493 63 551
494 63 248
496 63 699
497 63 22
498 63 837
500 63 139
2 64 81
3 64 154
4 64 2060
5 64 395
6 64 296
7 64 3
8 64 4
9 64 208
12 64 10
13 64 1361
14 64 28
15 64 2386
16 64 197
17 64 1725
18 64 2125
19 64 3
21 64 21
22 64 1096
23 64 741
24 64 583
25 64 2
27 64 900
28 64 2701
29 64 7
30 64 1186
31 64 1183
32 64 251
34 64 2239
35 64 1352
36 64 1194
37 64 1994
38 64 949
39 64 1251
41 64 602
42 64 943
43 64 4
44 64 80
45 64 1689
46 64 1651
47 64 1524
48 64 298
49 64 1455
50 64 1171
51 64 148
52 64 759
53 64 2090
54 64 742
55 64 3
56 64 2387
57 64 6
58 64 1268
59 64 1722
60 64 24
61 64 56
62 64 1357
63 64 8
64 64 599
65 64 390
66 64 1277
67 64 23
68 64 94
70 64 121
71 64 2
72 64 1279
73 64 171
74 64 25
75 64 1570
76 64 1182
77 64 1871
79 64 4
80 64 931
81 64 1020
82 64 28
83 64 1855
84 64 345
85 64 220
87 64 2057
89 64 561
90 64 123
91 64 34
92 64 3269
94 64 2434
95 64 292
97 64 776
98 64 9
99 64 7
100 64 2075
101 64 1582
102 64 1281
103 64 2225
104 64 2765
105 64 874
106 64 2
107 64 1174
108 64 31
111 64 394
112 64 22
114 64 2080
115 64 5
116 64 285
117 64 713
118 64 111
119 64 42
120 64 56
121 64 286
122 64 1529
123 64 1749
125 64 5
126 64 171
127 64 192
128 64 3342
129 64 6
130 64 8
131 64 1288
132 64 2661
133 64 764
134 64 1365
135 64 1586
136 64 1064
137 64 791
138 64 757
139 64 5
140 64 790
141 64 10
142 64 966
143 64 1045
144 64 1476
145 64 1845
147 64 5
148 64 43
149 64 119
150 64 1370
151 64 28
152 64 1691
153 64 774
155 64 26
156 64 2498
157 64 698
158 64 2096
160 64 670
161 64 754
162 64 838
163 64 881
164 64 1708
165 64 1000
166 64 1294
167 64 2042
168 64 167
169 64 280
170 64 1245
171 64 1803
172 64 58
173 64 288
174 64 7
176 64 1194
177 64 592
178 64 64
179 64 587
180 64 1262
181 64 1739
182 64 122
184 64 1272
185 64 31
186 64 1501
187 64 6
188 64 281
189 64 1387
190 64 1272
191 64 158
192 64 4
193 64 2090
194 64 1576
195 64 981
196 64 979
197 64 1529
198 64 1330
199 64 6
200 64 8
201 64 59
202 64 922
203 64 764
204 64 1691
205 64 1435
206 64 768
207 64 882
208 64 1286
209 64 763
210 64 1304
211 64 20
212 64 415
214 64 54
215 64 55
216 64 1578
218 64 245
219 64 1493
220 64 1530
221 64 896
222 64 1431
223 64 803
224 64 1218
227 64 280
228 64 58
230 64 36
231 64 61
232 64 1352
233 64 2837
234 64 2
236 64 1810
237 64 919
238 64 5
239 64 27
240 64 339
241 64 1610
242 64 94
244 64 62
245 64 5
246 64 66
247 64 2606
248 64 1340
249 64 2197
250 64 10
251 64 1560
252 64 1128
253 64 967
254 64 1453
255 64 1081
256 64 1667
257 64 3
258 64 1287
259 64 7
260 64 591
262 64 1290
263 64 455
264 64 1080
265 64 2335
266 64 2451
268 64 2123
269 64 1556
270 64 1134
271 64 473
272 64 1468
273 64 4
274 64 42
276 64 65
277 64 686
278 64 4
279 64 992
281 64 1778
282 64 67
286 64 102
287 64 2223
288 64 4
289 64 1587
290 64 2183
291 64 1837
292 64 1158
293 64 1317
294 64 88
295 64 2628
296 64 4
297 64 250
298 64 1856
299 64 25
300 64 2141
301 64 32
302 64 55
303 64 5
304 64 881
305 64 3027
306 64 1554
307 64 2672
308 64 126
309 64 1059
310 64 2309
311 64 1546
312 64 52
313 64 1133
315 64 1201
316 64 1546
317 64 2515
318 64 748
319 64 8
320 64 1004
321 64 71
322 64 1323
324 64 492
326 64 1309
327 64 2691
328 64 1192
329 64 1152
330 64 7
331 64 2856
332 64 66
333 64 643
335 64 510
336 64 1553
338 64 3
339 64 195
340 64 30
341 64 330
343 64 2
344 64 76
345 64 21
347 64 3
348 64 3190
349 64 72
350 64 4
351 64 796
352 64 6
353 64 32
354 64 511
355 64 4
356 64 25
357 64 21
358 64 1541
359 64 763
360 64 2605
361 64 1204
362 64 1616
363 64 794
364 64 819
365 64 764
366 64 94
367 64 509
368 64 1062
369 64 1226
370 64 773
372 64 1366
373 64 835
374 64 1081
375 64 2039
376 64 428
377 64 29
378 64 7
379 64 310
380 64 27
381 64 1270
383 64 1402
384 64 29
385 64 2644
386 64 1446
387 64 19
388 64 794
389 64 984
390 64 529
391 64 12
392 64 3
393 64 3737
394 64 1626
395 64 1701
396 64 1365
397 64 1568
398 64 916
399 64 26
400 64 29
401 64 6
403 64 761
404 64 120
405 64 147
406 64 24
407 64 4
409 64 1240
410 64 632
411 64 6
413 64 2246
414 64 2
415 64 1433
416 64 1182
417 64 145
418 64 35
419 64 4
420 64 6
422 64 654
423 64 1609
424 64 842
425 64 20
426 64 591
427 64 1323
428 64 9
429 64 1334
430 64 249
431 64 396
432 64 676
433 64 27
434 64 1723
435 64 3
436 64 637
437 64 1236
438 64 727
439 64 1333
440 64 2145
441 64 2521
442 64 1304
443 64 1098
444 64 1656
445 64 52
446 64 47
447 64 6
448 64 2153
449 64 1182
450 64 1018
451 64 219
452 64 1774
453 64 77
454 64 35
455 64 1222
456 64 722
458 64 23
459 64 829
460 64 3075
461 64 1111
462 64 1696
463 64 2074
464 64 412
465 64 82
467 64 1116
468 64 175
469 64 1632
470 64 329
471 64 644
472 64 1377
474 64 28
475 64 906
477 64 63
478 64 32
479 64 25
480 64 138
481 64 896
482 64 902
483 64 732
484 64 782
485 64 51
486 64 737
487 64 2255
488 64 1213
489 64 405
490 64 925
491 64 1055
492 64 1324
493 64 1212
494 64 1186
496 64 700
497 64 675
498 64 1450
500 64 409
1 65 1240
2 65 538
3 65 1429
7 65 602
8 65 1901
10 65 1753
11 65 602
12 65 1069
14 65 572
15 65 1040
20 65 214
21 65 744
22 65 1795
25 65 681
26 65 871
28 65 190
30 65 5
31 65 511
32 65 1098
33 65 943
36 65 256
39 65 107
40 65 1443
43 65 334
44 65 754
46 65 909
55 65 1189
57 65 1304
59 65 2
60 65 1053
61 65 1765
63 65 1114
67 65 1367
68 65 785
69 65 874
70 65 602
71 65 1042
72 65 940
73 65 1714
74 65 1721
75 65 1841
76 65 6
78 65 1307
79 65 1796
82 65 1464
85 65 1349
86 65 1455
87 65 1045
89 65 741
90 65 1150
91 65 1227
93 65 549
94 65 4
96 65 1186
98 65 479
99 65 1380
100 65 25
103 65 65
106 65 1661
107 65 560
108 65 1147
109 65 965
110 65 1076
113 65 786
114 65 1626
115 65 213
116 65 1313
118 65 1179
119 65 518
120 65 863
124 65 1359
125 65 381
126 65 1074
129 65 1064
130 65 1563
132 65 168
139 65 453
141 65 1564
145 65 514
146 65 798
147 65 1915
148 65 668
149 65 884
151 65 1483
152 65 1512
154 65 1208
155 65 803
156 65 612
159 65 892
164 65 1527
165 65 772
168 65 340
171 65 1474
172 65 912
173 65 1270
174 65 3
175 65 318
178 65 1105
179 65 611
181 65 132
182 65 1091
183 65 642
185 65 791
187 65 1055
189 65 928
192 65 1068
194 65 127
195 65 1475
197 65 1862
200 65 793
201 65 902
205 65 1296
211 65 691
214 65 602
216 65 124
217 65 1609
220 65 1216
221 65 531
225 65 1252
228 65 1707
229 65 1225
230 65 1011
231 65 1073
234 65 469
235 65 637
236 65 1072
239 65 2237
242 65 771
243 65 141
245 65 1048
250 65 1641
251 65 1642
255 65 857
256 65 130
257 65 1276
259 65 451
261 65 1660
262 65 458
265 65 1601
266 65 693
267 65 850
268 65 1084
273 65 723
274 65 1936
275 65 924
276 65 1748
278 65 891
281 65 1339
282 65 1450
283 65 1086
284 65 610
285 65 713
288 65 239
289 65 135
291 65 280
294 65 1433
296 65 1605
298 65 1931
301 65 1751
302 65 1004
303 65 528
305 65 4
307 65 345
308 65 302
310 65 1091
312 65 1247
314 65 1799
319 65 1027
320 65 863
323 65 1115
325 65 868
330 65 778
331 65 415
332 65 1049
334 65 1026
336 65 232
337 65 979
338 65 1157
340 65 1059
342 65 920
343 65 458
344 65 805
345 65 1216
346 65 1682
347 65 1111
349 65 820
350 65 1288
352 65 1744
353 65 1191
356 65 448
357 65 1166
366 65 1081
369 65 891
371 65 573
372 65 1400
375 65 238
376 65 1869
377 65 1395
378 65 360
380 65 1675
381 65 141
382 65 480
383 65 1650
384 65 1159
385 65 729
386 65 602
387 65 1425
389 65 512
390 65 544
391 65 1089
392 65 1187
393 65 2066
395 65 916
399 65 951
400 65 627
401 65 1464
402 65 990
404 65 526
406 65 1283
407 65 512
408 65 1589
409 65 809
411 65 689
412 65 682
413 65 1792
414 65 605
415 65 802
417 65 648
418 65 1885
419 65 772
420 65 686
421 65 1091
423 65 214
425 65 726
426 65 1330
428 65 861
430 65 2748
433 65 568
435 65 851
438 65 924
439 65 512
441 65 11
444 65 242
445 65 1093
447 65 1208
453 65 1016
455 65 953
457 65 1336
458 65 828
460 65 1230
462 65 1816
466 65 832
468 65 1014
469 65 431
470 65 2780
471 65 683
473 65 1560
474 65 815
476 65 1140
478 65 606
479 65 880
480 65 1696
482 65 6
486 65 715
489 65 655
490 65 601
495 65 477
499 65 1168
500 65 772
1 66 1488
2 66 1004
3 66 1850
7 66 1134
8 66 868
10 66 1998
11 66 1935
12 66 1172
14 66 902
15 66 1974
20 66 55
21 66 626
22 66 1761
25 66 2620
26 66 1651
28 66 6
31 66 282
32 66 957
33 66 697
36 66 124
39 66 3
40 66 1520
43 66 186
44 66 264
46 66 1835
55 66 701
57 66 2316
60 66 789
61 66 1139
63 66 954
67 66 2098
68 66 719
69 66 1588
70 66 1012
71 66 1157
72 66 1040
73 66 2443
74 66 1762
75 66 1332
78 66 792
79 66 1420
82 66 797
85 66 3127
86 66 567
87 66 419
89 66 992
90 66 691
91 66 1334
92 66 5
93 66 170
96 66 1555
98 66 945
99 66 818
103 66 19
104 66 58
106 66 991
107 66 380
108 66 1466
109 66 1203
110 66 523
113 66 1122
114 66 940
115 66 277
116 66 2277
118 66 693
119 66 995
120 66 1601
124 66 729
125 66 1727
126 66 532
129 66 1919
130 66 1820
132 66 6
139 66 1725
141 66 1866
145 66 1150
146 66 932
147 66 2361
148 66 716
149 66 1739
151 66 993
152 66 952
154 66 1021
155 66 532
156 66 1144
159 66 1085
164 66 951
165 66 1002
168 66 1116
171 66 2892
172 66 874
173 66 872
175 66 905
178 66 1967
179 66 799
181 66 107
182 66 818
183 66 1455
185 66 1631
187 66 980
189 66 1196
192 66 1496
194 66 63
195 66 495
196 66 4
197 66 1330
199 66 4
200 66 802
201 66 888
205 66 1092
211 66 1063
213 66 7
214 66 1608
216 66 4
217 66 2465
220 66 1915
221 66 2231
225 66 508
228 66 1975
229 66 820
230 66 204
231 66 1422
234 66 1215
235 66 1273
236 66 1182
238 66 6
239 66 1107
242 66 270
243 66 83
245 66 983
250 66 915
251 66 1552
255 66 1600
256 66 60
257 66 933
259 66 2084
261 66 1009
262 66 320
265 66 945
266 66 1144
267 66 946
268 66 402
273 66 1594
274 66 1019
275 66 1637
276 66 1933
278 66 1222
281 66 478
282 66 2693
283 66 1062
284 66 1337
285 66 591
288 66 316
289 66 5
291 66 164
294 66 1633
296 66 1360
298 66 966
299 66 18
301 66 855
302 66 700
303 66 1570
307 66 708
308 66 1414
310 66 1331
312 66 2127
314 66 1341
319 66 1433
320 66 3686
323 66 1049
325 66 617
330 66 465
331 66 521
332 66 689
334 66 1106
336 66 253
337 66 944
338 66 1275
340 66 407
342 66 763
343 66 1778
344 66 2763
345 66 1461
346 66 1240
347 66 1099
349 66 859
350 66 574
352 66 973
353 66 1161
355 66 6
356 66 1681
357 66 1146
366 66 1104
369 66 937
371 66 1157
372 66 1228
375 66 390
376 66 1415
377 66 1047
378 66 390
380 66 1232
381 66 131
382 66 1606
383 66 1592
384 66 1063
385 66 1589
386 66 1344
387 66 961
389 66 639
390 66 634
391 66 1411
392 66 1725
393 66 886
395 66 1436
399 66 1190
400 66 409
401 66 1694
402 66 1603
404 66 1301
406 66 1574
407 66 1407
408 66 560
409 66 540
411 66 1231
412 66 1584
413 66 595
414 66 634
415 66 623
417 66 1859
418 66 3074
419 66 940
420 66 2614
421 66 1214
423 66 200
425 66 778
426 66 570
428 66 1471
430 66 1112
433 66 491
435 66 1121
438 66 1014
439 66 343
444 66 210
445 66 1166
447 66 1978
453 66 993
455 66 725
457 66 1023
458 66 1110
460 66 436
462 66 3383
466 66 2100
468 66 1090
469 66 410
470 66 2808
471 66 649
473 66 1172
474 66 1478
476 66 814
477 66 6
478 66 1334
479 66 1163
480 66 2372
485 66 32
486 66 1307
489 66 2151
490 66 408
495 66 1382
499 66 995
500 66 1475
1 67 1555
2 67 2024
3 67 2327
7 67 2016
8 67 1737
10 67 1849
11 67 1548
12 67 2559
14 67 852
15 67 2380
20 67 546
21 67 1989
22 67 3560
25 67 1741
26 67 1440
28 67 254
30 67 186
31 67 932
32 67 2237
33 67 1184
36 67 444
39 67 97
40 67 2306
43 67 1800
44 67 522
46 67 2237
55 67 1043
57 67 2430
60 67 1056
61 67 2300
63 67 2757
64 67 7
67 67 1949
68 67 2612
69 67 2135
70 67 1687
71 67 1551
72 67 2973
73 67 1653
74 67 2225
75 67 2271
78 67 954
79 67 1221
82 67 892
85 67 1493
86 67 1674
87 67 3084
88 67 19
89 67 1762
90 67 1136
91 67 2407
93 67 1699
96 67 2126
97 67 4
98 67 1093
99 67 1699
100 67 66
103 67 64
104 67 114
106 67 2408
107 67 1005
108 67 1530
109 67 1685
110 67 1463
113 67 2522
114 67 2289
115 67 430
116 67 3258
118 67 904
119 67 1239
120 67 2381
124 67 1633
125 67 2018
126 67 1148
129 67 1799
130 67 1753
132 67 231
137 67 10
139 67 2097
141 67 682
145 67 1045
146 67 1405
147 67 2202
148 67 901
149 67 786
151 67 1533
152 67 3194
154 67 973
155 67 1498
156 67 3162
159 67 2625
164 67 3390
165 67 3508
168 67 1625
171 67 4098
172 67 1366
173 67 1743
174 67 21
175 67 2974
178 67 2518
179 67 2140
181 67 278
182 67 2215
183 67 2523
185 67 900
187 67 2019
189 67 1444
192 67 1194
194 67 5
195 67 1236
197 67 2270
199 67 4
200 67 2605
201 67 1419
205 67 1987
211 67 1128
213 67 4
214 67 1461
216 67 177
217 67 1813
220 67 4129
221 67 762
225 67 1446
228 67 1581
229 67 782
230 67 1528
231 67 1870
234 67 553
235 67 1341
236 67 1758
239 67 1108
242 67 776
243 67 510
245 67 839
246 67 30
250 67 2288
251 67 1479
255 67 1550
256 67 9
257 67 1804
259 67 1355
261 67 1679
262 67 1448
265 67 2598
266 67 3248
267 67 1181
268 67 3017
273 67 2106
274 67 1428
275 67 1033
276 67 1711
278 67 799
280 67 24
281 67 2534
282 67 1529
283 67 1004
284 67 863
285 67 2234
288 67 413
289 67 148
291 67 602
294 67 1584
296 67 2578
298 67 921
301 67 667
302 67 1970
303 67 1142
305 67 58
306 67 28
307 67 1613
308 67 1640
309 67 9
310 67 5162
312 67 2087
314 67 2201
319 67 2064
320 67 2064
323 67 927
325 67 1722
330 67 1693
331 67 1852
332 67 2119
334 67 2097
336 67 502
337 67 2625
338 67 341
340 67 1251
342 67 1198
343 67 2056
344 67 1230
345 67 2089
346 67 1921
347 67 1418
349 67 3069
350 67 912
352 67 1817
353 67 1269
355 67 7
356 67 874
357 67 1082
362 67 10
364 67 5
366 67 1235
369 67 2146
371 67 2281
372 67 2261
375 67 641
376 67 929
377 67 2238
378 67 1241
380 67 2340
381 67 452
382 67 1771
383 67 1932
384 67 2640
385 67 1166
386 67 2704
387 67 2034
389 67 1343
390 67 2123
391 67 1472
392 67 2677
393 67 2167
395 67 2477
399 67 1402
400 67 1724
401 67 1198
402 67 1090
404 67 737
406 67 1355
407 67 1685
408 67 1674
409 67 1272
411 67 1524
412 67 1254
413 67 1447
414 67 1154
415 67 2264
417 67 3341
418 67 3571
419 67 789
420 67 1734
421 67 1627
423 67 516
425 67 1375
426 67 2455
428 67 1588
430 67 2241
433 67 1421
435 67 2064
438 67 3304
439 67 1400
441 67 143
444 67 564
445 67 1021
446 67 10
447 67 1687
453 67 1875
454 67 8
455 67 2619
457 67 1275
458 67 1382
460 67 888
462 67 1498
466 67 732
468 67 1838
469 67 1217
470 67 1699
471 67 2056
473 67 1942
474 67 2190
476 67 1797
477 67 6
478 67 1255
479 67 1239
480 67 1615
485 67 3
486 67 1268
489 67 2948
490 67 2197
495 67 1739
499 67 2230
500 67 3076
1 68 534
2 68 715
3 68 570
4 68 5
7 68 258
8 68 378
9 68 57
10 68 335
11 68 372
12 68 1007
14 68 770
15 68 824
16 68 21
18 68 24
20 68 102
21 68 568
22 68 672
23 68 42
24 68 11
25 68 360
26 68 265
28 68 419
29 68 40
30 68 93
31 68 368
32 68 717
33 68 1100
34 68 3
35 68 30
36 68 422
38 68 4
39 68 122
40 68 405
41 68 7
43 68 345
44 68 456
46 68 593
47 68 4
49 68 28
51 68 1
53 68 22
54 68 2
55 68 345
57 68 264
59 68 134
60 68 171
61 68 531
63 68 795
64 68 7
67 68 267
68 68 559
69 68 708
70 68 783
71 68 286
72 68 1118
73 68 198
74 68 376
75 68 565
77 68 4
78 68 229
79 68 266
80 68 28
81 68 58
82 68 734
83 68 62
85 68 425
86 68 1320
87 68 358
88 68 99
89 68 696
90 68 262
91 68 208
92 68 5
93 68 197
94 68 81
96 68 482
97 68 69
98 68 510
99 68 548
100 68 89
101 68 9
103 68 289
104 68 216
106 68 361
107 68 159
108 68 419
109 68 775
110 68 322
111 68 3
112 68 19
113 68 526
114 68 173
115 68 145
116 68 601
117 68 4
118 68 794
119 68 327
120 68 316
121 68 3
123 68 60
124 68 570
125 68 450
126 68 562
127 68 20
128 68 4
129 68 223
130 68 444
132 68 383
133 68 4
134 68 3
137 68 83
138 68 7
139 68 465
140 68 5
141 68 1316
143 68 3
144 68 50
145 68 301
146 68 1415
147 68 405
148 68 688
149 68 349
150 68 14
151 68 440
152 68 1633
153 68 5
154 68 208
155 68 144
156 68 731
159 68 547
162 68 3
164 68 1647
165 68 465
168 68 368
170 68 12
171 68 579
172 68 265
173 68 758
174 68 68
175 68 617
178 68 415
179 68 827
180 68 26
181 68 196
182 68 504
183 68 646
185 68 505
187 68 427
189 68 468
192 68 610
194 68 423
195 68 361
196 68 100
197 68 326
198 68 17
199 68 45
200 68 627
201 68 239
204 68 8
205 68 299
207 68 22
211 68 407
213 68 26
214 68 758
216 68 148
217 68 663
218 68 41
219 68 3
220 68 373
221 68 535
223 68 5
225 68 397
226 68 2
228 68 265
229 68 519
230 68 304
231 68 404
233 68 115
234 68 326
235 68 187
236 68 659
237 68 3
238 68 60
239 68 476
240 68 5
242 68 133
243 68 99
244 68 6
245 68 498
246 68 96
248 68 5
250 68 627
251 68 513
252 68 9
253 68 5
255 68 493
256 68 403
257 68 403
259 68 267
261 68 297
262 68 312
263 68 36
264 68 6
265 68 627
266 68 746
267 68 188
268 68 356
271 68 17
272 68 57
273 68 442
274 68 429
275 68 470
276 68 231
277 68 4
278 68 881
280 68 106
281 68 451
282 68 472
283 68 943
284 68 501
285 68 350
288 68 154
289 68 157
290 68 7
291 68 220
294 68 293
296 68 179
298 68 537
299 68 6
301 68 350
302 68 739
303 68 483
304 68 31
305 68 72
306 68 128
307 68 310
308 68 319
309 68 146
310 68 1053
311 68 16
312 68 613
313 68 9
314 68 265
316 68 190
318 68 4
319 68 679
320 68 540
322 68 50
323 68 208
324 68 19
325 68 240
327 68 7
329 68 5
330 68 132
331 68 302
332 68 729
333 68 7
334 68 527
336 68 360
337 68 601
338 68 230
340 68 445
342 68 342
343 68 538
344 68 474
345 68 159
346 68 297
347 68 327
349 68 386
350 68 866
351 68 4
352 68 912
353 68 629
354 68 14
355 68 62
356 68 1371
357 68 643
360 68 4
362 68 21
364 68 62
365 68 8
366 68 238
367 68 27
368 68 9
369 68 1041
371 68 358
372 68 1219
373 68 17
374 68 3
375 68 332
376 68 423
377 68 291
378 68 419
380 68 323
381 68 161
382 68 994
383 68 580
384 68 331
385 68 588
386 68 478
387 68 278
388 68 6
389 68 308
390 68 374
391 68 557
392 68 145
393 68 553
395 68 283
396 68 52
397 68 4
399 68 646
400 68 587
401 68 400
402 68 447
404 68 183
405 68 6
406 68 374
407 68 193
408 68 1288
409 68 467
411 68 955
412 68 623
413 68 322
414 68 651
415 68 746
416 68 25
417 68 539
418 68 447
419 68 153
420 68 348
421 68 355
423 68 358
424 68 16
425 68 787
426 68 364
428 68 233
429 68 7
430 68 374
433 68 499
435 68 1029
436 68 4
438 68 398
439 68 254
440 68 4
441 68 133
442 68 34
444 68 252
445 68 345
447 68 801
448 68 32
449 68 26
450 68 6
451 68 25
453 68 215
454 68 78
455 68 328
457 68 242
458 68 226
459 68 8
460 68 331
462 68 508
464 68 11
466 68 670
468 68 809
469 68 420
470 68 806
471 68 381
473 68 354
474 68 658
476 68 795
477 68 75
478 68 517
479 68 505
480 68 220
483 68 3
485 68 112
486 68 294
487 68 51
488 68 7
489 68 411
490 68 251
495 68 231
497 68 8
499 68 358
500 68 744
1 69 405
2 69 608
3 69 1359
7 69 302
8 69 1056
10 69 1292
11 69 1524
12 69 1370
14 69 1102
15 69 1094
18 69 4
21 69 787
22 69 745
25 69 741
26 69 427
28 69 835
30 69 23
31 69 520
32 69 388
33 69 447
36 69 376
39 69 344
40 69 700
43 69 5
46 69 1407
53 69 5
55 69 550
57 69 649
60 69 315
61 69 1045
63 69 740
67 69 1047
68 69 1237
69 69 790
70 69 60
71 69 1197
72 69 714
73 69 367
74 69 691
75 69 975
78 69 283
79 69 808
82 69 1028
85 69 963
86 69 453
87 69 689
89 69 613
90 69 100
91 69 1290
92 69 56
93 69 1
96 69 677
97 69 5
98 69 402
99 69 567
100 69 60
103 69 435
104 69 214
106 69 1386
107 69 426
108 69 591
109 69 773
110 69 994
113 69 557
114 69 745
116 69 768
118 69 278
119 69 1352
120 69 579
124 69 369
125 69 598
126 69 1046
129 69 563
130 69 957
132 69 827
139 69 862
141 69 1105
145 69 1504
146 69 1126
147 69 817
148 69 1130
149 69 1345
151 69 324
152 69 1278
154 69 1062
155 69 51
156 69 1005
159 69 359
164 69 1306
165 69 1242
168 69 635
171 69 1726
172 69 760
173 69 934
175 69 838
178 69 366
179 69 638
181 69 375
182 69 1666
183 69 776
185 69 671
187 69 498
189 69 830
192 69 809
194 69 168
195 69 297
196 69 208
197 69 589
200 69 714
201 69 825
205 69 730
211 69 1590
214 69 421
216 69 242
217 69 612
220 69 1297
221 69 1353
225 69 1075
228 69 624
229 69 516
231 69 1037
234 69 660
235 69 1519
236 69 1778
239 69 474
242 69 6
245 69 483
250 69 669
251 69 1322
255 69 2023
256 69 178
257 69 917
259 69 1408
261 69 144
262 69 1039
265 69 573
266 69 1006
267 69 809
268 69 642
273 69 476
274 69 1033
275 69 993
276 69 646
278 69 574
281 69 1113
282 69 815
283 69 812
284 69 295
285 69 155
289 69 252
291 69 378
294 69 384
295 69 5
296 69 592
298 69 656
301 69 293
302 69 1370
303 69 1239
305 69 442
306 69 352
307 69 788
308 69 1521
309 69 327
310 69 1555
311 69 4
312 69 592
314 69 693
316 69 66
319 69 1230
320 69 794
323 69 1128
325 69 837
330 69 92
331 69 542
332 69 1294
334 69 617
336 69 537
337 69 583
338 69 429
340 69 1277
342 69 1247
343 69 812
344 69 464
345 69 751
346 69 551
347 69 255
349 69 1408
350 69 1558
352 69 816
353 69 1647
356 69 972
357 69 917
364 69 4
366 69 347
369 69 1177
371 69 387
372 69 1185
375 69 405
376 69 391
377 69 1070
378 69 74
380 69 455
381 69 2425
382 69 269
383 69 470
384 69 1065
385 69 941
386 69 826
387 69 1750
389 69 465
390 69 1140
391 69 693
392 69 181
393 69 495
395 69 1061
399 69 508
401 69 957
402 69 952
404 69 591
406 69 480
407 69 964
408 69 516
409 69 1230
411 69 694
412 69 503
413 69 1632
414 69 913
415 69 685
417 69 964
418 69 677
419 69 515
420 69 745
421 69 898
423 69 528
425 69 493
426 69 1126
428 69 134
430 69 860
433 69 27
435 69 1296
438 69 1045
439 69 1001
441 69 334
444 69 951
445 69 737
447 69 853
453 69 940
455 69 1015
457 69 1657
458 69 705
460 69 1243
462 69 1094
466 69 967
468 69 270
469 69 367
470 69 733
471 69 1241
473 69 792
474 69 1394
476 69 741
478 69 1280
479 69 537
480 69 423
486 69 554
489 69 453
490 69 746
495 69 929
499 69 478
500 69 808
1 70 1444
2 70 1011
3 70 974
7 70 2168
8 70 2025
10 70 2941
11 70 677
12 70 1423
14 70 1773
15 70 3058
20 70 3
21 70 1240
22 70 2650
25 70 1153
26 70 1071
28 70 1641
30 70 151
31 70 2443
32 70 921
33 70 1208
36 70 442
39 70 1239
40 70 1051
46 70 1329
55 70 1900
57 70 2460
60 70 203
61 70 1234
63 70 1167
67 70 1845
68 70 1359
69 70 583
70 70 31
71 70 1984
72 70 1527
73 70 888
74 70 1772
75 70 1036
78 70 270
79 70 1846
82 70 1062
85 70 1831
86 70 914
87 70 2906
89 70 3555
90 70 132
91 70 1582
92 70 193
93 70 7
96 70 1434
97 70 6
98 70 1492
99 70 1324
100 70 164
103 70 307
104 70 237
106 70 1734
107 70 963
108 70 1771
109 70 1521
110 70 1443
113 70 2113
114 70 1966
116 70 4840
118 70 1039
119 70 914
120 70 1421
124 70 1324
125 70 1287
126 70 1133
129 70 2971
130 70 1593
132 70 1625
139 70 1024
141 70 1804
145 70 1801
146 70 1646
147 70 1802
148 70 1625
149 70 1730
151 70 608
152 70 2328
154 70 1284
155 70 8
156 70 1844
159 70 1064
164 70 2384
165 70 1042
168 70 1727
171 70 1405
172 70 816
173 70 1833
175 70 1609
178 70 1178
179 70 2092
180 70 21
181 70 376
182 70 1509
183 70 1148
185 70 1235
187 70 1489
189 70 625
192 70 814
194 70 266
195 70 1543
196 70 190
197 70 809
200 70 1542
201 70 834
205 70 930
211 70 1528
214 70 1112
216 70 268
217 70 821
220 70 3636
221 70 563
225 70 964
228 70 1393
229 70 1436
231 70 2045
234 70 2313
235 70 1866
236 70 2163
239 70 868
242 70 11
245 70 1407
250 70 878
251 70 3442
255 70 1971
256 70 217
257 70 550
259 70 1346
261 70 36
262 70 628
265 70 1836
266 70 1844
267 70 295
268 70 2900
273 70 1298
274 70 2059
275 70 904
276 70 1372
278 70 2202
281 70 2036
282 70 1694
283 70 1410
284 70 932
285 70 152
289 70 350
291 70 1840
294 70 1051
296 70 1707
298 70 1978
301 70 891
302 70 1378
303 70 582
305 70 141
306 70 449
307 70 1975
308 70 681
309 70 482
310 70 2686
311 70 2
312 70 715
314 70 1071
316 70 28
319 70 1853
320 70 2196
323 70 1295
325 70 1385
330 70 122
331 70 1141
332 70 1435
334 70 1192
336 70 1135
337 70 1973
338 70 166
340 70 1768
342 70 1579
343 70 1086
344 70 1134
345 70 1230
346 70 1236
347 70 714
349 70 2265
350 70 1455
352 70 533
353 70 1225
356 70 744
357 70 2819
364 70 6
366 70 916
369 70 1870
371 70 2736
372 70 1977
375 70 707
376 70 2040
377 70 1983
378 70 23
380 70 1251
381 70 1035
382 70 1386
383 70 1559
384 70 1612
385 70 3118
386 70 1818
387 70 1530
389 70 1084
390 70 2394
391 70 772
392 70 108
393 70 2676
395 70 2340
399 70 819
400 70 3
401 70 1411
402 70 869
404 70 1164
406 70 2897
407 70 1729
408 70 848
409 70 2914
411 70 1366
412 70 2188
413 70 1698
414 70 1211
415 70 1031
417 70 2202
418 70 1843
419 70 164
420 70 1082
421 70 1165
423 70 1264
425 70 2587
426 70 1091
428 70 1092
430 70 2513
433 70 52
435 70 2004
438 70 1720
439 70 601
441 70 1145
444 70 1307
445 70 1137
447 70 1905
453 70 599
455 70 1672
457 70 1181
458 70 1443
460 70 2241
462 70 1792
466 70 969
468 70 403
469 70 1592
470 70 1512
471 70 2019
473 70 1944
474 70 2185
476 70 1834
478 70 1545
479 70 1100
480 70 933
486 70 2154
489 70 1730
490 70 2293
495 70 779
499 70 1460
500 70 2674
2 71 526
4 71 1587
10 71 54
13 71 514
15 71 575
17 71 1259
18 71 1197
22 71 1078
25 71 468
28 71 1232
30 71 1962
31 71 600
34 71 1520
35 71 1441
36 71 1833
37 71 1921
39 71 1184
45 71 185
46 71 2469
47 71 1046
49 71 579
53 71 1191
56 71 1044
58 71 1071
59 71 2631
62 71 797
64 71 231
67 71 1912
69 71 221
72 71 740
75 71 2367
77 71 768
79 71 482
80 71 1411
81 71 1573
83 71 2165
87 71 1587
89 71 1010
92 71 817
94 71 1054
97 71 1048
100 71 664
101 71 1275
102 71 233
103 71 880
104 71 1996
107 71 699
113 71 303
114 71 1471
116 71 3075
122 71 667
123 71 1690
126 71 422
128 71 741
131 71 1000
132 71 1184
134 71 243
135 71 1180
138 71 850
144 71 380
145 71 1206
149 71 1275
150 71 1704
152 71 1076
156 71 733
158 71 973
164 71 1220
165 71 2083
166 71 601
167 71 208
170 71 266
171 71 1764
173 71 743
177 71 824
179 71 602
180 71 1914
181 71 1462
186 71 1622
189 71 670
193 71 1200
194 71 1897
195 71 1469
196 71 828
197 71 834
198 71 46
202 71 432
203 71 1189
205 71 643
208 71 913
216 71 417
219 71 1592
220 71 928
221 71 1025
223 71 1572
225 71 942
231 71 124
232 71 5
233 71 1698
236 71 2219
241 71 1248
247 71 1548
248 71 120
249 71 737
251 71 1448
253 71 1003
254 71 785
255 71 1380
256 71 1858
258 71 1211
262 71 2210
264 71 1435
265 71 1763
266 71 749
268 71 1637
269 71 5
271 71 1683
272 71 385
275 71 64
281 71 1680
287 71 35
289 71 414
290 71 1495
291 71 1549
293 71 1138
295 71 850
298 71 615
300 71 916
302 71 185
305 71 1936
306 71 2004
307 71 1499
309 71 980
310 71 1277
311 71 916
312 71 62
315 71 1453
316 71 665
317 71 1523
319 71 5
320 71 2106
327 71 644
331 71 1820
332 71 197
336 71 2322
344 71 4
348 71 914
349 71 856
351 71 1595
357 71 18
360 71 1422
361 71 1525
364 71 1044
368 71 23
369 71 1530
371 71 401
372 71 2692
374 71 1207
375 71 1766
376 71 1622
380 71 24
381 71 1348
383 71 2648
384 71 2
385 71 2026
386 71 2715
389 71 2382
390 71 1588
393 71 1026
395 71 1283
397 71 1035
401 71 24
402 71 73
406 71 1086
409 71 1604
410 71 1597
413 71 805
415 71 1111
416 71 85
418 71 631
420 71 536
422 71 440
423 71 2283
426 71 2391
427 71 636
429 71 750
430 71 2235
431 71 1872
432 71 90
434 71 1669
435 71 68
437 71 364
438 71 902
439 71 2324
440 71 315
441 71 1434
443 71 50
444 71 644
447 71 1052
448 71 954
449 71 98
452 71 1405
455 71 649
460 71 1515
462 71 1959
463 71 1011
469 71 1558
470 71 1210
471 71 1649
472 71 2
474 71 533
476 71 550
478 71 1235
481 71 1067
486 71 1020
487 71 2102
488 71 1608
489 71 1611
490 71 1475
491 71 537
492 71 1670
493 71 1119
496 71 1214
498 71 466
500 71 1212
1 72 1224
2 72 67
3 72 2444
5 72 1405
6 72 2566
7 72 1513
8 72 1423
9 72 2635
10 72 1358
11 72 3642
12 72 2794
13 72 24
14 72 3012
15 72 10
16 72 2399
17 72 33
18 72 4
19 72 1975
20 72 1794
21 72 2279
22 72 31
23 72 1063
24 72 1160
25 72 76
26 72 1201
27 72 1285
29 72 2937
32 72 2316
33 72 3167
37 72 9
38 72 1110
39 72 14
40 72 2256
41 72 1197
42 72 1824
43 72 1756
44 72 3121
45 72 268
47 72 22
48 72 2584
49 72 6
50 72 917
51 72 1368
52 72 944
53 72 6
54 72 914
55 72 1494
56 72 3
57 72 1398
58 72 24
60 72 2481
61 72 2423
62 72 4
63 72 1501
64 72 169
65 72 1343
66 72 2220
67 72 6
68 72 1349
69 72 27
70 72 1624
71 72 2858
73 72 2613
74 72 1107
76 72 1458
77 72 24
78 72 1410
79 72 71
80 72 9
82 72 1934
84 72 2076
85 72 1938
86 72 1937
88 72 2301
90 72 1731
91 72 1780
93 72 1241
95 72 2544
96 72 2452
98 72 2005
99 72 2220
100 72 21
102 72 148
103 72 116
104 72 4
105 72 1265
106 72 2773
108 72 1847
109 72 2408
110 72 2104
111 72 1587
112 72 1834
113 72 355
115 72 2435
117 72 1438
118 72 1232
119 72 1808
120 72 2296
121 72 1079
122 72 118
123 72 3
124 72 2587
125 72 2004
126 72 21
127 72 1080
129 72 1780
130 72 3498
133 72 1199
134 72 216
136 72 1617
137 72 2163
138 72 29
139 72 2528
140 72 741
141 72 1741
142 72 1284
143 72 1143
145 72 73
146 72 1595
147 72 2397
148 72 3930
151 72 1229
153 72 1230
154 72 1636
155 72 1281
157 72 1638
159 72 2448
160 72 1090
161 72 1306
162 72 727
163 72 2068
165 72 8
166 72 8
167 72 536
168 72 1397
169 72 2579
170 72 76
172 72 2993
174 72 1850
175 72 1794
176 72 2662
178 72 1243
179 72 22
181 72 6
182 72 1873
183 72 2602
184 72 2213
185 72 1494
186 72 8
187 72 1196
188 72 1420
189 72 2
190 72 942
191 72 1506
192 72 1423
193 72 4
194 72 8
195 72 4
198 72 1706
199 72 1824
200 72 2113
201 72 3028
203 72 33
204 72 2287
205 72 24
206 72 1418
207 72 1504
209 72 1520
210 72 721
211 72 2798
212 72 1179
213 72 1525
214 72 3183
215 72 1586
217 72 2499
218 72 1573
219 72 9
222 72 1769
223 72 6
224 72 2530
225 72 75
226 72 1604
227 72 2583
228 72 1969
229 72 1875
230 72 2313
231 72 1129
232 72 2013
233 72 33
234 72 2572
235 72 2259
237 72 1086
238 72 872
239 72 1840
240 72 2155
242 72 1632
243 72 1923
244 72 1858
245 72 3384
246 72 1894
247 72 18
248 72 457
250 72 1531
251 72 8
252 72 1374
254 72 6
255 72 23
256 72 6
257 72 1259
259 72 1388
260 72 1570
261 72 1580
263 72 800
267 72 2273
269 72 1509
270 72 611
271 72 2
273 72 1755
274 72 1567
275 72 1482
276 72 2005
277 72 1452
278 72 1779
279 72 1789
280 72 2276
281 72 2
282 72 1682
283 72 1018
284 72 1359
285 72 1499
286 72 1824
287 72 1658
288 72 2388
290 72 25
291 72 7
292 72 1348
293 72 33
294 72 2624
295 72 10
296 72 2094
297 72 774
299 72 1486
301 72 2065
302 72 1032
303 72 1291
304 72 1513
308 72 1374
309 72 4
311 72 27
312 72 1223
313 72 1359
314 72 1172
318 72 942
319 72 1153
320 72 26
321 72 2134
322 72 1634
323 72 1704
324 72 808
325 72 993
326 72 941
327 72 5
328 72 1067
329 72 1515
330 72 1341
332 72 1071
333 72 1446
334 72 1170
335 72 955
337 72 1501
338 72 1554
339 72 1262
340 72 1626
341 72 2596
342 72 2175
343 72 2526
344 72 2026
345 72 2863
346 72 1326
347 72 1829
348 72 23
349 72 5
350 72 2021
351 72 13
352 72 1480
353 72 1234
354 72 850
355 72 1838
356 72 1793
357 72 2130
358 72 1423
359 72 1499
360 72 23
362 72 988
363 72 1745
365 72 772
366 72 2487
367 72 836
368 72 2506
369 72 72
370 72 2227
371 72 116
372 72 5
373 72 1221
374 72 6
376 72 73
377 72 1174
378 72 2629
379 72 2705
380 72 2256
381 72 2
382 72 1785
383 72 58
384 72 2110
386 72 21
387 72 959
388 72 936
389 72 21
390 72 1
391 72 1581
392 72 1015
394 72 1546
395 72 7
396 72 1659
398 72 797
399 72 1503
400 72 2144
401 72 1084
402 72 1499
403 72 1498
404 72 1374
405 72 1531
406 72 71
407 72 3020
408 72 1988
410 72 5
411 72 1965
412 72 1943
414 72 1392
416 72 749
417 72 2438
418 72 78
419 72 1592
420 72 73
421 72 2268
422 72 7
424 72 1199
425 72 2072
427 72 22
428 72 2075
430 72 72
432 72 584
433 72 2322
434 72 3
435 72 1252
436 72 1665
437 72 99
438 72 25
440 72 303
442 72 1661
443 72 343
445 72 1936
446 72 1254
447 72 21
448 72 4
449 72 709
450 72 2577
451 72 1134
452 72 4
453 72 2564
454 72 766
456 72 1598
457 72 3403
458 72 2314
459 72 1602
460 72 6
461 72 1149
462 72 5
463 72 3
464 72 1146
465 72 1254
466 72 2264
467 72 2462
468 72 2645
469 72 28
470 72 36
472 72 2019
473 72 2264
474 72 149
475 72 1192
476 72 3
477 72 2021
479 72 2216
480 72 2600
481 72 4
482 72 1416
483 72 892
484 72 1415
485 72 1615
486 72 20
487 72 22
490 72 4
493 72 23
494 72 1080
495 72 1345
496 72 5
497 72 2008
499 72 2694
500 72 31
2 73 1226
4 73 1317
10 73 347
13 73 1127
15 73 1492
17 73 1161
18 73 903
22 73 799
25 73 610
28 73 872
30 73 963
31 73 617
34 73 623
35 73 968
36 73 1223
37 73 1613
39 73 1197
45 73 1064
46 73 1514
47 73 1516
49 73 1200
53 73 893
56 73 253
58 73 1326
59 73 847
62 73 1200
64 73 681
66 73 25
67 73 2484
69 73 1472
72 73 1175
75 73 1711
77 73 2698
79 73 597
80 73 1925
81 73 1270
83 73 1220
87 73 1185
89 73 1071
92 73 2273
94 73 870
96 73 241
97 73 579
100 73 1176
101 73 1496
102 73 987
103 73 1224
104 73 1750
106 73 4
107 73 1191
113 73 431
114 73 1201
116 73 1813
122 73 1238
123 73 1299
126 73 687
128 73 1101
131 73 766
132 73 968
134 73 332
135 73 992
136 73 2
138 73 1017
144 73 1243
145 73 2292
146 73 8
149 73 484
150 73 1165
152 73 2108
156 73 2837
158 73 1266
164 73 2064
165 73 1025
166 73 1333
167 73 495
170 73 963
171 73 907
173 73 835
176 73 4
177 73 1419
179 73 541
180 73 744
181 73 1327
184 73 30
186 73 1041
189 73 1056
193 73 642
194 73 1479
195 73 1522
196 73 1064
197 73 1065
198 73 57
202 73 1256
203 73 617
205 73 1939
208 73 1590
216 73 838
219 73 783
220 73 880
221 73 2341
223 73 1485
225 73 1066
231 73 475
232 73 9
233 73 1103
236 73 880
241 73 960
247 73 1498
248 73 239
249 73 2207
251 73 839
253 73 1849
254 73 2089
255 73 1217
256 73 1449
258 73 1026
262 73 1647
264 73 458
265 73 2505
266 73 2876
268 73 1237
269 73 5
271 73 1037
272 73 1500
275 73 305
281 73 1189
287 73 40
289 73 850
290 73 1497
291 73 1799
293 73 744
295 73 1828
298 73 1043
300 73 1772
302 73 1665
305 73 1422
306 73 2069
307 73 1988
309 73 709
310 73 2591
311 73 851
312 73 293
315 73 1253
316 73 1999
317 73 1736
319 73 198
320 73 1834
327 73 1246
331 73 1247
332 73 1517
336 73 1006
344 73 4
348 73 1985
349 73 1050
351 73 1050
357 73 24
360 73 2024
361 73 1765
364 73 601
368 73 7
369 73 1111
371 73 829
372 73 1793
374 73 532
375 73 1420
376 73 881
380 73 4
381 73 1110
383 73 2593
384 73 24
385 73 1912
386 73 964
389 73 661
390 73 501
393 73 1888
395 73 1536
397 73 1906
401 73 865
402 73 288
406 73 1529
409 73 1820
410 73 856
413 73 810
415 73 1641
416 73 764
418 73 997
420 73 556
422 73 881
423 73 1029
426 73 964
427 73 1029
429 73 1227
430 73 793
431 73 871
432 73 208
434 73 674
435 73 730
437 73 845
438 73 1898
439 73 1623
440 73 505
441 73 1661
443 73 635
444 73 1757
447 73 1407
448 73 1143
449 73 758
452 73 798
455 73 1980
460 73 741
462 73 670
463 73 686
467 73 6
469 73 927
470 73 4183
471 73 750
472 73 5
474 73 561
476 73 595
478 73 1450
481 73 823
486 73 431
487 73 1980
488 73 1266
489 73 955
490 73 661
491 73 517
492 73 986
493 73 732
496 73 2185
498 73 1023
500 73 1735
2 74 276
4 74 1244
13 74 658
15 74 1256
17 74 1170
18 74 1481
22 74 1831
25 74 168
28 74 912
30 74 871
31 74 1193
34 74 1078
35 74 957
36 74 501
37 74 2053
39 74 408
45 74 885
46 74 1840
47 74 1809
49 74 1518
53 74 1548
56 74 2258
58 74 912
59 74 1383
62 74 1070
64 74 583
67 74 390
69 74 19
72 74 1110
75 74 2186
77 74 847
80 74 1475
81 74 419
83 74 1191
87 74 611
89 74 1107
92 74 2012
94 74 1503
97 74 1559
100 74 1171
101 74 790
102 74 833
103 74 986
104 74 1443
107 74 2408
114 74 1064
116 74 396
122 74 1615
123 74 965
128 74 927
131 74 929
132 74 962
134 74 897
135 74 752
136 74 17
138 74 445
144 74 682
145 74 967
149 74 1074
150 74 790
152 74 1186
156 74 3207
158 74 1294
164 74 1265
165 74 1608
166 74 482
167 74 808
170 74 952
171 74 960
173 74 1655
176 74 28
177 74 1109
179 74 459
180 74 1715
181 74 1137
186 74 659
189 74 954
193 74 593
194 74 1189
195 74 1665
196 74 1460
197 74 1068
198 74 97
202 74 811
203 74 1701
204 74 70
205 74 417
208 74 732
216 74 770
219 74 960
220 74 1531
221 74 2272
223 74 1109
225 74 178
232 74 47
233 74 657
236 74 1221
240 74 8
241 74 710
247 74 916
248 74 430
249 74 1283
251 74 368
253 74 2381
254 74 1208
255 74 496
256 74 1227
258 74 1571
262 74 1118
264 74 796
265 74 1769
266 74 3256
268 74 610
269 74 28
271 74 1061
272 74 429
278 74 7
281 74 1714
287 74 99
289 74 769
290 74 740
291 74 1667
293 74 1946
295 74 547
298 74 1428
300 74 2434
305 74 661
306 74 727
307 74 1980
309 74 541
310 74 1074
311 74 693
315 74 972
316 74 1343
317 74 832
320 74 555
327 74 476
331 74 727
336 74 1357
348 74 759
349 74 25
351 74 1137
360 74 969
361 74 373
362 74 197
364 74 1556
369 74 2001
372 74 511
374 74 355
375 74 547
376 74 1461
381 74 1032
383 74 1499
385 74 1436
386 74 2101
389 74 391
390 74 1107
393 74 1017
395 74 922
397 74 2368
409 74 1690
410 74 1197
413 74 1720
415 74 2629
416 74 247
418 74 118
420 74 126
422 74 1657
423 74 1355
426 74 1685
427 74 1174
429 74 1539
430 74 486
431 74 757
432 74 345
434 74 534
437 74 657
438 74 1962
439 74 1129
440 74 150
441 74 1204
443 74 911
444 74 1775
448 74 628
449 74 229
452 74 921
455 74 1899
460 74 1405
462 74 776
463 74 1494
467 74 46
469 74 787
470 74 1019
471 74 951
472 74 50
478 74 514
481 74 1068
486 74 413
487 74 775
488 74 1867
489 74 417
490 74 1045
491 74 912
492 74 787
493 74 2061
496 74 798
498 74 682
500 74 1112
1 75 2601
2 75 1972
3 75 2809
5 75 1544
6 75 1299
7 75 1704
8 75 2055
9 75 1596
10 75 1734
11 75 2422
12 75 3607
14 75 2401
15 75 3
16 75 1472
17 75 87
18 75 6
19 75 2051
20 75 3799
21 75 2086
22 75 113
23 75 789
24 75 1905
25 75 1313
26 75 2573
27 75 747
28 75 7
29 75 1549
30 75 21
31 75 73
32 75 2978
33 75 3024
34 75 14
36 75 26
38 75 1599
39 75 67
40 75 1753
41 75 1884
42 75 1113
43 75 3085
44 75 1911
45 75 47
47 75 7
48 75 1284
49 75 63
50 75 912
51 75 1944
52 75 1611
53 75 7
54 75 1532
55 75 1265
56 75 4
57 75 2813
60 75 1447
61 75 2328
63 75 1365
64 75 25
65 75 1543
66 75 1843
67 75 570
68 75 1225
69 75 1800
70 75 1662
71 75 2483
72 75 8
73 75 1898
74 75 1093
75 75 8
76 75 1943
77 75 5
78 75 1211
79 75 2968
81 75 24
82 75 2779
83 75 3
84 75 3471
85 75 2105
86 75 3108
87 75 2
88 75 1844
89 75 214
90 75 2659
91 75 930
93 75 2274
94 75 2
95 75 1224
96 75 2934
97 75 24
98 75 3044
99 75 1892
100 75 23
101 75 2
102 75 21
103 75 26
104 75 4
105 75 866
106 75 2604
107 75 30
108 75 2004
109 75 1624
110 75 3200
111 75 1752
112 75 901
113 75 2845
114 75 7
115 75 2140
116 75 454
117 75 1712
118 75 1812
119 75 2889
120 75 2630
121 75 1344
122 75 6
123 75 33
124 75 2464
125 75 990
126 75 3834
127 75 1947
129 75 2691
130 75 2883
131 75 99
132 75 4
133 75 1443
134 75 76
135 75 4
136 75 1350
137 75 2017
138 75 7
139 75 2889
140 75 687
141 75 3119
142 75 829
143 75 1536
145 75 7
146 75 1387
147 75 2223
148 75 1636
149 75 378
150 75 56
151 75 3177
153 75 1409
154 75 1449
155 75 3052
157 75 853
158 75 61
159 75 1806
160 75 1156
161 75 1169
162 75 679
163 75 1310
165 75 24
167 75 68
168 75 2818
169 75 1256
170 75 2
172 75 1412
173 75 4
174 75 2193
175 75 1564
176 75 882
177 75 55
178 75 1460
179 75 18
180 75 3
181 75 6
182 75 2810
183 75 2304
184 75 1763
185 75 2304
186 75 19
187 75 1184
188 75 2291
189 75 8
190 75 1847
191 75 2038
192 75 2076
194 75 177
196 75 4
198 75 249
199 75 1095
200 75 1779
201 75 1447
203 75 105
204 75 879
205 75 63
206 75 1261
207 75 1668
208 75 5
209 75 1295
210 75 460
211 75 2568
212 75 1151
213 75 2006
214 75 2711
215 75 1505
217 75 1896
218 75 2682
219 75 3
221 75 9
222 75 1484
223 75 4
224 75 1988
225 75 770
226 75 1032
227 75 1282
228 75 1704
229 75 1596
230 75 2001
231 75 3380
232 75 1490
233 75 22
234 75 1341
235 75 1471
236 75 27
237 75 1572
238 75 2309
239 75 1341
240 75 2108
241 75 4
242 75 2393
243 75 2420
244 75 2311
245 75 1298
246 75 1372
247 75 92
248 75 107
250 75 1652
251 75 175
252 75 1671
254 75 56
255 75 6
256 75 139
257 75 2862
258 75 29
259 75 3432
260 75 1196
261 75 1901
263 75 1517
265 75 8
267 75 2273
268 75 6
269 75 1490
270 75 1559
271 75 86
272 75 32
273 75 2182
274 75 1889
275 75 2052
276 75 1854
277 75 1564
278 75 1754
279 75 601
280 75 1859
281 75 19
282 75 1992
283 75 2049
284 75 1727
285 75 2868
286 75 1783
287 75 361
288 75 2103
290 75 85
291 75 54
292 75 1716
293 75 6
294 75 1929
295 75 6
296 75 2116
297 75 1725
298 75 4
299 75 2874
300 75 27
301 75 2017
302 75 1872
303 75 2873
304 75 1633
305 75 3
307 75 5
308 75 2078
309 75 20
310 75 5
311 75 177
312 75 3520
313 75 1706
314 75 2181
315 75 22
316 75 27
317 75 5
318 75 1930
319 75 2228
320 75 2
321 75 668
322 75 1244
323 75 1465
324 75 1603
325 75 1156
326 75 1834
327 75 5
328 75 889
329 75 1482
330 75 2860
331 75 136
332 75 1875
333 75 1694
334 75 1980
335 75 2495
336 75 66
337 75 2095
338 75 1782
339 75 1860
340 75 3780
341 75 1276
342 75 2070
343 75 2732
344 75 1638
345 75 1914
346 75 2395
347 75 2455
348 75 105
349 75 1696
350 75 2362
351 75 47
352 75 3007
353 75 1737
354 75 1528
355 75 1074
356 75 2772
357 75 2693
358 75 1277
359 75 1216
360 75 28
361 75 58
362 75 649
363 75 1442
364 75 16
365 75 690
366 75 1914
367 75 1621
368 75 1395
369 75 5
370 75 2630
371 75 2564
372 75 6
373 75 1714
374 75 31
375 75 4
376 75 144
377 75 2503
378 75 1899
379 75 1299
380 75 3867
381 75 124
382 75 1480
383 75 139
384 75 2282
385 75 7
386 75 25
387 75 4169
388 75 1539
389 75 281
390 75 28
391 75 2259
392 75 2997
393 75 181
394 75 1339
395 75 109
396 75 1272
397 75 7
398 75 2385
399 75 3506
400 75 1800
401 75 3979
402 75 2126
403 75 1245
404 75 1035
405 75 2070
406 75 1419
407 75 1532
408 75 3100
409 75 11
410 75 5
411 75 2593
412 75 1658
413 75 115
414 75 1857
416 75 104
417 75 3261
418 75 624
419 75 2804
420 75 1376
421 75 1412
422 75 135
423 75 53
424 75 1144
425 75 3391
427 75 6
428 75 1321
429 75 14
430 75 448
432 75 126
433 75 3143
434 75 10
435 75 1714
436 75 1690
437 75 24
438 75 117
440 75 127
441 75 140
442 75 1241
443 75 83
444 75 58
445 75 2938
446 75 2106
447 75 1337
448 75 120
449 75 91
450 75 1680
451 75 2065
452 75 29
453 75 2060
454 75 1735
455 75 4
456 75 888
457 75 2905
458 75 2259
459 75 1645
461 75 1144
462 75 34
463 75 5
464 75 1385
465 75 2586
466 75 2648
467 75 1164
468 75 2866
470 75 94
471 75 20
472 75 1475
473 75 1916
474 75 2475
475 75 1014
476 75 1031
477 75 1268
478 75 775
479 75 2114
480 75 1969
481 75 24
482 75 994
483 75 1552
484 75 1316
485 75 2356
486 75 120
487 75 6
488 75 18
489 75 102
490 75 7
492 75 79
493 75 3
494 75 1345
495 75 2266
497 75 1589
498 75 8
499 75 2348
500 75 194
2 76 719
4 76 2041
13 76 2222
15 76 2775
17 76 3092
18 76 1408
22 76 3328
24 76 11
25 76 1721
28 76 3348
30 76 2251
31 76 2193
34 76 1753
35 76 2924
36 76 3400
37 76 1612
39 76 1457
41 76 3
45 76 2106
46 76 3112
47 76 1344
49 76 2417
53 76 1392
56 76 2218
58 76 3112
59 76 1156
62 76 1690
64 76 2160
66 76 378
67 76 2581
69 76 1079
72 76 2546
75 76 2447
77 76 3060
79 76 476
80 76 1724
81 76 1678
83 76 2013
87 76 2694
89 76 3180
92 76 4086
94 76 3072
96 76 9
97 76 2893
100 76 2577
101 76 3003
102 76 1677
103 76 2219
104 76 1790
107 76 1093
113 76 273
114 76 2142
116 76 2135
120 76 3
122 76 2921
123 76 2536
126 76 331
128 76 3270
131 76 1781
132 76 3397
134 76 1116
135 76 2380
136 76 773
138 76 2148
144 76 1516
145 76 4237
149 76 2140
150 76 2323
152 76 1519
156 76 1663
158 76 1571
160 76 226
164 76 1561
165 76 2690
166 76 1213
167 76 1494
170 76 1776
171 76 4633
173 76 2275
176 76 1198
177 76 2388
179 76 2466
180 76 1194
181 76 2362
184 76 383
186 76 1545
189 76 1237
191 76 23
193 76 1521
194 76 2348
195 76 1028
196 76 1149
197 76 3397
198 76 2100
202 76 2199
203 76 2339
204 76 2305
205 76 2254
207 76 41
208 76 2050
216 76 2775
219 76 3379
220 76 1359
221 76 3424
223 76 2747
224 76 8
225 76 2248
231 76 3
232 76 1287
233 76 1621
236 76 4033
240 76 188
241 76 2411
247 76 1842
248 76 941
249 76 2105
251 76 3558
253 76 1587
254 76 2213
255 76 1751
256 76 2279
258 76 1185
262 76 2001
264 76 2127
265 76 4863
266 76 1720
268 76 2687
269 76 1235
271 76 2757
272 76 1674
279 76 86
281 76 2003
287 76 1227
289 76 2706
290 76 1626
291 76 2181
293 76 1263
295 76 1609
298 76 3241
300 76 2641
302 76 191
304 76 50
305 76 1895
306 76 1430
307 76 1892
309 76 1775
310 76 3726
311 76 1691
315 76 2253
316 76 3235
317 76 2437
320 76 2469
321 76 3
327 76 2347
331 76 2023
332 76 196
336 76 1966
348 76 1929
349 76 1591
351 76 2364
358 76 95
360 76 2401
361 76 2035
362 76 1307
363 76 106
364 76 2971
368 76 385
369 76 1793
371 76 707
372 76 2928
374 76 1653
375 76 2673
376 76 1886
381 76 2810
383 76 1631
385 76 2291
386 76 2393
389 76 2559
390 76 4115
393 76 1912
395 76 2422
397 76 2276
406 76 935
409 76 1718
410 76 1531
413 76 3142
415 76 1776
416 76 690
418 76 2743
420 76 1679
422 76 1867
423 76 1989
426 76 2126
427 76 2318
429 76 2322
430 76 960
431 76 1264
432 76 2195
434 76 2011
435 76 4
436 76 7
437 76 1903
438 76 2560
439 76 1957
440 76 2348
441 76 2916
443 76 2005
444 76 2889
447 76 924
448 76 1960
449 76 669
452 76 3214
455 76 1622
459 76 23
460 76 1546
461 76 3
462 76 2245
463 76 1691
467 76 164
469 76 2937
470 76 3020
471 76 1938
472 76 1234
474 76 325
475 76 223
476 76 348
478 76 2329
481 76 2399
482 76 396
484 76 30
486 76 994
487 76 3117
488 76 2121
489 76 3134
490 76 634
491 76 2239
492 76 1948
493 76 1187
496 76 2137
497 76 20
498 76 1450
500 76 4260
2 77 1392
4 77 2290
9 77 6
13 77 766
15 77 1663
17 77 780
18 77 1920
22 77 1732
25 77 544
28 77 1619
30 77 1375
31 77 1114
34 77 1772
35 77 1749
36 77 1192
37 77 1150
39 77 1166
45 77 1318
46 77 903
47 77 597
49 77 1610
53 77 1938
56 77 1336
58 77 1839
59 77 1217
62 77 1740
64 77 1581
66 77 711
67 77 2196
69 77 565
72 77 1197
75 77 1100
77 77 570
79 77 826
80 77 1151
81 77 438
83 77 1065
87 77 736
89 77 1196
92 77 2255
94 77 849
97 77 1299
100 77 1187
101 77 1381
102 77 900
103 77 1300
104 77 1282
107 77 2019
113 77 60
114 77 1407
116 77 1352
122 77 895
123 77 880
126 77 157
128 77 468
131 77 1009
132 77 1555
134 77 1024
135 77 1134
136 77 642
138 77 872
144 77 717
145 77 1125
149 77 696
150 77 1058
152 77 689
156 77 2882
158 77 1084
160 77 86
164 77 689
165 77 1795
166 77 1116
167 77 1111
170 77 1256
171 77 904
173 77 1492
176 77 1316
177 77 972
179 77 1338
180 77 2281
181 77 1307
184 77 712
186 77 847
188 77 8
189 77 1249
193 77 2213
194 77 1991
195 77 1143
196 77 903
197 77 1376
198 77 1284
202 77 734
203 77 1557
204 77 877
205 77 761
208 77 444
216 77 814
219 77 1277
220 77 1397
221 77 1045
223 77 960
224 77 29
225 77 1262
232 77 319
233 77 540
236 77 1999
240 77 89
241 77 1141
247 77 956
248 77 964
249 77 1499
251 77 1447
253 77 1177
254 77 1065
255 77 648
256 77 1857
258 77 1085
262 77 543
264 77 1064
265 77 1204
266 77 2877
268 77 741
269 77 1021
271 77 1124
272 77 1242
279 77 80
281 77 1882
287 77 315
289 77 874
290 77 498
291 77 791
293 77 1024
295 77 564
298 77 2197
300 77 1415
302 77 63
305 77 774
306 77 1145
307 77 2359
309 77 2377
310 77 3565
311 77 1059
315 77 1311
316 77 1551
317 77 1665
320 77 1789
327 77 642
331 77 1453
332 77 75
336 77 2141
348 77 1452
349 77 1604
351 77 572
358 77 3
360 77 1233
361 77 1732
362 77 492
363 77 83
364 77 1319
368 77 102
369 77 1582
371 77 150
372 77 2152
374 77 272
375 77 1119
376 77 2698
381 77 1213
383 77 1766
385 77 1993
386 77 1114
389 77 1561
390 77 1522
393 77 1280
395 77 1252
397 77 1535
406 77 480
409 77 1287
410 77 803
413 77 1119
415 77 1044
416 77 1644
418 77 782
420 77 510
422 77 666
423 77 2187
426 77 769
427 77 1087
429 77 779
430 77 577
431 77 1623
432 77 1278
434 77 1019
436 77 8
437 77 1481
438 77 460
439 77 545
440 77 1336
441 77 660
443 77 1050
444 77 1273
447 77 221
448 77 1197
449 77 1529
452 77 1055
455 77 1390
460 77 990
462 77 1093
463 77 1427
467 77 300
469 77 1493
470 77 4337
471 77 1764
472 77 330
474 77 218
475 77 194
476 77 283
478 77 1367
481 77 1430
482 77 553
484 77 4
486 77 1110
487 77 1328
488 77 2116
489 77 803
490 77 2470
491 77 1133
492 77 1476
493 77 1015
496 77 1209
497 77 21
498 77 1231
500 77 1073
2 78 1722
4 78 760
13 78 857
15 78 1166
17 78 645
18 78 876
22 78 1480
24 78 57
25 78 423
28 78 1042
30 78 674
31 78 367
34 78 689
35 78 1016
36 78 760
37 78 1206
39 78 589
41 78 72
45 78 930
46 78 764
47 78 461
49 78 1263
53 78 881
56 78 1150
58 78 394
59 78 1474
62 78 408
64 78 379
66 78 744
67 78 567
69 78 638
72 78 1050
75 78 347
77 78 484
79 78 703
80 78 816
81 78 961
83 78 175
87 78 853
89 78 598
92 78 343
94 78 931
97 78 406
100 78 874
101 78 1429
102 78 699
103 78 1140
104 78 1393
107 78 1521
113 78 59
114 78 1211
116 78 1039
122 78 610
123 78 915
126 78 195
128 78 506
131 78 711
132 78 1019
134 78 504
135 78 433
136 78 480
138 78 800
144 78 867
145 78 883
149 78 961
150 78 630
152 78 1365
156 78 790
158 78 518
160 78 119
164 78 1418
165 78 654
166 78 958
167 78 254
170 78 1014
171 78 1047
173 78 407
176 78 154
177 78 692
179 78 703
180 78 575
181 78 517
184 78 762
186 78 507
189 78 554
191 78 15
193 78 486
194 78 725
195 78 923
196 78 398
197 78 1192
198 78 579
202 78 609
203 78 241
204 78 482
205 78 692
207 78 36
208 78 495
216 78 432
218 78 9
219 78 995
220 78 806
221 78 992
223 78 916
224 78 118
225 78 525
232 78 437
233 78 1149
236 78 768
240 78 471
241 78 433
247 78 1372
248 78 393
249 78 283
251 78 527
253 78 404
254 78 1252
255 78 775
256 78 707
258 78 1120
262 78 878
264 78 390
265 78 1092
266 78 848
268 78 831
269 78 299
271 78 346
272 78 513
279 78 80
281 78 366
287 78 466
289 78 392
290 78 659
291 78 340
293 78 524
295 78 508
298 78 706
300 78 1614
302 78 142
304 78 38
305 78 567
306 78 526
307 78 583
309 78 741
310 78 1210
311 78 813
315 78 470
316 78 995
317 78 624
320 78 1437
327 78 450
331 78 776
332 78 167
336 78 875
348 78 946
349 78 760
351 78 732
358 78 94
360 78 642
361 78 1164
362 78 250
363 78 116
364 78 427
368 78 258
369 78 1355
371 78 721
372 78 580
374 78 237
375 78 1082
376 78 867
381 78 526
383 78 542
385 78 940
386 78 885
389 78 986
390 78 513
393 78 590
395 78 812
397 78 1292
401 78 7
406 78 962
409 78 888
410 78 733
413 78 1706
415 78 470
416 78 394
418 78 720
420 78 394
422 78 1480
423 78 857
426 78 698
427 78 682
429 78 814
430 78 770
431 78 1556
432 78 638
434 78 761
437 78 733
438 78 1150
439 78 990
440 78 523
441 78 971
443 78 851
444 78 693
447 78 485
448 78 1156
449 78 364
452 78 1599
455 78 1188
459 78 39
460 78 915
461 78 4
462 78 967
463 78 558
467 78 259
468 78 4
469 78 1554
470 78 885
471 78 1337
472 78 472
474 78 324
475 78 127
476 78 325
478 78 809
481 78 869
482 78 329
484 78 66
486 78 486
487 78 732
488 78 1088
489 78 1590
490 78 1144
491 78 242
492 78 1485
493 78 519
496 78 549
497 78 4
498 78 786
500 78 711
2 79 443
4 79 924
13 79 777
15 79 825
17 79 281
18 79 1053
22 79 1054
25 79 207
28 79 518
30 79 273
31 79 895
34 79 868
35 79 607
36 79 388
37 79 563
39 79 460
45 79 855
46 79 422
47 79 344
49 79 834
53 79 1028
56 79 2290
58 79 1322
59 79 319
62 79 924
64 79 574
66 79 5
67 79 424
69 79 97
72 79 1219
75 79 969
77 79 295
79 79 86
80 79 601
81 79 655
83 79 266
87 79 452
89 79 491
92 79 1582
94 79 739
97 79 465
100 79 495
101 79 472
102 79 233
103 79 988
104 79 1320
107 79 715
114 79 451
116 79 340
122 79 338
123 79 818
126 79 4
128 79 564
131 79 791
132 79 573
134 79 665
135 79 692
136 79 97
138 79 1097
144 79 945
145 79 656
149 79 590
150 79 898
152 79 516
156 79 912
158 79 1122
160 79 7
164 79 539
165 79 1029
166 79 223
167 79 284
170 79 182
171 79 1090
173 79 279
176 79 42
177 79 421
179 79 493
180 79 1428
181 79 365
184 79 5
186 79 649
189 79 523
193 79 1477
194 79 1545
195 79 552
196 79 785
197 79 615
198 79 93
202 79 529
203 79 715
204 79 133
205 79 313
208 79 548
216 79 1121
219 79 1292
220 79 850
221 79 1780
223 79 761
224 79 5
225 79 325
233 79 1377
236 79 1304
240 79 8
241 79 737
247 79 1063
248 79 188
249 79 1034
251 79 444
253 79 610
254 79 302
255 79 1832
256 79 1581
258 79 800
262 79 579
264 79 1375
265 79 944
266 79 914
268 79 445
269 79 66
271 79 558
272 79 513
279 79 7
281 79 1017
287 79 171
289 79 1104
290 79 906
291 79 686
293 79 300
295 79 1344
298 79 610
300 79 1697
305 79 621
306 79 292
307 79 1772
309 79 1024
310 79 2518
311 79 274
315 79 559
316 79 672
317 79 860
320 79 1420
327 79 317
331 79 343
336 79 1110
348 79 1298
349 79 242
351 79 457
360 79 867
361 79 500
362 79 98
364 79 467
368 79 47
369 79 1471
371 79 90
372 79 380
374 79 310
375 79 1221
376 79 344
381 79 782
383 79 294
385 79 830
386 79 880
389 79 412
390 79 1187
393 79 552
395 79 439
397 79 906
406 79 127
409 79 1011
410 79 328
413 79 1135
415 79 454
416 79 129
418 79 334
420 79 198
422 79 360
423 79 1109
426 79 826
427 79 787
429 79 905
430 79 512
431 79 673
432 79 262
434 79 1880
437 79 546
438 79 893
439 79 576
440 79 123
441 79 495
443 79 504
444 79 688
447 79 281
448 79 1101
449 79 149
452 79 595
455 79 479
460 79 748
462 79 709
463 79 537
467 79 19
469 79 575
470 79 1616
471 79 1335
475 79 29
476 79 52
478 79 372
481 79 738
482 79 43
486 79 308
487 79 754
488 79 612
489 79 407
490 79 536
491 79 360
492 79 667
493 79 323
496 79 1170
497 79 11
498 79 565
500 79 633
2 80 490
4 80 231
5 80 45
9 80 9
10 80 2
13 80 1269
15 80 744
17 80 786
18 80 437
19 80 7
22 80 1308
24 80 143
25 80 754
28 80 597
30 80 2244
31 80 1183
34 80 1138
35 80 1205
36 80 900
37 80 978
39 80 654
41 80 122
45 80 1137
46 80 1940
47 80 823
49 80 647
53 80 448
56 80 785
58 80 1182
59 80 1225
62 80 1028
64 80 1177
65 80 42
66 80 209
67 80 769
69 80 805
72 80 1329
75 80 1782
77 80 397
79 80 708
80 80 821
81 80 1173
83 80 610
84 80 6
87 80 594
89 80 393
92 80 634
94 80 1171
96 80 22
97 80 853
100 80 2118
101 80 1016
102 80 944
103 80 622
104 80 1165
107 80 831
111 80 6
113 80 151
114 80 1112
116 80 1138
122 80 1539
123 80 840
126 80 355
128 80 2653
131 80 1227
132 80 598
134 80 1181
135 80 1077
136 80 450
138 80 549
144 80 955
145 80 848
149 80 1763
150 80 331
152 80 1037
156 80 622
158 80 2711
160 80 154
161 80 42
164 80 1086
165 80 2262
166 80 1209
167 80 636
170 80 998
171 80 2356
173 80 1847
176 80 1053
177 80 845
179 80 2383
180 80 554
181 80 1524
184 80 220
186 80 981
188 80 21
189 80 444
191 80 17
193 80 1789
194 80 954
195 80 1235
196 80 832
197 80 2195
198 80 448
202 80 1642
203 80 1128
204 80 248
205 80 1212
207 80 17
208 80 450
213 80 5
216 80 930
218 80 26
219 80 1112
220 80 1239
221 80 724
223 80 1272
224 80 133
225 80 1252
231 80 139
232 80 163
233 80 570
236 80 2562
240 80 96
241 80 1020
244 80 3
247 80 681
248 80 921
249 80 361
251 80 1225
253 80 828
254 80 1151
255 80 1139
256 80 996
258 80 1277
262 80 631
264 80 1234
265 80 2683
266 80 633
268 80 607
269 80 318
271 80 1169
272 80 1365
279 80 114
281 80 792
287 80 458
289 80 958
290 80 1516
291 80 1190
293 80 1178
295 80 2316
298 80 1648
300 80 977
302 80 252
304 80 17
305 80 1055
306 80 3008
307 80 770
309 80 1136
310 80 1958
311 80 1802
312 80 5
315 80 585
316 80 972
317 80 936
320 80 322
327 80 1459
331 80 622
332 80 205
335 80 6
336 80 1566
339 80 7
348 80 386
349 80 776
351 80 2038
358 80 42
360 80 603
361 80 2007
362 80 546
363 80 78
364 80 845
368 80 309
369 80 1513
371 80 498
372 80 803
374 80 1382
375 80 1172
376 80 1981
381 80 866
383 80 823
385 80 2277
386 80 682
389 80 894
390 80 1122
393 80 1615
395 80 791
397 80 726
401 80 23
406 80 524
409 80 1733
410 80 1220
413 80 1040
415 80 1456
416 80 1082
417 80 3
418 80 707
420 80 750
422 80 668
423 80 1589
426 80 1785
427 80 1096
429 80 1151
430 80 586
431 80 913
432 80 944
434 80 583
435 80 68
436 80 10
437 80 511
438 80 1079
439 80 615
440 80 433
441 80 1737
443 80 349
444 80 682
447 80 260
448 80 1101
449 80 1055
452 80 1121
455 80 800
459 80 89
460 80 759
461 80 74
462 80 1947
463 80 785
464 80 39
467 80 608
469 80 687
470 80 802
471 80 734
472 80 207
474 80 31
475 80 182
476 80 516
478 80 760
481 80 1973
482 80 477
484 80 39
486 80 987
487 80 1234
488 80 1068
489 80 664
490 80 319
491 80 652
492 80 1298
493 80 1157
496 80 960
497 80 45
498 80 2165
500 80 685
1 81 1178
2 81 1101
3 81 1486
4 81 1710
5 81 1321
6 81 502
7 81 1839
8 81 1280
9 81 1994
10 81 1313
11 81 920
12 81 1281
13 81 1953
14 81 2115
15 81 1506
16 81 1067
17 81 1562
18 81 1161
19 81 924
20 81 2456
21 81 2248
22 81 3074
23 81 455
24 81 1034
25 81 1459
26 81 1364
27 81 444
28 81 1785
29 81 1169
30 81 2148
31 81 644
32 81 570
33 81 1243
34 81 1613
35 81 1269
36 81 835
37 81 1934
38 81 796
39 81 566
40 81 1634
41 81 988
42 81 845
43 81 693
44 81 1002
45 81 870
46 81 1811
47 81 1165
48 81 448
49 81 2293
50 81 646
51 81 1016
52 81 399
53 81 1180
54 81 1626
55 81 1788
56 81 2446
57 81 1685
58 81 1896
59 81 1398
60 81 1312
61 81 1860
62 81 844
63 81 1810
64 81 1725
65 81 1244
66 81 1621
67 81 1364
68 81 817
69 81 2228
70 81 2166
71 81 756
72 81 2361
73 81 737
74 81 717
75 81 2321
76 81 362
77 81 1598
78 81 1595
79 81 1112
80 81 1460
81 81 1775
82 81 2954
83 81 2072
84 81 614
85 81 1052
86 81 1669
87 81 1864
88 81 1168
89 81 2680
90 81 1893
91 81 1465
92 81 1710
93 81 1303
94 81 2148
95 81 480
96 81 651
97 81 1375
98 81 3197
99 81 2096
100 81 2695
101 81 322
102 81 988
103 81 2133
104 81 615
105 81 502
106 81 1155
107 81 3046
108 81 1091
109 81 861
110 81 1474
111 81 828
112 81 576
113 81 1463
114 81 1954
115 81 1991
116 81 3874
117 81 863
118 81 962
119 81 1658
120 81 1288
121 81 466
122 81 1477
123 81 1741
124 81 1925
125 81 2217
126 81 1674
127 81 1493
128 81 2012
129 81 1044
130 81 2219
131 81 1271
132 81 1800
133 81 714
134 81 1580
135 81 1563
136 81 939
137 81 1526
138 81 787
139 81 2139
140 81 1336
141 81 2994
142 81 497
143 81 777
144 81 1310
145 81 1770
146 81 1502
147 81 1808
148 81 2176
149 81 1405
150 81 1255
151 81 1201
152 81 1763
153 81 737
154 81 1494
155 81 1279
156 81 4052
157 81 755
158 81 1239
159 81 1391
160 81 916
161 81 1234
162 81 1436
163 81 617
164 81 1764
165 81 2151
166 81 1594
167 81 1362
168 81 1453
169 81 473
170 81 1825
171 81 3189
172 81 973
173 81 1453
174 81 2556
175 81 1098
176 81 998
177 81 1618
178 81 1849
179 81 2063
180 81 2217
181 81 716
182 81 1269
183 81 1276
184 81 1586
185 81 1992
186 81 636
187 81 1887
188 81 642
189 81 1464
190 81 655
191 81 420
192 81 2511
193 81 1337
194 81 1433
195 81 1813
196 81 2127
197 81 1536
198 81 1109
199 81 1339
200 81 1862
201 81 975
202 81 1444
203 81 1078
204 81 852
205 81 4807
206 81 797
207 81 1274
208 81 637
209 81 784
210 81 742
211 81 1350
212 81 444
213 81 1017
214 81 1003
215 81 1703
216 81 3207
217 81 1449
218 81 1254
219 81 1855
220 81 1935
221 81 2853
222 81 917
223 81 1962
224 81 1587
225 81 1895
226 81 1389
227 81 478
228 81 1995
229 81 1205
230 81 1657
231 81 1295
232 81 730
233 81 1680
234 81 1704
235 81 1975
236 81 2155
237 81 320
238 81 575
239 81 2199
240 81 1959
241 81 1595
242 81 1144
243 81 2189
244 81 1299
245 81 2380
246 81 919
247 81 959
248 81 1160
249 81 2127
250 81 1156
251 81 1964
252 81 747
253 81 2376
254 81 1102
255 81 3311
256 81 1526
257 81 2028
258 81 1421
259 81 1521
260 81 1031
261 81 2702
262 81 2462
263 81 1096
264 81 2059
265 81 2983
266 81 4034
267 81 1634
268 81 1858
269 81 2067
270 81 1127
271 81 3599
272 81 761
273 81 1367
274 81 2185
275 81 1047
276 81 1942
277 81 872
278 81 1084
279 81 1583
280 81 1200
281 81 1930
282 81 1246
283 81 1941
284 81 904
285 81 587
286 81 1380
287 81 1361
288 81 1957
289 81 3164
290 81 1518
291 81 1875
292 81 556
293 81 1876
294 81 2686
295 81 3793
296 81 1023
297 81 1113
298 81 553
299 81 760
300 81 1045
301 81 1331
302 81 1534
303 81 858
304 81 1314
305 81 1223
306 81 1511
307 81 1925
308 81 1171
309 81 1333
310 81 2468
311 81 2004
312 81 1869
313 81 802
314 81 1114
315 81 2459
316 81 1458
317 81 1419
318 81 663
319 81 639
320 81 2248
321 81 869
322 81 1017
323 81 1313
324 81 1103
325 81 1410
326 81 625
327 81 1959
328 81 651
329 81 1283
330 81 1502
331 81 1358
332 81 1532
333 81 888
334 81 1313
335 81 1676
336 81 1292
337 81 1090
338 81 1411
339 81 710
340 81 1039
341 81 494
342 81 1521
343 81 2146
344 81 2472
345 81 1145
346 81 857
347 81 2424
348 81 1343
349 81 1836
350 81 2389
351 81 760
352 81 1521
353 81 1071
354 81 1082
355 81 1390
356 81 1878
357 81 1963
358 81 825
359 81 773
360 81 939
361 81 1925
362 81 1305
363 81 642
364 81 1375
365 81 1401
366 81 1341
367 81 1136
368 81 914
369 81 1515
370 81 908
371 81 1406
372 81 3140
373 81 1983
374 81 1135
375 81 1136
376 81 1057
377 81 1459
378 81 988
379 81 536
380 81 2023
381 81 1598
382 81 1279
383 81 1739
384 81 1934
385 81 1390
386 81 967
387 81 1581
388 81 1694
389 81 1192
390 81 648
391 81 1798
392 81 2314
393 81 3083
394 81 932
395 81 1605
396 81 985
397 81 1312
398 81 914
399 81 696
400 81 1407
401 81 1628
402 81 1055
403 81 800
404 81 1227
405 81 1205
406 81 3474
407 81 1956
408 81 1618
409 81 2075
410 81 1711
411 81 3913
412 81 2051
413 81 3963
414 81 1035
415 81 1058
416 81 1205
417 81 2721
418 81 2309
419 81 939
420 81 1429
421 81 1331
422 81 1929
423 81 1236
424 81 679
425 81 1276
426 81 2323
427 81 1271
428 81 1102
429 81 1059
430 81 1560
431 81 1007
432 81 2035
433 81 1075
434 81 1726
435 81 2570
436 81 518
437 81 606
438 81 1942
439 81 2515
440 81 1979
441 81 2366
442 81 996
443 81 1315
444 81 1462
445 81 2022
446 81 1056
447 81 1921
448 81 1885
449 81 1228
450 81 2138
451 81 1431
452 81 2632
453 81 1505
454 81 977
455 81 2978
456 81 814
457 81 1553
458 81 1974
459 81 921
460 81 1382
461 81 790
462 81 1865
463 81 994
464 81 992
465 81 1167
466 81 1133
467 81 1251
468 81 1791
469 81 1388
470 81 2042
471 81 3117
472 81 734
473 81 1897
474 81 1650
475 81 998
476 81 1972
477 81 1454
478 81 616
479 81 1622
480 81 743
481 81 2902
482 81 581
483 81 1695
484 81 1111
485 81 688
486 81 2709
487 81 2637
488 81 1105
489 81 2089
490 81 1813
491 81 2322
492 81 2125
493 81 1878
494 81 399
495 81 1173
496 81 638
497 81 606
498 81 1255
499 81 1138
500 81 1901
1 82 667
2 82 382
3 82 1048
4 82 1665
5 82 489
6 82 680
7 82 946
8 82 364
9 82 342
10 82 925
11 82 553
12 82 537
13 82 385
14 82 821
15 82 890
16 82 317
17 82 274
18 82 1628
19 82 564
20 82 236
21 82 635
22 82 1521
23 82 1116
24 82 365
25 82 1099
26 82 1246
27 82 137
28 82 535
29 82 400
30 82 630
31 82 698
32 82 530
33 82 1113
34 82 517
35 82 604
36 82 483
37 82 2005
38 82 386
39 82 700
40 82 414
41 82 387
42 82 403
43 82 314
44 82 576
45 82 335
46 82 343
47 82 463
48 82 676
49 82 1343
50 82 218
51 82 576
52 82 520
53 82 1648
54 82 181
55 82 541
56 82 427
57 82 740
58 82 742
59 82 1050
60 82 314
61 82 307
62 82 516
63 82 401
64 82 505
65 82 493
66 82 1051
67 82 617
68 82 1409
69 82 675
70 82 337
71 82 698
72 82 1035
73 82 612
74 82 1329
75 82 879
76 82 511
77 82 1118
78 82 377
79 82 1499
80 82 469
81 82 166
82 82 329
83 82 336
84 82 205
85 82 240
86 82 1090
87 82 1101
88 82 455
89 82 1194
90 82 382
91 82 338
92 82 607
93 82 890
94 82 353
95 82 655
96 82 452
97 82 425
98 82 833
99 82 327
100 82 508
101 82 508
102 82 124
103 82 367
104 82 1396
105 82 129
106 82 1763
107 82 398
108 82 1186
109 82 339
110 82 471
111 82 618
112 82 373
113 82 1309
114 82 776
115 82 318
116 82 1126
117 82 121
118 82 1130
119 82 415
120 82 551
121 82 170
122 82 755
123 82 392
124 82 393
125 82 246
126 82 821
127 82 427
128 82 700
129 82 634
130 82 1043
131 82 871
132 82 503
133 82 561
134 82 239
135 82 575
136 82 466
137 82 1177
138 82 1585
139 82 303
140 82 102
141 82 598
142 82 127
143 82 381
144 82 845
145 82 979
146 82 890
147 82 492
148 82 587
149 82 386
150 82 111
151 82 707
152 82 620
153 82 577
154 82 437
155 82 407
156 82 855
157 82 697
158 82 1088
159 82 1106
160 82 476
161 82 144
162 82 111
163 82 728
164 82 624
165 82 510
166 82 415
167 82 481
168 82 777
169 82 667
170 82 292
171 82 459
172 82 1165
173 82 862
174 82 640
175 82 928
176 82 893
177 82 693
178 82 1001
179 82 762
180 82 350
181 82 388
182 82 399
183 82 382
184 82 1029
185 82 389
186 82 587
187 82 860
188 82 1037
189 82 358
190 82 206
191 82 358
192 82 280
193 82 588
194 82 837
195 82 515
196 82 910
197 82 614
198 82 477
199 82 391
200 82 360
201 82 1168
202 82 504
203 82 1272
204 82 207
205 82 381
206 82 685
207 82 624
208 82 218
209 82 673
210 82 577
211 82 391
212 82 273
213 82 360
214 82 502
215 82 577
216 82 686
217 82 358
218 82 233
219 82 541
220 82 1250
221 82 235
222 82 576
223 82 787
224 82 557
225 82 504
226 82 173
227 82 707
228 82 647
229 82 800
230 82 499
231 82 1049
232 82 768
233 82 602
234 82 388
235 82 332
236 82 661
237 82 266
238 82 680
239 82 627
240 82 862
241 82 574
242 82 663
243 82 835
244 82 480
245 82 522
246 82 380
247 82 491
248 82 478
249 82 382
250 82 572
251 82 333
252 82 233
253 82 709
254 82 586
255 82 776
256 82 862
257 82 659
258 82 299
259 82 436
260 82 789
261 82 647
262 82 890
263 82 239
264 82 1143
265 82 411
266 82 874
267 82 649
268 82 1185
269 82 650
270 82 817
271 82 619
272 82 757
273 82 669
274 82 539
275 82 753
276 82 627
277 82 135
278 82 1011
279 82 192
280 82 465
281 82 1033
282 82 908
283 82 1437
284 82 2056
285 82 1012
286 82 384
287 82 436
288 82 303
289 82 661
290 82 354
291 82 1189
292 82 371
293 82 1057
294 82 1018
295 82 949
296 82 913
297 82 230
298 82 992
299 82 444
300 82 619
301 82 430
302 82 760
303 82 530
304 82 671
305 82 590
306 82 605
307 82 992
308 82 531
309 82 656
310 82 858
311 82 961
312 82 536
313 82 234
314 82 590
315 82 707
316 82 428
317 82 463
318 82 770
319 82 376
320 82 509
321 82 358
322 82 107
323 82 399
324 82 236
325 82 887
326 82 153
327 82 305
328 82 231
329 82 483
330 82 436
331 82 422
332 82 711
333 82 107
334 82 681
335 82 322
336 82 593
337 82 303
338 82 515
339 82 300
340 82 637
341 82 665
342 82 954
343 82 317
344 82 656
345 82 334
346 82 569
347 82 624
348 82 481
349 82 993
350 82 752
351 82 380
352 82 933
353 82 406
354 82 229
355 82 406
356 82 572
357 82 790
358 82 728
359 82 671
360 82 446
361 82 610
362 82 432
363 82 305
364 82 405
365 82 119
366 82 406
367 82 219
368 82 921
369 82 955
370 82 118
371 82 608
372 82 642
373 82 685
374 82 973
375 82 596
376 82 604
377 82 259
378 82 442
379 82 693
380 82 1368
381 82 579
382 82 662
383 82 598
384 82 975
385 82 1275
386 82 620
387 82 557
388 82 190
389 82 400
390 82 391
391 82 1272
392 82 420
393 82 1092
394 82 612
395 82 713
396 82 98
397 82 524
398 82 199
399 82 879
400 82 484
401 82 660
402 82 765
403 82 679
404 82 388
405 82 440
406 82 1447
407 82 605
408 82 997
409 82 512
410 82 281
411 82 516
412 82 961
413 82 388
414 82 1589
415 82 554
416 82 261
417 82 729
418 82 1122
419 82 311
420 82 1182
421 82 659
422 82 751
423 82 564
424 82 166
425 82 335
426 82 632
427 82 383
428 82 245
429 82 567
430 82 770
431 82 833
432 82 311
433 82 672
434 82 931
435 82 437
436 82 704
437 82 697
438 82 586
439 82 935
440 82 833
441 82 706
442 82 78
443 82 297
444 82 423
445 82 401
446 82 594
447 82 384
448 82 1226
449 82 251
450 82 605
451 82 427
452 82 762
453 82 389
454 82 705
455 82 631
456 82 695
457 82 560
458 82 954
459 82 778
460 82 698
461 82 1410
462 82 753
463 82 315
464 82 266
465 82 946
466 82 1021
467 82 517
468 82 546
469 82 738
470 82 533
471 82 753
472 82 733
473 82 488
474 82 841
475 82 417
476 82 859
477 82 156
478 82 490
479 82 765
480 82 665
481 82 1544
482 82 245
483 82 233
484 82 968
485 82 306
486 82 1366
487 82 482
488 82 459
489 82 585
490 82 1463
491 82 538
492 82 401
493 82 1071
494 82 221
495 82 821
496 82 586
497 82 454
498 82 1183
499 82 259
500 82 952
1 83 963
2 83 1906
3 83 1381
4 83 2117
5 83 1049
6 83 1341
7 83 2431
8 83 1888
9 83 1887
10 83 1914
11 83 1590
12 83 1517
13 83 2331
14 83 1297
15 83 2646
16 83 1126
17 83 707
18 83 1525
19 83 1415
20 83 2046
21 83 1024
22 83 3248
23 83 966
24 83 2444
25 83 2303
26 83 1407
27 83 658
28 83 1400
29 83 1900
30 83 1498
31 83 2149
32 83 1815
33 83 1865
34 83 3558
35 83 2150
36 83 2003
37 83 2958
38 83 765
39 83 1447
40 83 2341
41 83 2472
42 83 980
43 83 767
44 83 1449
45 83 757
46 83 3850
47 83 1433
48 83 1372
49 83 1818
50 83 502
51 83 372
52 83 361
53 83 1498
54 83 1367
55 83 1355
56 83 1713
57 83 2262
58 83 1100
59 83 1373
60 83 2375
61 83 2328
62 83 1150
63 83 2472
64 83 2471
65 83 1025
66 83 2015
67 83 1270
68 83 996
69 83 1448
70 83 1699
71 83 1141
72 83 1799
73 83 1239
74 83 3087
75 83 2186
76 83 903
77 83 2303
78 83 1637
79 83 2297
80 83 2162
81 83 2162
82 83 2267
83 83 740
84 83 1568
85 83 1738
86 83 1062
87 83 2645
88 83 1052
89 83 2711
90 83 1415
91 83 856
92 83 1501
93 83 1886
94 83 1872
95 83 1360
96 83 2680
97 83 2731
98 83 2227
99 83 1709
100 83 1035
101 83 2929
102 83 1541
103 83 2541
104 83 1853
105 83 624
106 83 1779
107 83 2191
108 83 2301
109 83 1693
110 83 2845
111 83 1337
112 83 1262
113 83 1324
114 83 1433
115 83 1569
116 83 3923
117 83 745
118 83 2039
119 83 2741
120 83 1756
121 83 1237
122 83 1407
123 83 2202
124 83 1086
125 83 2414
126 83 1003
127 83 1311
128 83 2061
129 83 1944
130 83 1264
131 83 2246
132 83 1453
133 83 548
134 83 1892
135 83 2706
136 83 1466
137 83 1230
138 83 1248
139 83 1498
140 83 679
141 83 1269
142 83 616
143 83 712
144 83 1561
145 83 2067
146 83 1408
147 83 1515
148 83 1985
149 83 2808
150 83 797
151 83 1740
152 83 5414
153 83 533
154 83 1350
155 83 1462
156 83 1192
157 83 1891
158 83 1287
159 83 1063
160 83 1096
161 83 1266
162 83 717
163 83 1082
164 83 5490
165 83 2298
166 83 1656
167 83 910
168 83 1794
169 83 1333
170 83 1870
171 83 1394
172 83 1462
173 83 2043
174 83 935
175 83 1337
176 83 1253
177 83 1050
178 83 1791
179 83 2842
180 83 1962
181 83 2096
182 83 1792
183 83 2330
184 83 1957
185 83 1365
186 83 1207
187 83 1513
188 83 1271
189 83 1939
190 83 817
191 83 1332
192 83 2752
193 83 1051
194 83 2951
195 83 1108
196 83 1095
197 83 2967
198 83 1090
199 83 865
200 83 1923
201 83 1431
202 83 861
203 83 1317
204 83 2246
205 83 2601
206 83 1579
207 83 2228
208 83 1719
209 83 1528
210 83 934
211 83 1938
212 83 475
213 83 1371
214 83 1053
215 83 1153
216 83 986
217 83 2305
218 83 1191
219 83 1905
220 83 2183
221 83 3322
222 83 1370
223 83 1928
224 83 1260
225 83 3336
226 83 1128
227 83 1416
228 83 1667
229 83 1989
230 83 1456
231 83 2822
232 83 1718
233 83 2722
234 83 2129
235 83 839
236 83 1111
237 83 710
238 83 971
239 83 1435
240 83 913
241 83 2734
242 83 2019
243 83 1702
244 83 1801
245 83 1483
246 83 1928
247 83 2583
248 83 2404
249 83 1220
250 83 672
251 83 1496
252 83 486
253 83 1639
254 83 1756
255 83 1794
256 83 3138
257 83 2150
258 83 2716
259 83 1797
260 83 1584
261 83 2299
262 83 1933
263 83 895
264 83 3991
265 83 2953
266 83 1212
267 83 2198
268 83 2593
269 83 903
270 83 1696
271 83 2059
272 83 1196
273 83 1585
274 83 1213
275 83 2077
276 83 1532
277 83 745
278 83 968
279 83 821
280 83 1020
281 83 2660
282 83 1118
283 83 1148
284 83 2254
285 83 1214
286 83 1133
287 83 1204
288 83 1541
289 83 1085
290 83 399
291 83 1240
292 83 947
293 83 950
294 83 2241
295 83 1929
296 83 2256
297 83 1067
298 83 2382
299 83 827
300 83 1023
301 83 1807
302 83 792
303 83 1312
304 83 2246
305 83 1483
306 83 1596
307 83 1075
308 83 1264
309 83 2033
310 83 1957
311 83 1998
312 83 770
313 83 510
314 83 1048
315 83 1730
316 83 2720
317 83 3021
318 83 901
319 83 1259
320 83 2401
321 83 943
322 83 456
323 83 1370
324 83 952
325 83 1041
326 83 777
327 83 2087
328 83 501
329 83 1644
330 83 1360
331 83 1183
332 83 827
333 83 787
334 83 2419
335 83 1229
336 83 1230
337 83 1068
338 83 1272
339 83 1088
340 83 485
341 83 1390
342 83 1458
343 83 1473
344 83 1674
345 83 924
346 83 1932
347 83 2029
348 83 1284
349 83 1614
350 83 792
351 83 1989
352 83 2362
353 83 937
354 83 988
355 83 845
356 83 2517
357 83 1698
358 83 889
359 83 1496
360 83 2033
361 83 2219
362 83 2165
363 83 1330
364 83 2672
365 83 727
366 83 1487
367 83 1058
368 83 1749
369 83 1742
370 83 1338
371 83 2254
372 83 1993
373 83 1426
374 83 1799
375 83 2221
376 83 1737
377 83 2472
378 83 1616
379 83 1397
380 83 2086
381 83 2096
382 83 1944
383 83 1930
384 83 2183
385 83 1729
386 83 2615
387 83 1568
388 83 1365
389 83 1486
390 83 1982
391 83 2588
392 83 1570
393 83 2090
394 83 1758
395 83 2585
396 83 447
397 83 1590
398 83 929
399 83 1765
400 83 1599
401 83 1879
402 83 2115
403 83 1527
404 83 1728
405 83 1220
406 83 2476
407 83 557
408 83 1022
409 83 1741
410 83 2407
411 83 1664
412 83 901
413 83 623
414 83 1231
415 83 1869
416 83 1503
417 83 1285
418 83 2625
419 83 633
420 83 2271
421 83 1433
422 83 1544
423 83 1236
424 83 519
425 83 590
426 83 1410
427 83 1487
428 83 1389
429 83 1366
430 83 2081
431 83 1224
432 83 1624
433 83 1474
434 83 2215
435 83 2604
436 83 2804
437 83 2268
438 83 3699
439 83 1866
440 83 1602
441 83 1791
442 83 436
443 83 1858
444 83 1833
445 83 1575
446 83 1041
447 83 1374
448 83 894
449 83 1502
450 83 793
451 83 1393
452 83 2478
453 83 1712
454 83 1158
455 83 2984
456 83 1880
457 83 1989
458 83 2511
459 83 1844
460 83 3616
461 83 1669
462 83 1313
463 83 1540
464 83 949
465 83 1797
466 83 1507
467 83 784
468 83 931
469 83 1229
470 83 3299
471 83 2212
472 83 1835
473 83 1649
474 83 1198
475 83 2974
476 83 558
477 83 1177
478 83 2390
479 83 2170
480 83 1171
481 83 1181
482 83 913
483 83 1373
484 83 2037
485 83 1416
486 83 3386
487 83 2434
488 83 1264
489 83 1966
490 83 1808
491 83 1385
492 83 1006
493 83 892
494 83 849
495 83 849
496 83 1927
497 83 1626
498 83 1903
499 83 1888
500 83 1706
1 84 2294
2 84 834
3 84 3162
5 84 813
7 84 2366
8 84 1185
9 84 1914
10 84 1904
11 84 1499
12 84 1319
14 84 2056
16 84 2326
19 84 1309
20 84 2942
21 84 2383
24 84 1643
25 84 2291
26 84 2387
29 84 2307
32 84 720
33 84 1745
40 84 1338
41 84 1650
42 84 34
43 84 1173
44 84 1838
50 84 19
51 84 1075
55 84 1717
57 84 1198
60 84 2705
61 84 2276
63 84 2781
65 84 835
66 84 23
67 84 3
68 84 2387
69 84 1038
70 84 2093
71 84 1975
72 84 8
73 84 1826
74 84 910
76 84 54
78 84 1396
79 84 1429
82 84 2442
84 84 1323
85 84 1650
86 84 2214
88 84 817
89 84 155
90 84 1392
91 84 2281
93 84 2215
96 84 3686
98 84 1546
99 84 1244
103 84 3
106 84 1686
108 84 1711
109 84 1713
110 84 2013
111 84 1497
112 84 1600
113 84 1554
115 84 1243
116 84 1422
118 84 1449
119 84 1650
120 84 1339
121 84 1298
124 84 1630
125 84 1420
126 84 2387
127 84 861
129 84 2038
130 84 1144
136 84 104
137 84 969
139 84 1635
141 84 2626
146 84 2372
147 84 2697
148 84 2440
149 84 202
151 84 1671
154 84 1270
155 84 786
159 84 1243
160 84 125
161 84 1126
163 84 1319
168 84 2573
172 84 1853
173 84 62
174 84 2239
175 84 851
178 84 1775
179 84 10
182 84 1154
183 84 2103
184 84 28
185 84 1476
187 84 1559
188 84 1315
191 84 380
192 84 1780
194 84 8
195 84 4
199 84 1209
200 84 2171
201 84 1842
205 84 5
207 84 1012
208 84 1
211 84 1332
213 84 1826
214 84 1651
215 84 1566
217 84 578
218 84 1318
222 84 3
224 84 815
225 84 1466
226 84 1301
228 84 1511
229 84 1533
230 84 1718
231 84 2108
234 84 1443
235 84 1897
237 84 7
238 84 2585
239 84 2235
240 84 131
242 84 2029
243 84 686
244 84 1904
245 84 1928
246 84 1162
250 84 2507
255 84 4
256 84 4
257 84 1133
259 84 708
260 84 2043
261 84 1278
267 84 1411
270 84 1343
273 84 2466
274 84 2216
275 84 2441
276 84 1551
278 84 3782
279 84 52
280 84 861
282 84 1449
283 84 1529
284 84 2125
285 84 1521
286 84 870
288 84 1303
292 84 56
294 84 2292
296 84 2889
297 84 1172
299 84 1895
301 84 1685
302 84 1444
303 84 1246
304 84 952
308 84 2057
312 84 3046
314 84 2729
319 84 1811
321 84 1548
323 84 1167
325 84 1810
328 84 15
329 84 3
330 84 1641
332 84 1426
334 84 2326
335 84 1656
336 84 5
337 84 1526
338 84 1475
339 84 2100
340 84 910
342 84 1958
343 84 1681
344 84 994
345 84 2648
346 84 898
347 84 1765
348 84 8
349 84 2834
350 84 1094
352 84 1821
353 84 2037
355 84 1104
356 84 1107
357 84 2314
358 84 277
362 84 8
363 84 251
366 84 1413
368 84 41
370 84 1074
371 84 1751
372 84 4
373 84 175
375 84 25
376 84 3
377 84 1607
378 84 1120
380 84 1668
382 84 2451
383 84 56
384 84 1231
387 84 2930
391 84 1011
392 84 649
393 84 81
398 84 821
399 84 1208
400 84 961
401 84 3507
402 84 2371
404 84 2716
405 84 1035
406 84 1861
407 84 1901
408 84 2323
409 84 6
411 84 1537
412 84 1390
414 84 1063
417 84 1503
418 84 2708
419 84 824
420 84 2231
421 84 2033
423 84 5
425 84 1005
427 84 4
428 84 783
430 84 899
433 84 1628
435 84 1401
436 84 837
438 84 1
441 84 5
443 84 29
445 84 1194
446 84 1417
447 84 2106
450 84 605
451 84 846
453 84 2390
454 84 850
457 84 1936
458 84 996
459 84 1313
461 84 2197
463 84 3
464 84 2016
465 84 935
466 84 2389
468 84 1095
470 84 525
473 84 2051
474 84 840
475 84 35
476 84 2281
477 84 2562
478 84 607
479 84 1180
480 84 1838
484 84 967
485 84 1527
486 84 9
489 84 68
494 84 10
495 84 1564
497 84 712
499 84 2008
500 84 223
1 85 1591
2 85 846
3 85 1748
4 85 6
5 85 526
7 85 913
8 85 1072
9 85 1236
10 85 2207
11 85 1564
12 85 1315
13 85 105
14 85 2080
15 85 7
16 85 1572
17 85 24
19 85 1373
20 85 1462
21 85 496
22 85 166
24 85 1520
25 85 1350
26 85 856
28 85 24
29 85 791
30 85 5
32 85 1398
33 85 1913
34 85 5
35 85 18
36 85 200
39 85 151
40 85 1041
41 85 1549
42 85 927
43 85 484
44 85 1980
49 85 28
50 85 98
51 85 1086
55 85 1879
56 85 8
57 85 1801
58 85 5
59 85 2
60 85 909
61 85 1606
62 85 6
63 85 1018
65 85 548
66 85 179
67 85 891
68 85 2633
69 85 1980
70 85 1357
71 85 1280
72 85 63
73 85 2301
74 85 674
76 85 258
77 85 20
78 85 916
79 85 3188
80 85 62
81 85 3
82 85 1256
83 85 18
84 85 1064
85 85 1811
86 85 864
87 85 104
88 85 1220
89 85 697
90 85 1197
91 85 674
92 85 43
93 85 1847
96 85 804
97 85 22
98 85 1205
99 85 893
100 85 27
103 85 103
106 85 1947
107 85 27
108 85 1909
109 85 1343
110 85 1423
111 85 707
112 85 1235
113 85 2503
114 85 173
115 85 1981
116 85 2350
118 85 972
119 85 1784
120 85 937
121 85 924
122 85 8
124 85 1644
125 85 2561
126 85 673
127 85 689
128 85 211
129 85 1425
130 85 743
132 85 25
134 85 111
135 85 119
136 85 505
137 85 1310
138 85 6
139 85 1622
141 85 1630
144 85 1
145 85 176
146 85 1452
147 85 1189
148 85 837
149 85 1339
150 85 111
151 85 1409
152 85 140
154 85 1102
155 85 1245
156 85 5
158 85 64
159 85 1101
160 85 690
161 85 1175
163 85 1106
164 85 137
165 85 20
166 85 26
168 85 1482
170 85 45
171 85 4
172 85 1821
173 85 332
174 85 1167
175 85 631
176 85 45
177 85 21
178 85 1732
179 85 312
181 85 200
182 85 1218
183 85 1221
184 85 171
185 85 1105
186 85 7
187 85 1410
188 85 834
189 85 244
191 85 1076
192 85 1502
195 85 114
196 85 24
197 85 18
198 85 99
199 85 733
200 85 2544
201 85 1733
204 85 166
205 85 306
207 85 652
208 85 128
211 85 1325
213 85 902
214 85 1457
215 85 1124
216 85 6
217 85 1227
218 85 1338
219 85 166
220 85 58
221 85 172
222 85 230
223 85 23
224 85 827
225 85 1288
226 85 1115
228 85 488
229 85 1812
230 85 1387
231 85 896
232 85 400
234 85 1251
235 85 1092
237 85 92
238 85 1198
239 85 1210
240 85 708
241 85 119
242 85 1405
243 85 1852
244 85 577
245 85 957
246 85 680
247 85 14
248 85 78
249 85 5
250 85 583
251 85 168
253 85 3
254 85 28
255 85 176
257 85 1098
258 85 28
259 85 1228
260 85 1028
261 85 1388
262 85 6
264 85 83
265 85 172
266 85 5
267 85 869
268 85 99
269 85 153
270 85 773
272 85 73
273 85 593
274 85 1586
275 85 1156
276 85 489
278 85 879
279 85 274
280 85 1293
282 85 1253
283 85 668
284 85 927
285 85 1303
286 85 1837
287 85 126
288 85 2015
289 85 4
290 85 23
291 85 72
292 85 423
293 85 6
294 85 1674
295 85 71
296 85 1092
297 85 1229
298 85 24
299 85 1200
300 85 5
301 85 1592
302 85 1137
303 85 590
304 85 644
306 85 104
307 85 23
308 85 1215
309 85 7
310 85 40
311 85 23
312 85 2379
314 85 1169
315 85 58
317 85 5
319 85 1276
320 85 201
321 85 1519
323 85 1165
325 85 1519
328 85 91
329 85 225
330 85 1253
332 85 1107
334 85 425
335 85 549
336 85 13
337 85 2149
338 85 1449
339 85 1331
340 85 529
342 85 607
343 85 1513
344 85 1711
345 85 959
346 85 625
347 85 2058
348 85 215
349 85 3028
350 85 1984
351 85 106
352 85 1065
353 85 1398
355 85 754
356 85 1567
357 85 1059
358 85 1086
361 85 32
362 85 126
363 85 635
364 85 22
366 85 754
368 85 134
369 85 178
370 85 962
371 85 1257
372 85 308
373 85 307
375 85 44
376 85 287
377 85 1036
378 85 2124
380 85 721
381 85 23
382 85 1363
383 85 355
384 85 675
385 85 25
386 85 127
387 85 2214
389 85 6
391 85 399
392 85 1664
393 85 1035
395 85 100
398 85 1615
399 85 872
400 85 2297
401 85 1610
402 85 1174
404 85 1514
405 85 1225
406 85 1828
407 85 1122
408 85 824
409 85 293
410 85 5
411 85 2579
412 85 844
413 85 11
414 85 1102
415 85 4
416 85 4
417 85 1335
418 85 643
419 85 1459
420 85 1326
421 85 1094
422 85 98
423 85 2
425 85 1104
426 85 245
428 85 1064
430 85 1857
431 85 2
432 85 26
433 85 995
434 85 58
435 85 1231
436 85 684
438 85 222
439 85 6
440 85 136
441 85 150
443 85 96
445 85 1429
446 85 1975
447 85 888
449 85 8
450 85 1117
451 85 731
452 85 26
453 85 1147
454 85 1368
455 85 241
457 85 1502
458 85 1213
459 85 851
460 85 70
461 85 577
462 85 171
463 85 130
464 85 748
465 85 1278
466 85 1442
467 85 141
468 85 1823
469 85 328
470 85 1466
471 85 8
472 85 455
473 85 835
474 85 1081
475 85 620
476 85 1033
477 85 940
478 85 1898
479 85 945
480 85 2338
481 85 4
482 85 34
484 85 1090
485 85 1331
486 85 110
488 85 3
489 85 558
493 85 6
494 85 271
495 85 1130
496 85 1
497 85 923
498 85 30
499 85 2056
500 85 933
1 86 366
2 86 154
3 86 958
5 86 532
7 86 297
8 86 347
9 86 638
10 86 419
11 86 320
12 86 639
14 86 497
16 86 812
19 86 303
20 86 614
21 86 225
24 86 367
25 86 343
26 86 479
29 86 178
32 86 375
33 86 551
40 86 262
41 86 370
42 86 50
43 86 458
44 86 268
47 86 7
51 86 538
55 86 219
57 86 726
60 86 290
61 86 714
63 86 420
65 86 575
67 86 7
68 86 758
69 86 349
70 86 475
71 86 397
73 86 237
74 86 479
76 86 10
78 86 495
79 86 327
82 86 708
84 86 177
85 86 503
86 86 309
88 86 248
90 86 537
91 86 385
93 86 254
96 86 479
98 86 280
99 86 169
100 86 3
106 86 804
108 86 442
109 86 453
110 86 375
111 86 161
112 86 380
113 86 791
115 86 509
116 86 244
118 86 107
119 86 844
120 86 290
121 86 110
124 86 473
125 86 831
126 86 520
127 86 720
129 86 203
130 86 290
136 86 9
137 86 384
139 86 396
141 86 313
145 86 10
146 86 567
147 86 464
148 86 405
149 86 110
151 86 249
154 86 288
155 86 193
159 86 301
160 86 82
161 86 116
163 86 276
165 86 4
168 86 357
172 86 441
173 86 9
174 86 1111
175 86 471
177 86 1
178 86 470
182 86 651
183 86 398
185 86 349
187 86 939
188 86 323
191 86 99
192 86 323
199 86 286
200 86 575
201 86 451
204 86 10
207 86 326
211 86 419
213 86 489
214 86 531
215 86 248
217 86 232
218 86 280
221 86 3
222 86 19
224 86 139
225 86 784
226 86 224
228 86 458
229 86 410
230 86 371
231 86 558
234 86 356
235 86 450
237 86 7
238 86 369
239 86 321
240 86 36
242 86 786
243 86 455
244 86 724
245 86 169
246 86 258
250 86 587
257 86 706
259 86 693
260 86 310
261 86 340
267 86 310
270 86 125
273 86 475
274 86 608
275 86 242
276 86 438
278 86 863
279 86 88
280 86 273
282 86 290
283 86 236
284 86 296
285 86 161
286 86 318
288 86 550
294 86 289
296 86 639
297 86 450
299 86 145
301 86 437
302 86 332
303 86 412
304 86 327
308 86 358
310 86 6
312 86 429
314 86 576
319 86 948
321 86 265
323 86 269
325 86 404
330 86 359
332 86 357
334 86 479
335 86 139
337 86 204
338 86 203
339 86 229
340 86 303
342 86 306
343 86 377
344 86 646
345 86 275
346 86 326
347 86 336
349 86 491
350 86 322
352 86 549
353 86 378
355 86 350
356 86 342
357 86 340
358 86 128
363 86 70
366 86 781
370 86 464
371 86 468
373 86 55
377 86 459
378 86 1068
380 86 671
382 86 804
383 86 120
384 86 318
387 86 625
391 86 632
392 86 478
393 86 6
398 86 174
399 86 187
400 86 236
401 86 940
402 86 258
404 86 406
405 86 522
406 86 529
407 86 484
408 86 315
411 86 366
412 86 802
414 86 470
417 86 262
418 86 430
419 86 412
420 86 356
421 86 753
425 86 376
428 86 323
430 86 227
433 86 355
435 86 189
436 86 126
445 86 280
446 86 335
447 86 495
450 86 231
451 86 741
453 86 274
454 86 581
457 86 332
458 86 174
459 86 119
461 86 249
464 86 119
465 86 752
466 86 479
468 86 197
470 86 146
473 86 322
474 86 722
475 86 10
476 86 786
477 86 473
478 86 305
479 86 242
480 86 256
484 86 501
485 86 332
489 86 5
494 86 7
495 86 433
497 86 112
499 86 555
500 86 88
1 87 1015
2 87 902
3 87 1068
5 87 1216
7 87 878
8 87 856
9 87 903
10 87 1611
11 87 1054
12 87 552
14 87 768
15 87 6
16 87 1748
19 87 686
20 87 1291
21 87 874
24 87 1047
25 87 1426
26 87 760
29 87 373
32 87 993
33 87 1831
35 87 5
36 87 3
39 87 68
40 87 578
41 87 1030
42 87 312
43 87 940
44 87 561
49 87 22
50 87 61
51 87 738
55 87 668
57 87 894
58 87 4
59 87 3
60 87 1639
61 87 655
63 87 378
64 87 7
65 87 1185
66 87 234
67 87 803
68 87 915
69 87 1072
70 87 1656
71 87 1775
72 87 32
73 87 598
74 87 1013
76 87 155
78 87 429
79 87 1501
82 87 901
84 87 987
85 87 1302
86 87 456
87 87 27
88 87 677
89 87 296
90 87 1107
91 87 1403
93 87 992
96 87 965
97 87 7
98 87 980
99 87 1010
100 87 25
103 87 4
106 87 1516
107 87 9
108 87 1201
109 87 617
110 87 1271
111 87 611
112 87 1249
113 87 1740
114 87 26
115 87 1191
116 87 1256
118 87 1236
119 87 410
120 87 873
121 87 706
122 87 6
124 87 461
125 87 1476
126 87 1905
127 87 518
129 87 526
130 87 1383
136 87 528
137 87 592
139 87 916
141 87 1242
146 87 1157
147 87 1758
148 87 598
149 87 543
150 87 4
151 87 861
152 87 123
154 87 1022
155 87 1229
156 87 4
159 87 964
160 87 629
161 87 1028
163 87 1309
164 87 116
165 87 26
166 87 29
168 87 1724
171 87 3
172 87 532
173 87 419
174 87 1718
175 87 1035
176 87 3
177 87 4
178 87 278
179 87 272
181 87 18
182 87 989
183 87 1144
184 87 197
185 87 1184
187 87 1084
188 87 1061
189 87 89
191 87 919
192 87 788
196 87 3
197 87 7
198 87 25
199 87 800
200 87 1086
201 87 488
204 87 56
205 87 219
207 87 437
211 87 1659
213 87 779
214 87 723
215 87 310
217 87 1399
218 87 1131
220 87 27
221 87 54
222 87 201
224 87 606
225 87 774
226 87 320
228 87 1033
229 87 1013
230 87 541
231 87 793
232 87 106
234 87 689
235 87 523
237 87 36
238 87 1743
239 87 599
240 87 343
242 87 610
243 87 1555
244 87 916
245 87 1449
246 87 547
248 87 29
250 87 1369
251 87 30
257 87 575
259 87 1979
260 87 892
261 87 946
264 87 6
265 87 11
266 87 4
267 87 768
268 87 27
269 87 116
270 87 624
273 87 675
274 87 779
275 87 851
276 87 1098
278 87 763
279 87 518
280 87 687
281 87 4
282 87 679
283 87 973
284 87 1211
285 87 843
286 87 529
287 87 92
288 87 1262
292 87 262
293 87 4
294 87 541
296 87 722
297 87 650
299 87 473
301 87 319
302 87 1231
303 87 574
304 87 487
308 87 434
310 87 144
312 87 520
314 87 841
319 87 549
320 87 71
321 87 635
323 87 1050
325 87 1189
328 87 62
329 87 85
330 87 2680
332 87 1187
334 87 1609
335 87 374
337 87 571
338 87 563
339 87 801
340 87 745
342 87 1112
343 87 892
344 87 1836
345 87 705
346 87 1014
347 87 1534
349 87 962
350 87 1052
351 87 5
352 87 924
353 87 897
355 87 766
356 87 668
357 87 2050
358 87 923
361 87 20
362 87 70
363 87 470
364 87 8
366 87 830
368 87 130
369 87 31
370 87 986
371 87 581
372 87 168
373 87 257
375 87 3
376 87 130
377 87 859
378 87 663
380 87 1110
382 87 1601
383 87 356
384 87 2069
386 87 6
387 87 746
391 87 813
392 87 633
393 87 7
395 87 3
398 87 1083
399 87 1253
400 87 868
401 87 1782
402 87 826
404 87 1023
405 87 278
406 87 1041
407 87 1183
408 87 428
409 87 153
411 87 2037
412 87 717
414 87 833
417 87 1488
418 87 1390
419 87 840
420 87 1412
421 87 1529
422 87 32
425 87 1384
426 87 76
428 87 1172
430 87 712
432 87 6
433 87 867
435 87 1173
436 87 1056
438 87 131
440 87 10
441 87 8
443 87 44
445 87 1273
446 87 1048
447 87 2048
450 87 1293
451 87 541
453 87 585
454 87 728
457 87 1109
458 87 1616
459 87 359
461 87 693
462 87 6
463 87 171
464 87 524
465 87 339
466 87 576
467 87 54
468 87 635
469 87 65
470 87 862
472 87 119
473 87 851
474 87 1349
475 87 104
476 87 1454
477 87 811
478 87 713
479 87 836
480 87 536
484 87 567
485 87 800
486 87 101
489 87 155
493 87 5
494 87 76
495 87 1382
496 87 29
497 87 710
498 87 2
499 87 782
500 87 469
1 88 1089
2 88 2321
3 88 1358
4 88 142
5 88 97
6 88 18
7 88 2117
8 88 681
9 88 858
10 88 1014
11 88 1448
12 88 1252
13 88 62
14 88 1536
15 88 761
16 88 1453
17 88 8
18 88 113
19 88 612
20 88 1039
21 88 438
22 88 1211
23 88 72
24 88 452
25 88 1560
26 88 1777
27 88 16
28 88 122
29 88 1346
30 88 139
31 88 310
32 88 1272
33 88 558
34 88 202
35 88 233
36 88 169
37 88 102
38 88 35
39 88 386
40 88 1628
41 88 468
42 88 34
43 88 2037
44 88 1130
45 88 143
46 88 507
47 88 91
48 88 15
49 88 262
50 88 15
51 88 283
52 88 17
53 88 90
54 88 22
55 88 2051
56 88 104
57 88 722
58 88 202
59 88 4
60 88 2080
61 88 870
62 88 60
63 88 1123
64 88 104
65 88 96
66 88 43
67 88 1788
68 88 1285
69 88 1721
70 88 965
71 88 1848
72 88 1002
73 88 936
74 88 1566
75 88 920
76 88 112
78 88 1535
79 88 2062
80 88 338
81 88 110
82 88 1321
83 88 5
84 88 358
85 88 791
86 88 840
87 88 573
88 88 1086
89 88 1852
90 88 1138
91 88 1560
92 88 264
93 88 1129
94 88 123
95 88 28
96 88 1234
97 88 27
98 88 1082
99 88 318
100 88 117
101 88 6
102 88 62
103 88 160
104 88 345
105 88 17
106 88 1518
107 88 419
108 88 1999
109 88 1413
110 88 1162
111 88 252
112 88 1517
113 88 1259
114 88 282
115 88 673
116 88 667
118 88 1087
119 88 725
120 88 1226
121 88 166
122 88 2
124 88 1680
125 88 1308
126 88 1563
127 88 1112
129 88 1151
130 88 1549
131 88 21
132 88 120
134 88 89
135 88 156
136 88 96
137 88 24
138 88 147
139 88 1129
140 88 32
141 88 1231
142 88 13
143 88 28
144 88 126
145 88 394
146 88 1670
147 88 605
148 88 782
149 88 851
150 88 202
151 88 828
152 88 1422
154 88 2533
155 88 1053
156 88 362
157 88 61
158 88 107
159 88 872
160 88 56
161 88 330
162 88 23
163 88 86
164 88 1396
165 88 1344
166 88 20
167 88 5
168 88 2355
169 88 21
170 88 128
171 88 883
172 88 1330
173 88 2199
174 88 1062
175 88 851
176 88 18
177 88 27
178 88 1476
179 88 763
181 88 170
182 88 1172
183 88 746
184 88 37
185 88 1080
186 88 71
187 88 1520
188 88 389
189 88 373
190 88 12
191 88 315
192 88 1461
193 88 47
194 88 187
195 88 184
196 88 126
197 88 1472
198 88 107
199 88 1430
200 88 941
201 88 1343
202 88 135
203 88 131
204 88 25
205 88 1532
206 88 56
207 88 229
208 88 6
209 88 57
210 88 78
211 88 948
212 88 42
213 88 1805
214 88 1379
215 88 655
216 88 141
217 88 1267
218 88 632
219 88 4
220 88 327
221 88 788
222 88 38
223 88 154
224 88 61
225 88 860
226 88 1198
227 88 19
228 88 914
229 88 690
230 88 1281
231 88 986
232 88 95
234 88 1079
235 88 1662
236 88 2512
238 88 984
239 88 3288
241 88 158
242 88 1928
243 88 1458
244 88 993
245 88 1006
246 88 462
247 88 227
248 88 181
249 88 127
250 88 623
251 88 1558
252 88 92
254 88 145
255 88 1229
256 88 141
257 88 459
258 88 85
259 88 1500
260 88 155
261 88 1084
262 88 338
263 88 5
264 88 124
265 88 1040
266 88 383
267 88 1453
268 88 539
269 88 132
270 88 58
271 88 168
272 88 252
273 88 907
274 88 1304
275 88 954
276 88 970
278 88 737
279 88 112
280 88 990
281 88 289
282 88 1208
283 88 739
284 88 622
285 88 1138
286 88 964
287 88 19
288 88 668
289 88 125
290 88 10
291 88 159
292 88 124
293 88 100
294 88 1806
295 88 375
296 88 790
297 88 337
298 88 924
299 88 1651
300 88 320
301 88 1139
302 88 530
303 88 1152
304 88 242
305 88 150
306 88 269
307 88 265
308 88 1438
309 88 181
310 88 1326
311 88 155
312 88 2072
313 88 101
314 88 2061
315 88 176
316 88 292
317 88 128
318 88 19
319 88 1422
320 88 3046
321 88 888
322 88 29
323 88 2530
324 88 4
325 88 1696
326 88 3
327 88 52
328 88 21
329 88 7
330 88 1388
331 88 532
332 88 559
334 88 966
335 88 260
336 88 207
337 88 1384
338 88 1193
339 88 245
340 88 1411
341 88 20
342 88 536
343 88 1145
344 88 896
345 88 1284
346 88 1501
347 88 1366
348 88 281
349 88 2893
350 88 2247
351 88 95
352 88 916
353 88 1392
354 88 5
355 88 1389
356 88 708
357 88 1423
358 88 43
359 88 56
361 88 30
362 88 80
363 88 121
364 88 31
365 88 31
366 88 1534
367 88 5
368 88 103
369 88 2300
370 88 102
371 88 1577
372 88 1151
373 88 9
374 88 80
375 88 237
376 88 2098
377 88 1123
378 88 1314
379 88 22
380 88 2087
381 88 181
382 88 1370
383 88 1519
384 88 1139
385 88 1101
386 88 1611
387 88 1953
388 88 17
389 88 291
390 88 378
391 88 678
392 88 1773
393 88 1725
394 88 47
395 88 1277
396 88 36
397 88 67
398 88 16
399 88 1164
400 88 1233
401 88 1512
402 88 926
403 88 80
404 88 1078
405 88 1630
406 88 1498
407 88 777
408 88 819
409 88 952
410 88 116
411 88 1553
412 88 1339
413 88 302
414 88 1686
415 88 485
416 88 53
417 88 1492
418 88 1630
419 88 1254
420 88 1609
421 88 1787
422 88 85
423 88 185
424 88 10
425 88 1514
426 88 1962
427 88 27
428 88 1753
429 88 66
430 88 2880
431 88 90
432 88 60
433 88 1009
434 88 7
435 88 1690
436 88 166
437 88 45
438 88 1729
439 88 306
440 88 73
441 88 310
442 88 31
443 88 193
444 88 229
445 88 2268
446 88 622
447 88 1249
448 88 118
449 88 80
450 88 463
451 88 1080
452 88 197
453 88 1743
454 88 1151
455 88 1294
456 88 71
457 88 884
458 88 1673
459 88 71
460 88 430
461 88 97
462 88 1770
463 88 103
464 88 160
465 88 550
466 88 1312
467 88 28
468 88 1026
469 88 367
470 88 2357
471 88 480
472 88 89
473 88 1558
474 88 1213
475 88 6
476 88 1113
477 88 730
478 88 1571
479 88 778
480 88 901
481 88 145
483 88 16
484 88 69
485 88 1464
486 88 1574
487 88 7
488 88 83
489 88 1157
490 88 340
492 88 184
493 88 84
494 88 72
495 88 1743
496 88 97
497 88 6
498 88 102
499 88 1597
500 88 2231
1 89 500
2 89 593
3 89 770
7 89 218
8 89 514
9 89 44
10 89 279
11 89 659
12 89 1421
14 89 931
15 89 23
16 89 7
19 89 637
20 89 318
21 89 469
25 89 813
26 89 394
29 89 292
32 89 368
33 89 594
40 89 769
43 89 1185
44 89 323
46 89 10
51 89 5
55 89 640
57 89 540
60 89 315
61 89 1053
63 89 1969
67 89 680
68 89 833
69 89 450
70 89 1216
71 89 488
72 89 145
73 89 587
74 89 817
78 89 522
79 89 639
82 89 490
85 89 768
86 89 304
87 89 4
88 89 185
89 89 395
90 89 394
91 89 359
93 89 285
94 89 4
96 89 840
98 89 492
99 89 284
106 89 452
108 89 979
109 89 398
110 89 822
112 89 64
113 89 1711
115 89 705
116 89 807
118 89 573
119 89 1214
120 89 341
124 89 418
125 89 523
126 89 625
127 89 68
129 89 511
130 89 1213
139 89 425
141 89 703
145 89 22
146 89 397
147 89 398
148 89 606
149 89 425
151 89 589
152 89 337
154 89 949
155 89 434
156 89 10
159 89 860
164 89 376
165 89 607
168 89 261
171 89 15
172 89 360
173 89 614
174 89 792
175 89 537
178 89 604
182 89 268
183 89 743
185 89 450
187 89 306
191 89 5
192 89 638
197 89 449
199 89 500
200 89 581
201 89 393
205 89 449
210 89 3
211 89 397
213 89 361
214 89 459
215 89 407
217 89 1512
221 89 398
225 89 246
226 89 135
228 89 508
229 89 554
230 89 627
231 89 517
234 89 720
235 89 742
236 89 260
238 89 435
239 89 816
242 89 184
243 89 614
244 89 122
245 89 645
246 89 618
250 89 396
251 89 81
255 89 211
257 89 320
259 89 669
261 89 365
266 89 5
267 89 247
268 89 3
273 89 707
274 89 937
275 89 654
276 89 476
278 89 661
280 89 180
282 89 396
283 89 490
284 89 570
285 89 880
286 89 263
288 89 732
294 89 404
296 89 582
298 89 140
299 89 882
301 89 484
302 89 684
303 89 502
308 89 858
310 89 283
312 89 892
314 89 915
319 89 447
320 89 321
321 89 87
323 89 974
325 89 581
330 89 686
332 89 701
334 89 452
337 89 454
338 89 334
340 89 891
342 89 366
343 89 437
344 89 936
345 89 426
346 89 825
347 89 580
349 89 841
350 89 876
352 89 648
353 89 836
355 89 529
356 89 826
357 89 564
366 89 518
369 89 183
371 89 351
372 89 412
376 89 415
377 89 669
378 89 329
380 89 351
382 89 922
383 89 802
384 89 784
385 89 5
386 89 229
387 89 319
391 89 361
392 89 717
393 89 491
395 89 244
399 89 504
400 89 556
401 89 532
402 89 647
404 89 547
405 89 293
406 89 1232
407 89 333
408 89 305
409 89 775
411 89 1070
412 89 416
414 89 745
417 89 739
418 89 1213
419 89 418
420 89 916
421 89 601
425 89 942
426 89 1755
428 89 609
430 89 415
433 89 868
435 89 776
438 89 353
445 89 236
446 89 575
447 89 349
451 89 53
453 89 451
454 89 342
455 89 410
457 89 333
458 89 624
462 89 137
465 89 1026
466 89 533
468 89 201
470 89 970
471 89 2
473 89 283
474 89 482
476 89 472
477 89 172
478 89 419
479 89 593
480 89 633
485 89 265
489 89 340
495 89 427
499 89 1137
500 89 966
1 90 2002
2 90 2873
3 90 1604
7 90 3709
8 90 1693
9 90 58
10 90 1269
11 90 2633
12 90 1786
14 90 1539
15 90 382
16 90 87
19 90 632
20 90 1052
21 90 2152
22 90 6
24 90 7
25 90 1169
26 90 2152
29 90 662
32 90 2468
33 90 1884
40 90 1984
41 90 10
43 90 1823
44 90 2177
46 90 228
51 90 66
55 90 1226
57 90 1655
60 90 2720
61 90 2581
63 90 1922
67 90 1877
68 90 1650
69 90 1821
70 90 1264
71 90 1887
72 90 297
73 90 1489
74 90 1259
75 90 69
78 90 854
79 90 2484
80 90 7
82 90 2038
85 90 1846
86 90 1796
88 90 1980
89 90 2011
90 90 1539
91 90 2101
93 90 1664
96 90 1750
98 90 2952
99 90 1418
100 90 4
102 90 4
106 90 2239
108 90 2106
109 90 2882
110 90 1925
112 90 220
113 90 1530
115 90 1978
116 90 1795
118 90 1355
119 90 1976
120 90 1768
121 90 7
124 90 1750
125 90 2376
126 90 2952
127 90 128
129 90 2036
130 90 2234
139 90 3212
141 90 1490
145 90 120
146 90 1963
147 90 951
148 90 3120
149 90 1794
151 90 2381
152 90 473
154 90 491
155 90 1620
156 90 6
159 90 1269
161 90 28
164 90 448
165 90 1938
168 90 2344
171 90 137
172 90 1047
173 90 2074
174 90 757
175 90 2094
178 90 662
179 90 30
181 90 6
182 90 1637
183 90 2596
185 90 2113
187 90 2236
188 90 62
190 90 8
191 90 62
192 90 2337
194 90 4
197 90 784
199 90 903
200 90 1755
201 90 1024
204 90 10
205 90 1600
211 90 2229
213 90 804
214 90 2072
215 90 280
217 90 3225
218 90 44
220 90 66
221 90 2148
225 90 2123
226 90 417
228 90 3164
229 90 2809
230 90 1919
231 90 3041
234 90 1799
235 90 1716
236 90 989
238 90 1730
239 90 2898
242 90 1517
243 90 1492
244 90 199
245 90 2735
246 90 1255
250 90 1828
251 90 168
255 90 452
256 90 1
257 90 1746
259 90 3314
261 90 2875
266 90 4
267 90 3395
272 90 6
273 90 1903
274 90 2159
275 90 1141
276 90 3305
278 90 1483
280 90 1993
281 90 28
282 90 1834
283 90 1786
284 90 1931
285 90 1063
286 90 720
288 90 2003
294 90 1958
296 90 1163
297 90 40
298 90 398
299 90 768
300 90 8
301 90 2287
302 90 2184
303 90 2378
308 90 2186
310 90 2152
312 90 3683
314 90 2642
316 90 7
319 90 2112
320 90 653
321 90 176
323 90 525
325 90 1776
326 90 7
330 90 820
332 90 2184
334 90 1609
335 90 4
337 90 1612
338 90 2454
339 90 14
340 90 3358
342 90 1535
343 90 3432
344 90 2875
345 90 3021
346 90 2113
347 90 2164
349 90 1427
350 90 935
351 90 5
352 90 1725
353 90 1533
355 90 924
356 90 1810
357 90 2216
363 90 3
366 90 2029
369 90 353
371 90 2504
372 90 2752
375 90 8
376 90 1744
377 90 1207
378 90 1621
380 90 2702
382 90 3431
383 90 1131
384 90 2770
385 90 173
386 90 641
387 90 2355
391 90 723
392 90 2169
393 90 693
395 90 377
399 90 2268
400 90 1545
401 90 1869
402 90 1160
404 90 2198
405 90 1517
406 90 2424
407 90 2346
408 90 1695
409 90 2060
411 90 2143
412 90 2451
414 90 1986
415 90 61
417 90 1376
418 90 890
419 90 1632
420 90 1177
421 90 2090
425 90 1964
426 90 716
428 90 1229
430 90 3448
433 90 2023
435 90 2674
438 90 2780
445 90 2613
446 90 1048
447 90 926
451 90 130
453 90 1454
454 90 1259
455 90 1193
457 90 1797
458 90 1673
462 90 280
465 90 642
466 90 2639
468 90 1368
470 90 1326
473 90 918
474 90 2169
476 90 2705
477 90 495
478 90 1077
479 90 2784
480 90 1569
485 90 1031
489 90 1568
495 90 1949
499 90 2826
500 90 1357
1 91 927
2 91 2276
3 91 2095
4 91 1488
5 91 1690
6 91 1032
7 91 505
8 91 1242
9 91 961
10 91 2036
11 91 1348
12 91 1450
13 91 569
14 91 1856
15 91 4725
16 91 394
17 91 767
18 91 1124
19 91 1536
20 91 2189
21 91 1467
22 91 1411
23 91 551
24 91 1538
25 91 1477
26 91 2389
27 91 656
28 91 924
29 91 1521
30 91 884
31 91 947
32 91 1137
33 91 2045
34 91 1112
35 91 1965
36 91 2082
37 91 1687
38 91 454
39 91 731
40 91 1448
41 91 1505
42 91 890
43 91 1426
44 91 1113
45 91 1828
46 91 1565
47 91 1875
48 91 1051
49 91 1450
50 91 1063
51 91 1409
52 91 980
53 91 1224
54 91 1171
55 91 1394
56 91 2013
57 91 1721
58 91 1194
59 91 1434
60 91 1019
61 91 2397
62 91 1056
63 91 1213
64 91 1390
65 91 1618
66 91 1077
67 91 830
68 91 1586
69 91 1704
70 91 1037
71 91 1279
72 91 865
73 91 1487
74 91 1946
75 91 2735
76 91 1188
77 91 2231
78 91 1323
79 91 674
80 91 994
81 91 2174
82 91 1071
83 91 1555
84 91 813
85 91 812
86 91 1442
87 91 1769
88 91 1211
89 91 3008
90 91 1597
91 91 2133
92 91 984
93 91 1695
94 91 1139
95 91 1101
96 91 2158
97 91 1671
98 91 1079
99 91 1480
100 91 2178
101 91 1118
102 91 1025
103 91 1592
104 91 2539
105 91 655
106 91 1529
107 91 827
108 91 1009
109 91 1287
110 91 2209
111 91 1090
112 91 602
113 91 1371
114 91 2317
115 91 1875
116 91 4499
117 91 1059
118 91 2054
119 91 1524
120 91 768
121 91 516
122 91 1218
123 91 1169
124 91 1340
125 91 1388
126 91 2425
127 91 1553
128 91 1197
129 91 1572
130 91 1001
131 91 1113
132 91 914
133 91 1006
134 91 1795
135 91 1529
136 91 1531
137 91 972
138 91 924
139 91 766
140 91 1018
141 91 1434
142 91 662
143 91 481
144 91 1554
145 91 805
146 91 1754
147 91 442
148 91 2400
149 91 2171
150 91 905
151 91 1662
152 91 487
153 91 1032
154 91 2475
155 91 1256
156 91 2231
157 91 650
158 91 1148
159 91 2275
160 91 2421
161 91 824
162 91 1021
163 91 1053
164 91 492
165 91 1375
166 91 1246
167 91 1843
168 91 558
169 91 1043
170 91 954
171 91 1317
172 91 785
173 91 1821
174 91 1146
175 91 1566
176 91 525
177 91 1346
178 91 1241
179 91 2125
180 91 2753
181 91 2705
182 91 2146
183 91 2127
184 91 1079
185 91 366
186 91 655
187 91 1074
188 91 1124
189 91 1515
190 91 591
191 91 694
192 91 1679
193 91 920
194 91 3083
195 91 1343
196 91 626
197 91 1350
198 91 769
199 91 959
200 91 2009
201 91 798
202 91 528
203 91 1125
204 91 1040
205 91 777
206 91 731
207 91 1148
208 91 1389
209 91 725
210 91 878
211 91 1924
212 91 546
213 91 1295
214 91 2512
215 91 1263
216 91 2639
217 91 1242
218 91 993
219 91 728
220 91 1507
221 91 1574
222 91 1024
223 91 1362
224 91 1181
225 91 759
226 91 1066
227 91 1094
228 91 1264
229 91 1020
230 91 1207
231 91 1410
232 91 1188
233 91 1067
234 91 669
235 91 1733
236 91 2033
237 91 673
238 91 1428
239 91 1605
240 91 830
241 91 1608
242 91 866
243 91 2012
244 91 671
245 91 1752
246 91 1651
247 91 1700
248 91 693
249 91 1265
250 91 1038
251 91 1741
252 91 917
253 91 1083
254 91 1459
255 91 2494
256 91 3100
257 91 951
258 91 1250
259 91 1160
260 91 777
261 91 902
262 91 1345
263 91 791
264 91 1564
265 91 1689
266 91 2169
267 91 1892
268 91 1831
269 91 1538
270 91 446
271 91 2846
272 91 1436
273 91 964
274 91 1717
275 91 854
276 91 1199
277 91 1077
278 91 1965
279 91 1051
280 91 1271
281 91 2561
282 91 494
283 91 1820
284 91 667
285 91 1297
286 91 1170
287 91 1369
288 91 1837
289 91 2571
290 91 1303
291 91 678
292 91 603
293 91 1980
294 91 2034
295 91 1620
296 91 1147
297 91 1144
298 91 1386
299 91 1136
300 91 1234
301 91 1221
302 91 1541
303 91 1518
304 91 1178
305 91 1276
306 91 2330
307 91 1477
308 91 1202
309 91 2389
310 91 1779
311 91 1690
312 91 2116
313 91 945
314 91 1659
315 91 1426
316 91 1203
317 91 1242
318 91 438
319 91 1083
320 91 863
321 91 867
322 91 751
323 91 2407
324 91 774
325 91 776
326 91 594
327 91 1685
328 91 1073
329 91 679
330 91 1456
331 91 1564
332 91 1628
333 91 1030
334 91 994
335 91 1130
336 91 2299
337 91 1097
338 91 1290
339 91 727
340 91 570
341 91 1056
342 91 948
343 91 736
344 91 2475
345 91 1821
346 91 2029
347 91 1603
348 91 1732
349 91 1866
350 91 920
351 91 841
352 91 2400
353 91 1430
354 91 856
355 91 870
356 91 1059
357 91 841
358 91 1072
359 91 742
360 91 1936
361 91 795
362 91 544
363 91 1455
364 91 1687
365 91 1020
366 91 1166
367 91 854
368 91 539
369 91 1835
370 91 1602
371 91 1128
372 91 2817
373 91 962
374 91 1456
375 91 1538
376 91 1289
377 91 1500
378 91 1528
379 91 1044
380 91 1724
381 91 731
382 91 975
383 91 1532
384 91 3191
385 91 1106
386 91 1788
387 91 2777
388 91 1211
389 91 3591
390 91 1861
391 91 1115
392 91 512
393 91 2647
394 91 718
395 91 536
396 91 723
397 91 1710
398 91 1089
399 91 2237
400 91 1578
401 91 2364
402 91 914
403 91 692
404 91 1866
405 91 1187
406 91 2859
407 91 1214
408 91 1563
409 91 1124
410 91 1109
411 91 1630
412 91 1414
413 91 955
414 91 1433
415 91 2753
416 91 1391
417 91 2600
418 91 1485
419 91 1199
420 91 1528
421 91 1461
422 91 989
423 91 2238
424 91 488
425 91 1569
426 91 1610
427 91 907
428 91 791
429 91 630
430 91 2069
431 91 993
432 91 1636
433 91 1334
434 91 1551
435 91 1340
436 91 1025
437 91 1159
438 91 2065
439 91 1405
440 91 1725
441 91 1393
442 91 730
443 91 1890
444 91 1707
445 91 1845
446 91 637
447 91 1061
448 91 954
449 91 1315
450 91 1091
451 91 1597
452 91 1278
453 91 446
454 91 1114
455 91 1707
456 91 674
457 91 2487
458 91 2142
459 91 1076
460 91 1245
461 91 781
462 91 2322
463 91 1594
464 91 1375
465 91 1611
466 91 950
467 91 841
468 91 1570
469 91 872
470 91 3003
471 91 1367
472 91 1094
473 91 1600
474 91 1175
475 91 1168
476 91 816
477 91 675
478 91 942
479 91 1651
480 91 1545
481 91 1483
482 91 945
483 91 1164
484 91 1389
485 91 937
486 91 1452
487 91 1701
488 91 1965
489 91 1602
490 91 2018
491 91 2114
492 91 2314
493 91 1992
494 91 911
495 91 1900
496 91 1432
497 91 1401
498 91 1455
499 91 1511
500 91 2561
1 92 674
2 92 960
3 92 939
4 92 1577
5 92 1048
6 92 636
7 92 745
8 92 316
9 92 1235
10 92 554
11 92 2368
12 92 1782
13 92 878
14 92 288
15 92 1942
16 92 968
17 92 780
18 92 651
19 92 1172
20 92 1156
21 92 1412
22 92 562
23 92 680
24 92 1004
25 92 921
26 92 1060
27 92 613
28 92 217
29 92 789
30 92 640
31 92 1571
32 92 1147
33 92 919
34 92 824
35 92 556
36 92 904
37 92 1354
38 92 835
39 92 1185
40 92 1028
41 92 1043
42 92 890
43 92 694
44 92 1161
45 92 1175
46 92 932
47 92 2287
48 92 687
49 92 951
50 92 1164
51 92 999
52 92 602
53 92 603
54 92 460
55 92 1538
56 92 1021
57 92 725
58 92 1580
59 92 1147
60 92 417
61 92 711
62 92 854
63 92 820
64 92 977
65 92 1086
66 92 574
67 92 559
68 92 556
69 92 1450
70 92 1007
71 92 826
72 92 1821
73 92 1258
74 92 923
75 92 907
76 92 546
77 92 1070
78 92 975
79 92 1234
80 92 315
81 92 778
82 92 697
83 92 1074
84 92 676
85 92 837
86 92 697
87 92 1092
88 92 1363
89 92 1682
90 92 1293
91 92 1169
92 92 1144
93 92 544
94 92 299
95 92 660
96 92 1511
97 92 685
98 92 1209
99 92 639
100 92 688
101 92 858
102 92 1035
103 92 2867
104 92 1908
105 92 563
106 92 1357
107 92 1000
108 92 599
109 92 308
110 92 482
111 92 798
112 92 816
113 92 1589
114 92 1621
115 92 1392
116 92 2060
117 92 738
118 92 1532
119 92 763
120 92 1020
121 92 694
122 92 1018
123 92 444
124 92 2096
125 92 651
126 92 874
127 92 459
128 92 710
129 92 1311
130 92 1074
131 92 704
132 92 222
133 92 712
134 92 419
135 92 1257
136 92 294
137 92 1167
138 92 1101
139 92 664
140 92 657
141 92 1859
142 92 576
143 92 784
144 92 1261
145 92 1436
146 92 1411
147 92 1124
148 92 1586
149 92 870
150 92 1276
151 92 284
152 92 550
153 92 702
154 92 768
155 92 669
156 92 347
157 92 702
158 92 1524
159 92 738
160 92 596
161 92 488
162 92 679
163 92 386
164 92 517
165 92 1676
166 92 499
167 92 1108
168 92 1030
169 92 691
170 92 300
171 92 1544
172 92 1882
173 92 1449
174 92 1246
175 92 2054
176 92 458
177 92 926
178 92 546
179 92 897
180 92 871
181 92 1390
182 92 1483
183 92 1354
184 92 601
185 92 743
186 92 504
187 92 1495
188 92 1171
189 92 1825
190 92 550
191 92 517
192 92 1382
193 92 1200
194 92 937
195 92 1340
196 92 1327
197 92 582
198 92 1146
199 92 405
200 92 1378
201 92 1825
202 92 742
203 92 1010
204 92 354
205 92 1716
206 92 1130
207 92 717
208 92 711
209 92 1172
210 92 383
211 92 952
212 92 823
213 92 1199
214 92 724
215 92 1252
216 92 1791
217 92 761
218 92 765
219 92 1894
220 92 1083
221 92 1509
222 92 612
223 92 1171
224 92 955
225 92 1246
226 92 1290
227 92 683
228 92 1480
229 92 1201
230 92 1231
231 92 623
232 92 979
233 92 1014
234 92 557
235 92 747
236 92 1061
237 92 643
238 92 1129
239 92 933
240 92 938
241 92 1315
242 92 981
243 92 305
244 92 1360
245 92 818
246 92 741
247 92 1275
248 92 1133
249 92 804
250 92 1477
251 92 3028
252 92 925
253 92 2224
254 92 852
255 92 1335
256 92 905
257 92 1096
258 92 1009
259 92 1358
260 92 1023
261 92 606
262 92 2148
263 92 491
264 92 534
265 92 1658
266 92 380
267 92 1199
268 92 1045
269 92 943
270 92 593
271 92 1039
272 92 692
273 92 692
274 92 1598
275 92 1903
276 92 1441
277 92 711
278 92 1828
279 92 952
280 92 1336
281 92 1233
282 92 447
283 92 634
284 92 349
285 92 1618
286 92 690
287 92 1875
288 92 1405
289 92 1774
290 92 1660
291 92 838
292 92 750
293 92 978
294 92 2115
295 92 772
296 92 700
297 92 799
298 92 2296
299 92 270
300 92 377
301 92 884
302 92 1366
303 92 1284
304 92 717
305 92 1492
306 92 1696
307 92 1746
308 92 865
309 92 1595
310 92 1148
311 92 790
312 92 479
313 92 888
314 92 1517
315 92 1491
316 92 525
317 92 2224
318 92 752
319 92 916
320 92 1760
321 92 926
322 92 235
323 92 763
324 92 465
325 92 589
326 92 494
327 92 1153
328 92 1230
329 92 577
330 92 1356
331 92 1097
332 92 1385
333 92 743
334 92 1292
335 92 793
336 92 885
337 92 1667
338 92 757
339 92 416
340 92 1944
341 92 739
342 92 991
343 92 687
344 92 387
345 92 1262
346 92 704
347 92 1271
348 92 1237
349 92 577
350 92 1005
351 92 948
352 92 1025
353 92 1455
354 92 508
355 92 419
356 92 1379
357 92 1194
358 92 603
359 92 1252
360 92 1467
361 92 2171
362 92 940
363 92 697
364 92 704
365 92 672
366 92 488
367 92 502
368 92 1260
369 92 768
370 92 270
371 92 744
372 92 706
373 92 1523
374 92 1182
375 92 1555
376 92 1467
377 92 749
378 92 550
379 92 701
380 92 533
381 92 904
382 92 638
383 92 2364
384 92 1191
385 92 1321
386 92 1355
387 92 777
388 92 491
389 92 1452
390 92 1165
391 92 1327
392 92 842
393 92 913
394 92 1250
395 92 2606
396 92 268
397 92 1031
398 92 394
399 92 633
400 92 832
401 92 984
402 92 1882
403 92 1172
404 92 480
405 92 1038
406 92 673
407 92 1031
408 92 722
409 92 673
410 92 930
411 92 828
412 92 1234
413 92 1112
414 92 508
415 92 863
416 92 1035
417 92 889
418 92 709
419 92 1037
420 92 927
421 92 1022
422 92 1170
423 92 840
424 92 329
425 92 512
426 92 1066
427 92 1430
428 92 1979
429 92 1188
430 92 2225
431 92 733
432 92 567
433 92 2014
434 92 1556
435 92 1178
436 92 1782
437 92 197
438 92 807
439 92 2082
440 92 1368
441 92 1915
442 92 291
443 92 1085
444 92 1982
445 92 852
446 92 692
447 92 614
448 92 792
449 92 986
450 92 695
451 92 438
452 92 1315
453 92 1074
454 92 391
455 92 1212
456 92 667
457 92 367
458 92 829
459 92 743
460 92 939
461 92 718
462 92 1930
463 92 1407
464 92 852
465 92 519
466 92 838
467 92 745
468 92 600
469 92 1063
470 92 1071
471 92 962
472 92 923
473 92 699
474 92 1305
475 92 1138
476 92 805
477 92 554
478 92 1983
479 92 672
480 92 1160
481 92 1047
482 92 612
483 92 481
484 92 173
485 92 850
486 92 1628
487 92 557
488 92 652
489 92 936
490 92 696
491 92 644
492 92 1191
493 92 989
494 92 962
495 92 728
496 92 1816
497 92 1066
498 92 1372
499 92 1268
500 92 1721
1 93 1410
2 93 1175
3 93 1533
4 93 954
5 93 672
6 93 1163
7 93 1881
8 93 1053
9 93 656
10 93 1085
11 93 1901
12 93 2419
13 93 1343
14 93 1660
15 93 942
16 93 1809
17 93 1357
18 93 2274
19 93 1849
20 93 976
21 93 1223
22 93 2743
23 93 590
24 93 1045
25 93 1625
26 93 1997
27 93 671
28 93 1485
29 93 1412
30 93 1683
31 93 1873
32 93 1504
33 93 2545
34 93 1248
35 93 635
36 93 1867
37 93 1547
38 93 540
39 93 1612
40 93 1756
41 93 1064
42 93 757
43 93 1877
44 93 633
45 93 1342
46 93 2776
47 93 922
48 93 1139
49 93 959
50 93 1328
51 93 816
52 93 1198
53 93 2171
54 93 690
55 93 1206
56 93 971
57 93 2134
58 93 871
59 93 1682
60 93 1404
61 93 2815
62 93 2129
63 93 1453
64 93 2130
65 93 790
66 93 1257
67 93 1700
68 93 1598
69 93 2275
70 93 1011
71 93 856
72 93 2159
73 93 1917
74 93 1666
75 93 1012
76 93 1160
77 93 2302
78 93 1691
79 93 1694
80 93 1274
81 93 1250
82 93 1159
83 93 1697
84 93 296
85 93 1822
86 93 851
87 93 843
88 93 1775
89 93 1194
90 93 1822
91 93 1437
92 93 1425
93 93 1046
94 93 2005
95 93 1182
96 93 1625
97 93 1023
98 93 1108
99 93 1586
100 93 639
101 93 1971
102 93 1386
103 93 973
104 93 1295
105 93 635
106 93 1996
107 93 2687
108 93 1300
109 93 1447
110 93 2115
111 93 1005
112 93 1077
113 93 2019
114 93 1354
115 93 1529
116 93 2598
117 93 554
118 93 1477
119 93 1393
120 93 841
121 93 1326
122 93 1837
123 93 1194
124 93 218
125 93 2177
126 93 1624
127 93 788
128 93 1642
129 93 1976
130 93 1808
131 93 833
132 93 1557
133 93 765
134 93 759
135 93 1248
136 93 912
137 93 978
138 93 1275
139 93 1474
140 93 608
141 93 1144
142 93 636
143 93 527
144 93 2304
145 93 1342
146 93 480
147 93 365
148 93 1560
149 93 1717
150 93 1107
151 93 2147
152 93 1875
153 93 699
154 93 941
155 93 947
156 93 1177
157 93 650
158 93 1985
159 93 617
160 93 872
161 93 1043
162 93 650
163 93 699
164 93 1979
165 93 2444
166 93 1289
167 93 657
168 93 1119
169 93 1188
170 93 1204
171 93 3581
172 93 1103
173 93 2293
174 93 1250
175 93 1205
176 93 607
177 93 1257
178 93 1172
179 93 1346
180 93 1290
181 93 1248
182 93 978
183 93 2625
184 93 1324
185 93 1818
186 93 1096
187 93 916
188 93 1116
189 93 2076
190 93 1056
191 93 928
192 93 986
193 93 1107
194 93 1200
195 93 1610
196 93 2537
197 93 1831
198 93 1384
199 93 721
200 93 1250
201 93 1199
202 93 1974
203 93 1387
204 93 848
205 93 2818
206 93 1209
207 93 1113
208 93 1489
209 93 1192
210 93 714
211 93 1442
212 93 364
213 93 1171
214 93 1705
215 93 1475
216 93 3141
217 93 1259
218 93 1058
219 93 2426
220 93 2236
221 93 1850
222 93 957
223 93 2095
224 93 759
225 93 1715
226 93 1008
227 93 1230
228 93 978
229 93 2591
230 93 891
231 93 2588
232 93 772
233 93 1521
234 93 1695
235 93 752
236 93 1908
237 93 1029
238 93 713
239 93 1473
240 93 888
241 93 1250
242 93 2148
243 93 1059
244 93 711
245 93 2033
246 93 619
247 93 2621
248 93 498
249 93 2296
250 93 2269
251 93 1045
252 93 536
253 93 732
254 93 1366
255 93 1919
256 93 1201
257 93 1322
258 93 1238
259 93 1426
260 93 1122
261 93 1463
262 93 965
263 93 699
264 93 2103
265 93 1304
266 93 1274
267 93 2098
268 93 823
269 93 1182
270 93 854
271 93 2530
272 93 1298
273 93 797
274 93 1166
275 93 1603
276 93 1017
277 93 616
278 93 1885
279 93 945
280 93 1857
281 93 2731
282 93 1630
283 93 1525
284 93 1333
285 93 1466
286 93 759
287 93 802
288 93 1504
289 93 3072
290 93 944
291 93 1325
292 93 495
293 93 1321
294 93 1521
295 93 1271
296 93 1374
297 93 936
298 93 1732
299 93 1479
300 93 1581
301 93 977
302 93 605
303 93 1335
304 93 1025
305 93 1699
306 93 2069
307 93 1573
308 93 1645
309 93 1572
310 93 1904
311 93 665
312 93 1427
313 93 535
314 93 1659
315 93 1258
316 93 1307
317 93 1696
318 93 1201
319 93 2834
320 93 1506
321 93 1386
322 93 757
323 93 1022
324 93 732
325 93 1410
326 93 1024
327 93 1314
328 93 1443
329 93 1010
330 93 1219
331 93 2092
332 93 589
333 93 624
334 93 784
335 93 974
336 93 854
337 93 588
338 93 2086
339 93 1218
340 93 1109
341 93 1195
342 93 1404
343 93 1447
344 93 915
345 93 2339
346 93 1121
347 93 434
348 93 1995
349 93 1937
350 93 963
351 93 1525
352 93 1068
353 93 2170
354 93 751
355 93 828
356 93 812
357 93 1507
358 93 715
359 93 1161
360 93 765
361 93 1150
362 93 509
363 93 950
364 93 960
365 93 663
366 93 1273
367 93 735
368 93 1081
369 93 1777
370 93 883
371 93 884
372 93 2024
373 93 1359
374 93 2957
375 93 777
376 93 1686
377 93 960
378 93 1688
379 93 1233
380 93 738
381 93 1889
382 93 1301
383 93 1146
384 93 846
385 93 1796
386 93 1858
387 93 1250
388 93 702
389 93 1274
390 93 1259
391 93 1965
392 93 2125
393 93 1534
394 93 1299
395 93 1057
396 93 768
397 93 2401
398 93 651
399 93 2355
400 93 1177
401 93 2823
402 93 1612
403 93 1211
404 93 2198
405 93 1074
406 93 2090
407 93 2544
408 93 895
409 93 1133
410 93 1097
411 93 2000
412 93 970
413 93 1230
414 93 1128
415 93 1442
416 93 1011
417 93 1943
418 93 3327
419 93 1276
420 93 1536
421 93 1135
422 93 1687
423 93 834
424 93 825
425 93 1212
426 93 1820
427 93 1864
428 93 1724
429 93 400
430 93 1201
431 93 2236
432 93 1109
433 93 639
434 93 1583
435 93 1915
436 93 571
437 93 1331
438 93 1955
439 93 927
440 93 1310
441 93 1184
442 93 840
443 93 1422
444 93 1686
445 93 843
446 93 690
447 93 1215
448 93 1456
449 93 1032
450 93 921
451 93 780
452 93 1665
453 93 1763
454 93 1068
455 93 2222
456 93 642
457 93 2604
458 93 730
459 93 652
460 93 868
461 93 795
462 93 3165
463 93 1792
464 93 670
465 93 1147
466 93 1699
467 93 1488
468 93 814
469 93 1289
470 93 2680
471 93 2951
472 93 783
473 93 1467
474 93 917
475 93 1913
476 93 1216
477 93 1486
478 93 1248
479 93 1348
480 93 1865
481 93 1249
482 93 1827
483 93 711
484 93 1008
485 93 891
486 93 2304
487 93 2057
488 93 1846
489 93 2093
490 93 1140
491 93 1077
492 93 1508
493 93 1320
494 93 1421
495 93 792
496 93 1129
497 93 1334
498 93 1432
499 93 4358
500 93 632
1 94 1213
2 94 1166
3 94 1755
4 94 1917
5 94 1110
6 94 1172
7 94 1516
8 94 2169
9 94 1554
10 94 1195
11 94 2193
12 94 2254
13 94 2045
14 94 1077
15 94 2399
16 94 1681
17 94 1839
18 94 2426
19 94 1073
20 94 2629
21 94 1613
22 94 3538
23 94 1115
24 94 1911
25 94 1425
26 94 1231
27 94 775
28 94 1448
29 94 1382
30 94 1362
31 94 1049
32 94 1762
33 94 1196
34 94 2220
35 94 1078
36 94 1975
37 94 644
38 94 1239
39 94 1193
40 94 1350
41 94 1906
42 94 1011
43 94 2162
44 94 1003
45 94 2373
46 94 2477
47 94 1947
48 94 1091
49 94 1347
50 94 667
51 94 1524
52 94 694
53 94 2531
54 94 1401
55 94 1962
56 94 2167
57 94 1621
58 94 911
59 94 2426
60 94 2298
61 94 1497
62 94 1944
63 94 1705
64 94 869
65 94 1133
66 94 1072
67 94 1586
68 94 2140
69 94 2748
70 94 1435
71 94 1450
72 94 1093
73 94 1093
74 94 1727
75 94 3642
76 94 1214
77 94 1769
78 94 1572
79 94 1384
80 94 2087
81 94 1815
82 94 1522
83 94 1554
84 94 1325
85 94 1396
86 94 1108
87 94 1365
88 94 1578
89 94 967
90 94 1206
91 94 1665
92 94 1633
93 94 1257
94 94 766
95 94 1101
96 94 2436
97 94 1807
98 94 2306
99 94 1084
100 94 1987
101 94 2205
102 94 1881
103 94 2225
104 94 1685
105 94 747
106 94 1525
107 94 2705
108 94 1231
109 94 887
110 94 1394
111 94 1767
112 94 867
113 94 2039
114 94 1958
115 94 1812
116 94 2900
117 94 942
118 94 1364
119 94 2421
120 94 1161
121 94 1528
122 94 1361
123 94 2389
124 94 1819
125 94 2146
126 94 1289
127 94 873
128 94 1089
129 94 1854
130 94 1049
131 94 1442
132 94 1395
133 94 593
134 94 1514
135 94 1584
136 94 1450
137 94 620
138 94 1511
139 94 1828
140 94 487
141 94 1369
142 94 721
143 94 1232
144 94 1218
145 94 2235
146 94 1508
147 94 1636
148 94 2357
149 94 2616
150 94 2618
151 94 2231
152 94 1250
153 94 613
154 94 1866
155 94 1464
156 94 1756
157 94 1237
158 94 1422
159 94 2246
160 94 810
161 94 2115
162 94 503
163 94 1164
164 94 1279
165 94 2222
166 94 2766
167 94 1185
168 94 1272
169 94 1135
170 94 1435
171 94 2738
172 94 1591
173 94 1878
174 94 1988
175 94 2131
176 94 901
177 94 1325
178 94 2108
179 94 3431
180 94 2442
181 94 1526
182 94 2230
183 94 2019
184 94 1048
185 94 1588
186 94 1705
187 94 1714
188 94 1255
189 94 1237
190 94 892
191 94 980
192 94 705
193 94 701
194 94 419
195 94 689
196 94 2253
197 94 2469
198 94 1617
199 94 1095
200 94 3045
201 94 1658
202 94 1611
203 94 1458
204 94 1962
205 94 2817
206 94 1162
207 94 1394
208 94 1346
209 94 1123
210 94 812
211 94 2305
212 94 488
213 94 1620
214 94 1886
215 94 1501
216 94 3021
217 94 2849
218 94 1692
219 94 2067
220 94 2073
221 94 1831
222 94 1140
223 94 2011
224 94 1360
225 94 862
226 94 1529
227 94 1182
228 94 2206
229 94 1002
230 94 2454
231 94 1430
232 94 1124
233 94 2270
234 94 1515
235 94 1476
236 94 2387
237 94 763
238 94 1634
239 94 2350
240 94 3017
241 94 1631
242 94 1567
243 94 1926
244 94 1178
245 94 1357
246 94 1519
247 94 2461
248 94 1248
249 94 1264
250 94 1813
251 94 1192
252 94 807
253 94 1103
254 94 1122
255 94 2179
256 94 412
257 94 988
258 94 1731
259 94 2218
260 94 1275
261 94 2128
262 94 1980
263 94 620
264 94 2096
265 94 3249
266 94 1980
267 94 1944
268 94 1374
269 94 1952
270 94 899
271 94 1523
272 94 1800
273 94 1474
274 94 1372
275 94 2136
276 94 2216
277 94 903
278 94 2716
279 94 735
280 94 1443
281 94 1820
282 94 934
283 94 873
284 94 1690
285 94 2380
286 94 876
287 94 771
288 94 1764
289 94 3089
290 94 2140
291 94 1371
292 94 680
293 94 1374
294 94 969
295 94 2686
296 94 2377
297 94 1691
298 94 1638
299 94 1744
300 94 1750
301 94 1825
302 94 2124
303 94 866
304 94 1467
305 94 1770
306 94 2331
307 94 1981
308 94 1704
309 94 966
310 94 958
311 94 1148
312 94 1994
313 94 809
314 94 1969
315 94 1591
316 94 2063
317 94 1985
318 94 1535
319 94 1634
320 94 3072
321 94 1617
322 94 903
323 94 1775
324 94 577
325 94 1483
326 94 962
327 94 1501
328 94 633
329 94 2386
330 94 1888
331 94 2438
332 94 2191
333 94 953
334 94 701
335 94 1010
336 94 2235
337 94 1617
338 94 2470
339 94 1455
340 94 809
341 94 1108
342 94 1992
343 94 1885
344 94 1777
345 94 2795
346 94 911
347 94 2162
348 94 1511
349 94 3729
350 94 925
351 94 3313
352 94 989
353 94 2273
354 94 611
355 94 1088
356 94 1038
357 94 2824
358 94 926
359 94 1144
360 94 1328
361 94 1610
362 94 1411
363 94 986
364 94 1764
365 94 516
366 94 1047
367 94 663
368 94 1381
369 94 1475
370 94 1384
371 94 1489
372 94 1603
373 94 656
374 94 1637
375 94 2196
376 94 2018
377 94 655
378 94 1361
379 94 1125
380 94 822
381 94 1311
382 94 1776
383 94 1535
384 94 1987
385 94 2430
386 94 1768
387 94 1155
388 94 1397
389 94 2160
390 94 2807
391 94 2137
392 94 1422
393 94 1967
394 94 1277
395 94 843
396 94 767
397 94 3399
398 94 873
399 94 2339
400 94 2903
401 94 1176
402 94 2266
403 94 1066
404 94 1462
405 94 1469
406 94 2164
407 94 1822
408 94 1221
409 94 3328
410 94 1852
411 94 773
412 94 2025
413 94 4402
414 94 2592
415 94 1115
416 94 1712
417 94 2334
418 94 3218
419 94 1329
420 94 1490
421 94 1683
422 94 1722
423 94 2376
424 94 634
425 94 1129
426 94 1635
427 94 1474
428 94 1484
429 94 1553
430 94 2256
431 94 2584
432 94 964
433 94 1749
434 94 1193
435 94 2791
436 94 887
437 94 1137
438 94 2874
439 94 1929
440 94 1001
441 94 2479
442 94 858
443 94 1399
444 94 2507
445 94 2882
446 94 1181
447 94 1955
448 94 1596
449 94 1713
450 94 1974
451 94 824
452 94 1479
453 94 841
454 94 1897
455 94 3536
456 94 1311
457 94 1128
458 94 1247
459 94 1679
460 94 1449
461 94 1560
462 94 1569
463 94 1696
464 94 1655
465 94 858
466 94 1244
467 94 1136
468 94 1350
469 94 2088
470 94 1612
471 94 968
472 94 1093
473 94 2023
474 94 1186
475 94 1781
476 94 1939
477 94 2100
478 94 2236
479 94 2643
480 94 1148
481 94 978
482 94 652
483 94 1377
484 94 2066
485 94 1286
486 94 2211
487 94 2099
488 94 670
489 94 2756
490 94 2176
491 94 1806
492 94 1538
493 94 1341
494 94 665
495 94 2046
496 94 1216
497 94 1132
498 94 2270
499 94 1805
500 94 2574
1 95 1261
2 95 702
3 95 708
4 95 570
5 95 575
6 95 951
7 95 382
8 95 551
9 95 630
10 95 832
11 95 659
12 95 315
13 95 2564
14 95 925
15 95 1788
16 95 941
17 95 621
18 95 283
19 95 277
20 95 509
21 95 1035
22 95 1338
23 95 325
24 95 1110
25 95 529
26 95 742
27 95 354
28 95 332
29 95 1169
30 95 424
31 95 496
32 95 550
33 95 412
34 95 553
35 95 439
36 95 659
37 95 785
38 95 659
39 95 327
40 95 989
41 95 1062
42 95 219
43 95 600
44 95 269
45 95 794
46 95 926
47 95 741
48 95 995
49 95 297
50 95 590
51 95 336
52 95 906
53 95 298
54 95 166
55 95 1100
56 95 652
57 95 316
58 95 1072
59 95 1046
60 95 1161
61 95 429
62 95 482
63 95 860
64 95 1324
65 95 631
66 95 948
67 95 1149
68 95 608
69 95 1507
70 95 1438
71 95 453
72 95 660
73 95 559
74 95 1027
75 95 1312
76 95 561
77 95 2053
78 95 610
79 95 600
80 95 618
81 95 1151
82 95 799
83 95 564
84 95 459
85 95 428
86 95 267
87 95 1038
88 95 325
89 95 732
90 95 1367
91 95 905
92 95 319
93 95 943
94 95 369
95 95 1006
96 95 646
97 95 1414
98 95 529
99 95 1419
100 95 1186
101 95 762
102 95 1133
103 95 508
104 95 266
105 95 406
106 95 1401
107 95 992
108 95 604
109 95 1436
110 95 1098
111 95 897
112 95 750
113 95 849
114 95 852
115 95 1018
116 95 1926
117 95 147
118 95 433
119 95 822
120 95 678
121 95 382
122 95 1210
123 95 832
124 95 726
125 95 1047
126 95 1152
127 95 478
128 95 309
129 95 494
130 95 448
131 95 1094
132 95 306
133 95 839
134 95 378
135 95 173
136 95 1820
137 95 311
138 95 452
139 95 498
140 95 540
141 95 427
142 95 390
143 95 640
144 95 532
145 95 558
146 95 1228
147 95 625
148 95 981
149 95 615
150 95 419
151 95 1490
152 95 743
153 95 843
154 95 727
155 95 370
156 95 831
157 95 763
158 95 931
159 95 855
160 95 471
161 95 295
162 95 547
163 95 1403
164 95 830
165 95 483
166 95 1110
167 95 282
168 95 1690
169 95 1001
170 95 945
171 95 1287
172 95 635
173 95 556
174 95 456
175 95 445
176 95 298
177 95 354
178 95 1414
179 95 569
180 95 1028
181 95 575
182 95 960
183 95 199
184 95 1002
185 95 186
186 95 616
187 95 1094
188 95 709
189 95 1376
190 95 671
191 95 336
192 95 921
193 95 500
194 95 889
195 95 1124
196 95 685
197 95 1298
198 95 517
199 95 415
200 95 1147
201 95 657
202 95 423
203 95 413
204 95 514
205 95 935
206 95 213
207 95 616
208 95 749
209 95 189
210 95 449
211 95 1252
212 95 254
213 95 1035
214 95 1048
215 95 612
216 95 981
217 95 621
218 95 300
219 95 784
220 95 1633
221 95 723
222 95 438
223 95 661
224 95 266
225 95 1112
226 95 441
227 95 1026
228 95 1140
229 95 461
230 95 759
231 95 470
232 95 190
233 95 894
234 95 980
235 95 421
236 95 752
237 95 527
238 95 348
239 95 678
240 95 368
241 95 177
242 95 452
243 95 815
244 95 686
245 95 582
246 95 547
247 95 410
248 95 1168
249 95 501
250 95 972
251 95 974
252 95 504
253 95 771
254 95 442
255 95 374
256 95 832
257 95 836
258 95 668
259 95 686
260 95 564
261 95 1327
262 95 826
263 95 662
264 95 228
265 95 2171
266 95 790
267 95 1498
268 95 1058
269 95 889
270 95 648
271 95 890
272 95 1008
273 95 489
274 95 565
275 95 411
276 95 1079
277 95 166
278 95 456
279 95 667
280 95 315
281 95 497
282 95 536
283 95 961
284 95 649
285 95 456
286 95 487
287 95 402
288 95 1010
289 95 944
290 95 803
291 95 640
292 95 1182
293 95 594
294 95 981
295 95 1196
296 95 1512
297 95 661
298 95 920
299 95 1205
300 95 929
301 95 119
302 95 792
303 95 1058
304 95 593
305 95 2113
306 95 616
307 95 574
308 95 525
309 95 1051
310 95 1124
311 95 469
312 95 1315
313 95 533
314 95 757
315 95 1040
316 95 485
317 95 791
318 95 536
319 95 1160
320 95 860
321 95 247
322 95 332
323 95 695
324 95 690
325 95 1159
326 95 626
327 95 1155
328 95 602
329 95 306
330 95 627
331 95 1081
332 95 867
333 95 170
334 95 845
335 95 356
336 95 900
337 95 382
338 95 997
339 95 446
340 95 724
341 95 1024
342 95 218
343 95 510
344 95 659
345 95 956
346 95 740
347 95 590
348 95 1343
349 95 751
350 95 777
351 95 491
352 95 710
353 95 783
354 95 708
355 95 428
356 95 518
357 95 949
358 95 715
359 95 199
360 95 927
361 95 1900
362 95 590
363 95 611
364 95 1454
365 95 562
366 95 488
367 95 695
368 95 346
369 95 493
370 95 628
371 95 446
372 95 592
373 95 332
374 95 632
375 95 267
376 95 1190
377 95 1074
378 95 836
379 95 1046
380 95 417
381 95 605
382 95 923
383 95 952
384 95 729
385 95 1115
386 95 1562
387 95 701
388 95 194
389 95 874
390 95 472
391 95 726
392 95 478
393 95 1365
394 95 607
395 95 716
396 95 290
397 95 643
398 95 230
399 95 958
400 95 575
401 95 993
402 95 511
403 95 205
404 95 868
405 95 499
406 95 343
407 95 1438
408 95 265
409 95 738
410 95 658
411 95 869
412 95 876
413 95 1318
414 95 669
415 95 646
416 95 942
417 95 620
418 95 602
419 95 309
420 95 571
421 95 598
422 95 606
423 95 851
424 95 232
425 95 525
426 95 1021
427 95 258
428 95 557
429 95 861
430 95 1285
431 95 398
432 95 295
433 95 1285
434 95 1008
435 95 594
436 95 409
437 95 292
438 95 1345
439 95 841
440 95 1220
441 95 851
442 95 278
443 95 537
444 95 983
445 95 665
446 95 678
447 95 1871
448 95 852
449 95 906
450 95 407
451 95 515
452 95 1386
453 95 622
454 95 316
455 95 708
456 95 746
457 95 1301
458 95 1093
459 95 449
460 95 796
461 95 513
462 95 1538
463 95 615
464 95 891
465 95 309
466 95 714
467 95 200
468 95 364
469 95 816
470 95 1824
471 95 1949
472 95 195
473 95 605
474 95 1339
475 95 970
476 95 895
477 95 726
478 95 1702
479 95 721
480 95 634
481 95 556
482 95 960
483 95 202
484 95 339
485 95 571
486 95 479
487 95 750
488 95 746
489 95 1154
490 95 710
491 95 372
492 95 733
493 95 616
494 95 739
495 95 491
496 95 1057
497 95 239
498 95 406
499 95 1013
500 95 2338
1 96 1941
2 96 2874
3 96 2268
4 96 2222
5 96 1173
6 96 1332
7 96 2356
8 96 758
9 96 2972
10 96 2561
11 96 1605
12 96 2360
13 96 1858
14 96 2068
15 96 2624
16 96 669
17 96 2299
18 96 1527
19 96 2841
20 96 2409
21 96 1756
22 96 5039
23 96 1565
24 96 1721
25 96 2766
26 96 2404
27 96 909
28 96 4389
29 96 2393
30 96 583
31 96 3142
32 96 4025
33 96 1782
34 96 3350
35 96 1303
36 96 1212
37 96 1883
38 96 888
39 96 2351
40 96 2335
41 96 1736
42 96 1075
43 96 1748
44 96 2399
45 96 1141
46 96 3807
47 96 1612
48 96 1337
49 96 2859
50 96 1490
51 96 1336
52 96 1525
53 96 1564
54 96 1437
55 96 1813
56 96 2296
57 96 2194
58 96 3525
59 96 3306
60 96 1713
61 96 2253
62 96 1864
63 96 2690
64 96 1240
65 96 1217
66 96 1698
67 96 2447
68 96 3451
69 96 3143
70 96 2154
71 96 2891
72 96 3388
73 96 3361
74 96 1965
75 96 2041
76 96 1348
77 96 2678
78 96 1352
79 96 2455
80 96 1919
81 96 1979
82 96 1662
83 96 2704
84 96 1256
85 96 1341
86 96 2254
87 96 2885
88 96 1527
89 96 2879
90 96 1871
91 96 1555
92 96 1257
93 96 2334
94 96 3209
95 96 1394
96 96 2454
97 96 2588
98 96 1884
99 96 3307
100 96 2713
101 96 2596
102 96 2614
103 96 3219
104 96 1919
105 96 894
106 96 1770
107 96 1989
108 96 2511
109 96 2270
110 96 2292
111 96 1815
112 96 2395
113 96 1764
114 96 1211
115 96 1683
116 96 2785
117 96 1768
118 96 1382
119 96 2047
120 96 2615
121 96 842
122 96 2004
123 96 2531
124 96 2299
125 96 4448
126 96 2544
127 96 704
128 96 2004
129 96 2015
130 96 2702
131 96 2981
132 96 4405
133 96 1341
134 96 1325
135 96 1581
136 96 1592
137 96 1288
138 96 2374
139 96 1195
140 96 703
141 96 2072
142 96 933
143 96 882
144 96 536
145 96 2164
146 96 2838
147 96 2376
148 96 1433
149 96 3796
150 96 1098
151 96 2841
152 96 2421
153 96 1374
154 96 1523
155 96 1837
156 96 2808
157 96 2218
158 96 3062
159 96 1791
160 96 2119
161 96 2207
162 96 626
163 96 2207
164 96 2389
165 96 2284
166 96 1540
167 96 1956
168 96 2808
169 96 1405
170 96 2121
171 96 3256
172 96 2276
173 96 1352
174 96 2082
175 96 2880
176 96 1603
177 96 1239
178 96 1852
179 96 2416
180 96 2502
181 96 2373
182 96 1215
183 96 3746
184 96 1686
185 96 1973
186 96 915
187 96 2452
188 96 1348
189 96 2446
190 96 713
191 96 1073
192 96 2686
193 96 1809
194 96 1739
195 96 3368
196 96 979
197 96 3901
198 96 2044
199 96 2505
200 96 1017
201 96 2261
202 96 1703
203 96 2585
204 96 1886
205 96 1208
206 96 1545
207 96 1707
208 96 2274
209 96 1485
210 96 1219
211 96 1543
212 96 826
213 96 2128
214 96 1417
215 96 2405
216 96 1988
217 96 2367
218 96 1137
219 96 2472
220 96 2573
221 96 1809
222 96 1790
223 96 2025
224 96 2064
225 96 1823
226 96 2601
227 96 1409
228 96 2065
229 96 1663
230 96 3202
231 96 1288
232 96 1241
233 96 4087
234 96 1898
235 96 673
236 96 2494
237 96 1272
238 96 1209
239 96 1125
240 96 1971
241 96 1585
242 96 1563
243 96 3130
244 96 1394
245 96 1780
246 96 1513
247 96 2142
248 96 1776
249 96 1774
250 96 1819
251 96 2427
252 96 825
253 96 1923
254 96 921
255 96 3634
256 96 1877
257 96 1825
258 96 1908
259 96 3340
260 96 1524
261 96 1651
262 96 2879
263 96 850
264 96 2021
265 96 2493
266 96 2890
267 96 2110
268 96 2910
269 96 2214
270 96 1695
271 96 2548
272 96 1797
273 96 869
274 96 2183
275 96 1522
276 96 2118
277 96 1754
278 96 2243
279 96 2083
280 96 1528
281 96 2236
282 96 1703
283 96 2523
284 96 3146
285 96 752
286 96 1297
287 96 1107
288 96 1761
289 96 2029
290 96 1609
291 96 2452
292 96 1427
293 96 2094
294 96 1739
295 96 1531
296 96 1984
297 96 1327
298 96 1447
299 96 1979
300 96 2984
301 96 1858
302 96 2327
303 96 1672
304 96 1690
305 96 489
306 96 867
307 96 3386
308 96 1809
309 96 3038
310 96 5060
311 96 2264
312 96 2505
313 96 877
314 96 3107
315 96 2308
316 96 1195
317 96 2945
318 96 1619
319 96 2712
320 96 1965
321 96 2732
322 96 1024
323 96 1530
324 96 876
325 96 1903
326 96 765
327 96 1918
328 96 1565
329 96 902
330 96 1686
331 96 2088
332 96 2148
333 96 1838
334 96 1630
335 96 1463
336 96 2150
337 96 1503
338 96 2485
339 96 1101
340 96 2307
341 96 1398
342 96 1589
343 96 1200
344 96 2451
345 96 2848
346 96 4334
347 96 2566
348 96 2487
349 96 2959
350 96 3460
351 96 1529
352 96 2769
353 96 1214
354 96 836
355 96 2483
356 96 1556
357 96 1658
358 96 1128
359 96 1601
360 96 1609
361 96 2346
362 96 1484
363 96 2537
364 96 2606
365 96 695
366 96 3055
367 96 909
368 96 2178
369 96 3328
370 96 1388
371 96 2889
372 96 2965
373 96 1302
374 96 1510
375 96 2090
376 96 3453
377 96 1249
378 96 1344
379 96 1410
380 96 1255
381 96 1926
382 96 1039
383 96 2483
384 96 2663
385 96 2882
386 96 1827
387 96 2751
388 96 1475
389 96 1974
390 96 2496
391 96 1562
392 96 1952
393 96 2672
394 96 1051
395 96 2505
396 96 1002
397 96 1877
398 96 1138
399 96 3088
400 96 930
401 96 3566
402 96 1643
403 96 1572
404 96 2446
405 96 2091
406 96 1321
407 96 1819
408 96 2279
409 96 2126
410 96 3505
411 96 2146
412 96 2698
413 96 3180
414 96 1829
415 96 2519
416 96 1873
417 96 3450
418 96 2457
419 96 3009
420 96 2670
421 96 957
422 96 4421
423 96 2130
424 96 1472
425 96 1508
426 96 2478
427 96 2704
428 96 2213
429 96 1136
430 96 1930
431 96 2429
432 96 1598
433 96 2662
434 96 1733
435 96 2898
436 96 1530
437 96 1482
438 96 3722
439 96 2855
440 96 3054
441 96 2398
442 96 1061
443 96 1676
444 96 1258
445 96 3507
446 96 2294
447 96 2511
448 96 1880
449 96 1930
450 96 1652
451 96 676
452 96 2231
453 96 2499
454 96 2192
455 96 2812
456 96 2233
457 96 2485
458 96 1991
459 96 1734
460 96 2260
461 96 2079
462 96 3638
463 96 2367
464 96 1296
465 96 2558
466 96 1904
467 96 1560
468 96 1501
469 96 2241
470 96 3066
471 96 1831
472 96 1261
473 96 4389
474 96 1788
475 96 1798
476 96 3662
477 96 1846
478 96 3708
479 96 2386
480 96 3360
481 96 2288
482 96 1322
483 96 1435
484 96 1115
485 96 1628
486 96 2581
487 96 1781
488 96 2668
489 96 1418
490 96 1276
491 96 2196
492 96 1652
493 96 2093
494 96 1472
495 96 2926
496 96 2183
497 96 1416
498 96 1670
499 96 2399
500 96 4062
1 97 1419
2 97 1537
3 97 1370
4 97 1770
5 97 1247
6 97 456
7 97 1864
8 97 1036
9 97 379
10 97 1005
11 97 778
12 97 1571
13 97 835
14 97 971
15 97 1536
16 97 660
17 97 893
18 97 993
19 97 961
20 97 1343
21 97 1777
22 97 2425
23 97 508
24 97 534
25 97 1694
26 97 1067
27 97 658
28 97 1125
29 97 615
30 97 2636
31 97 1423
32 97 1154
33 97 990
34 97 1230
35 97 844
36 97 971
37 97 1983
38 97 1292
39 97 1408
40 97 1365
41 97 527
42 97 245
43 97 1785
44 97 1739
45 97 880
46 97 1087
47 97 1445
48 97 510
49 97 1848
50 97 704
51 97 1103
52 97 626
53 97 1041
54 97 461
55 97 627
56 97 1109
57 97 1260
58 97 1628
59 97 2125
60 97 1482
61 97 1069
62 97 1593
63 97 1982
64 97 1601
65 97 1257
66 97 1999
67 97 1074
68 97 685
69 97 588
70 97 2091
71 97 633
72 97 827
73 97 1749
74 97 1082
75 97 2782
76 97 1132
77 97 814
78 97 1162
79 97 810
80 97 1207
81 97 1249
82 97 1446
83 97 1253
84 97 1378
85 97 1950
86 97 1557
87 97 2703
88 97 858
89 97 2287
90 97 627
91 97 759
92 97 959
93 97 1441
94 97 3124
95 97 465
96 97 909
97 97 1944
98 97 653
99 97 863
100 97 1277
101 97 1457
102 97 1022
103 97 2697
104 97 1787
105 97 677
106 97 1128
107 97 1258
108 97 2276
109 97 904
110 97 1902
111 97 916
112 97 529
113 97 1230
114 97 1726
115 97 1252
116 97 835
117 97 823
118 97 640
119 97 2099
120 97 2181
121 97 457
122 97 314
123 97 998
124 97 1847
125 97 1806
126 97 2309
127 97 705
128 97 1090
129 97 1310
130 97 1796
131 97 1755
132 97 1089
133 97 392
134 97 1425
135 97 1525
136 97 805
137 97 1291
138 97 800
139 97 928
140 97 618
141 97 1253
142 97 702
143 97 1254
144 97 678
145 97 1250
146 97 2151
147 97 1156
148 97 1223
149 97 1912
150 97 1283
151 97 1233
152 97 3210
153 97 415
154 97 992
155 97 1101
156 97 1346
157 97 896
158 97 1200
159 97 1521
160 97 1058
161 97 975
162 97 640
163 97 726
164 97 3160
165 97 2671
166 97 1302
167 97 1131
168 97 2331
169 97 514
170 97 1243
171 97 2229
172 97 905
173 97 2490
174 97 429
175 97 648
176 97 1139
177 97 1482
178 97 679
179 97 2092
180 97 1103
181 97 1166
182 97 1562
183 97 2625
184 97 1872
185 97 1811
186 97 1044
187 97 869
188 97 1703
189 97 667
190 97 882
191 97 783
192 97 1297
193 97 1047
194 97 1259
195 97 630
196 97 1010
197 97 1061
198 97 1088
199 97 1324
200 97 2391
201 97 903
202 97 1042
203 97 1233
204 97 1254
205 97 2136
206 97 847
207 97 742
208 97 1079
209 97 831
210 97 766
211 97 1022
212 97 502
213 97 1994
214 97 1455
215 97 1418
216 97 2109
217 97 1906
218 97 898
219 97 2127
220 97 1148
221 97 2007
222 97 793
223 97 1685
224 97 1021
225 97 1087
226 97 975
227 97 484
228 97 611
229 97 2013
230 97 527
231 97 1188
232 97 379
233 97 1178
234 97 985
235 97 838
236 97 1025
237 97 1153
238 97 1291
239 97 931
240 97 1077
241 97 1602
242 97 1793
243 97 974
244 97 1193
245 97 1087
246 97 1270
247 97 1280
248 97 1693
249 97 906
250 97 1354
251 97 1017
252 97 859
253 97 808
254 97 1487
255 97 877
256 97 1196
257 97 1381
258 97 906
259 97 1404
260 97 996
261 97 1297
262 97 2644
263 97 933
264 97 880
265 97 1081
266 97 1336
267 97 1590
268 97 2652
269 97 1139
270 97 1107
271 97 1320
272 97 1247
273 97 959
274 97 1940
275 97 633
276 97 647
277 97 789
278 97 2563
279 97 1157
280 97 804
281 97 1560
282 97 842
283 97 1865
284 97 1825
285 97 1799
286 97 1292
287 97 821
288 97 1223
289 97 2111
290 97 1271
291 97 1128
292 97 894
293 97 1294
294 97 1946
295 97 2451
296 97 1258
297 97 981
298 97 763
299 97 2102
300 97 1774
301 97 1874
302 97 1588
303 97 1445
304 97 734
305 97 1825
306 97 1400
307 97 2035
308 97 800
309 97 1406
310 97 2743
311 97 1480
312 97 983
313 97 788
314 97 993
315 97 1904
316 97 3033
317 97 692
318 97 2151
319 97 1564
320 97 1803
321 97 1040
322 97 731
323 97 984
324 97 937
325 97 681
326 97 891
327 97 1183
328 97 774
329 97 1095
330 97 1172
331 97 1784
332 97 1547
333 97 766
334 97 2128
335 97 1519
336 97 1913
337 97 1655
338 97 1052
339 97 1253
340 97 1022
341 97 494
342 97 692
343 97 959
344 97 1951
345 97 995
346 97 1190
347 97 1764
348 97 958
349 97 3714
350 97 810
351 97 2008
352 97 1531
353 97 840
354 97 911
355 97 1406
356 97 1381
357 97 1731
358 97 1234
359 97 867
360 97 1298
361 97 1272
362 97 736
363 97 916
364 97 2033
365 97 609
366 97 1854
367 97 964
368 97 858
369 97 2320
370 97 950
371 97 706
372 97 1890
373 97 916
374 97 1697
375 97 1767
376 97 2824
377 97 1681
378 97 1940
379 97 487
380 97 909
381 97 696
382 97 1185
383 97 952
384 97 1680
385 97 2370
386 97 2381
387 97 1058
388 97 466
389 97 1280
390 97 1657
391 97 1578
392 97 1023
393 97 1624
394 97 905
395 97 1068
396 97 743
397 97 2059
398 97 935
399 97 1070
400 97 567
401 97 1536
402 97 608
403 97 846
404 97 1652
405 97 992
406 97 1122
407 97 1506
408 97 1650
409 97 2450
410 97 555
411 97 1661
412 97 1395
413 97 939
414 97 1621
415 97 498
416 97 1579
417 97 2106
418 97 2018
419 97 732
420 97 1728
421 97 1271
422 97 1253
423 97 2054
424 97 551
425 97 1817
426 97 636
427 97 2222
428 97 1879
429 97 1210
430 97 1157
431 97 1636
432 97 876
433 97 722
434 97 381
435 97 1129
436 97 531
437 97 1264
438 97 2574
439 97 2654
440 97 546
441 97 2294
442 97 765
443 97 576
444 97 2635
445 97 2761
446 97 710
447 97 1176
448 97 1807
449 97 1576
450 97 1058
451 97 739
452 97 2174
453 97 835
454 97 1471
455 97 1950
456 97 973
457 97 1545
458 97 1490
459 97 913
460 97 2416
461 97 1037
462 97 2410
463 97 1735
464 97 723
465 97 1191
466 97 530
467 97 1125
468 97 1549
469 97 1329
470 97 2080
471 97 1882
472 97 435
473 97 737
474 97 1552
475 97 1306
476 97 1211
477 97 1305
478 97 787
479 97 1636
480 97 1686
481 97 644
482 97 527
483 97 486
484 97 2381
485 97 1519
486 97 1538
487 97 1168
488 97 1694
489 97 1292
490 97 1790
491 97 975
492 97 898
493 97 1292
494 97 563
495 97 997
496 97 844
497 97 950
498 97 1222
499 97 791
500 97 1170
1 98 559
2 98 1051
3 98 588
4 98 1244
5 98 897
6 98 919
7 98 583
8 98 286
9 98 914
10 98 1142
11 98 1300
12 98 1118
13 98 476
14 98 1287
15 98 1120
16 98 1295
17 98 1294
18 98 774
19 98 498
20 98 1025
21 98 1076
22 98 675
23 98 378
24 98 604
25 98 1624
26 98 1361
27 98 174
28 98 831
29 98 588
30 98 577
31 98 447
32 98 1078
33 98 490
34 98 891
35 98 828
36 98 471
37 98 477
38 98 637
39 98 530
40 98 752
41 98 574
42 98 566
43 98 702
44 98 579
45 98 364
46 98 1716
47 98 656
48 98 873
49 98 762
50 98 370
51 98 419
52 98 923
53 98 736
54 98 895
55 98 393
56 98 387
57 98 710
58 98 416
59 98 919
60 98 322
61 98 1606
62 98 678
63 98 624
64 98 511
65 98 822
66 98 836
67 98 1310
68 98 1233
69 98 1110
70 98 900
71 98 833
72 98 1363
73 98 782
74 98 1281
75 98 1295
76 98 792
77 98 1942
78 98 692
79 98 653
80 98 364
81 98 629
82 98 804
83 98 832
84 98 796
85 98 1256
86 98 668
87 98 434
88 98 339
89 98 548
90 98 339
91 98 717
92 98 1382
93 98 394
94 98 981
95 98 874
96 98 926
97 98 499
98 98 638
99 98 414
100 98 808
101 98 1000
102 98 1447
103 98 310
104 98 791
105 98 171
106 98 590
107 98 765
108 98 1109
109 98 1246
110 98 1208
111 98 565
112 98 189
113 98 707
114 98 525
115 98 803
116 98 1146
117 98 888
118 98 294
119 98 699
120 98 743
121 98 193
122 98 454
123 98 1206
124 98 863
125 98 842
126 98 529
127 98 641
128 98 520
129 98 830
130 98 615
131 98 1356
132 98 799
133 98 89
134 98 683
135 98 376
136 98 181
137 98 529
138 98 671
139 98 849
140 98 479
141 98 949
142 98 149
143 98 611
144 98 994
145 98 1263
146 98 1180
147 98 998
148 98 1044
149 98 795
150 98 1219
151 98 438
152 98 1015
153 98 102
154 98 405
155 98 360
156 98 554
157 98 1058
158 98 423
159 98 598
160 98 502
161 98 683
162 98 492
163 98 989
164 98 1076
165 98 1646
166 98 1307
167 98 605
168 98 1019
169 98 885
170 98 1457
171 98 984
172 98 534
173 98 857
174 98 717
175 98 1037
176 98 421
177 98 1020
178 98 673
179 98 767
180 98 1710
181 98 978
182 98 662
183 98 1241
184 98 840
185 98 999
186 98 1569
187 98 308
188 98 227
189 98 751
190 98 170
191 98 523
192 98 920
193 98 636
194 98 564
195 98 951
196 98 774
197 98 535
198 98 1024
199 98 549
200 98 1083
201 98 517
202 98 635
203 98 922
204 98 672
205 98 1246
206 98 324
207 98 806
208 98 286
209 98 318
210 98 327
211 98 441
212 98 377
213 98 649
214 98 708
215 98 676
216 98 1351
217 98 1122
218 98 1127
219 98 1110
220 98 1576
221 98 1124
222 98 446
223 98 447
224 98 887
225 98 949
226 98 359
227 98 902
228 98 983
229 98 555
230 98 979
231 98 577
232 98 178
233 98 1244
234 98 571
235 98 830
236 98 974
237 98 240
238 98 294
239 98 824
240 98 197
241 98 365
242 98 1693
243 98 1141
244 98 780
245 98 754
246 98 526
247 98 379
248 98 438
249 98 1005
250 98 537
251 98 1798
252 98 600
253 98 738
254 98 1087
255 98 1178
256 98 538
257 98 196
258 98 1030
259 98 366
260 98 717
261 98 767
262 98 1105
263 98 349
264 98 1055
265 98 593
266 98 567
267 98 1102
268 98 438
269 98 1300
270 98 531
271 98 1216
272 98 829
273 98 574
274 98 1402
275 98 1040
276 98 922
277 98 939
278 98 572
279 98 446
280 98 298
281 98 1106
282 98 431
283 98 1310
284 98 2311
285 98 795
286 98 687
287 98 1153
288 98 760
289 98 1276
290 98 745
291 98 778
292 98 520
293 98 787
294 98 743
295 98 682
296 98 850
297 98 543
298 98 1969
299 98 714
300 98 1658
301 98 1187
302 98 481
303 98 1141
304 98 833
305 98 776
306 98 701
307 98 1013
308 98 818
309 98 283
310 98 1604
311 98 615
312 98 1093
313 98 585
314 98 473
315 98 1702
316 98 1569
317 98 739
318 98 576
319 98 566
320 98 1974
321 98 983
322 98 435
323 98 407
324 98 375
325 98 582
326 98 178
327 98 706
328 98 382
329 98 510
330 98 519
331 98 564
332 98 427
333 98 923
334 98 443
335 98 433
336 98 986
337 98 561
338 98 1042
339 98 577
340 98 601
341 98 940
342 98 504
343 98 887
344 98 450
345 98 544
346 98 1705
347 98 1423
348 98 591
349 98 1420
350 98 803
351 98 1085
352 98 596
353 98 710
354 98 341
355 98 562
356 98 811
357 98 743
358 98 539
359 98 281
360 98 726
361 98 319
362 98 667
363 98 693
364 98 508
365 98 476
366 98 575
367 98 372
368 98 373
369 98 504
370 98 677
371 98 719
372 98 418
373 98 849
374 98 528
375 98 788
376 98 682
377 98 1051
378 98 876
379 98 932
380 98 1204
381 98 1488
382 98 474
383 98 360
384 98 1753
385 98 1034
386 98 1162
387 98 1459
388 98 838
389 98 1892
390 98 443
391 98 351
392 98 655
393 98 962
394 98 702
395 98 1641
396 98 423
397 98 670
398 98 904
399 98 1451
400 98 611
401 98 691
402 98 1040
403 98 297
404 98 692
405 98 639
406 98 1241
407 98 712
408 98 605
409 98 492
410 98 1113
411 98 778
412 98 781
413 98 895
414 98 293
415 98 837
416 98 786
417 98 1421
418 98 1315
419 98 716
420 98 1597
421 98 521
422 98 914
423 98 972
424 98 398
425 98 585
426 98 1586
427 98 863
428 98 924
429 98 287
430 98 1730
431 98 1019
432 98 547
433 98 904
434 98 853
435 98 1299
436 98 718
437 98 1106
438 98 997
439 98 1139
440 98 769
441 98 761
442 98 455
443 98 354
444 98 1821
445 98 284
446 98 1042
447 98 1159
448 98 907
449 98 724
450 98 352
451 98 697
452 98 958
453 98 936
454 98 831
455 98 712
456 98 1123
457 98 1387
458 98 842
459 98 658
460 98 1190
461 98 382
462 98 1666
463 98 1106
464 98 986
465 98 816
466 98 1056
467 98 592
468 98 467
469 98 1784
470 98 784
471 98 426
472 98 182
473 98 328
474 98 701
475 98 486
476 98 2206
477 98 777
478 98 1072
479 98 1069
480 98 793
481 98 1028
482 98 558
483 98 850
484 98 222
485 98 898
486 98 556
487 98 735
488 98 1515
489 98 1108
490 98 858
491 98 542
492 98 1085
493 98 861
494 98 191
495 98 411
496 98 673
497 98 811
498 98 714
499 98 970
500 98 2840
1 99 1135
2 99 1892
3 99 1242
4 99 653
5 99 480
6 99 1069
7 99 1239
8 99 1001
9 99 1706
10 99 1638
11 99 1191
12 99 917
13 99 982
14 99 423
15 99 2772
16 99 1708
17 99 1505
18 99 1239
19 99 1212
20 99 2071
21 99 795
22 99 1039
23 99 868
24 99 1245
25 99 1812
26 99 1694
27 99 596
28 99 1906
29 99 1338
30 99 1808
31 99 1917
32 99 812
33 99 1322
34 99 415
35 99 924
36 99 988
37 99 1414
38 99 777
39 99 2172
40 99 1669
41 99 1307
42 99 868
43 99 428
44 99 1509
45 99 1337
46 99 573
47 99 1261
48 99 1055
49 99 930
50 99 939
51 99 1029
52 99 711
53 99 1221
54 99 771
55 99 1262
56 99 382
57 99 1342
58 99 1894
59 99 700
60 99 426
61 99 1915
62 99 639
63 99 1766
64 99 2485
65 99 498
66 99 1566
67 99 1809
68 99 1320
69 99 1216
70 99 1265
71 99 2022
72 99 1062
73 99 1103
74 99 1629
75 99 1802
76 99 810
77 99 1058
78 99 1277
79 99 1431
80 99 827
81 99 1293
82 99 883
83 99 1437
84 99 922
85 99 1658
86 99 1593
87 99 1762
88 99 1034
89 99 989
90 99 824
91 99 724
92 99 1604
93 99 1625
94 99 911
95 99 1077
96 99 1517
97 99 1564
98 99 1745
99 99 730
100 99 1414
101 99 1355
102 99 1122
103 99 1484
104 99 1254
105 99 529
106 99 1847
107 99 1664
108 99 448
109 99 1646
110 99 1529
111 99 1847
112 99 836
113 99 1578
114 99 2702
115 99 641
116 99 3504
117 99 370
118 99 893
119 99 1314
120 99 1724
121 99 727
122 99 588
123 99 686
124 99 1014
125 99 711
126 99 1694
127 99 1660
128 99 1940
129 99 1569
130 99 1833
131 99 1013
132 99 1951
133 99 477
134 99 516
135 99 1390
136 99 673
137 99 1370
138 99 818
139 99 1218
140 99 1024
141 99 716
142 99 531
143 99 758
144 99 1857
145 99 1745
146 99 685
147 99 1230
148 99 1389
149 99 673
150 99 1133
151 99 2051
152 99 923
153 99 480
154 99 1436
155 99 1305
156 99 1571
157 99 1550
158 99 907
159 99 548
160 99 706
161 99 730
162 99 945
163 99 566
164 99 946
165 99 1600
166 99 2216
167 99 1236
168 99 1112
169 99 1017
170 99 1625
171 99 1907
172 99 960
173 99 1179
174 99 468
175 99 1932
176 99 1035
177 99 1394
178 99 1596
179 99 1238
180 99 938
181 99 1099
182 99 1345
183 99 1245
184 99 1538
185 99 1555
186 99 1957
187 99 1607
188 99 465
189 99 1432
190 99 1322
191 99 535
192 99 1165
193 99 1534
194 99 1221
195 99 622
196 99 1442
197 99 2606
198 99 1613
199 99 1470
200 99 1446
201 99 993
202 99 1310
203 99 949
204 99 1618
205 99 1989
206 99 896
207 99 1048
208 99 539
209 99 882
210 99 789
211 99 1211
212 99 566
213 99 931
214 99 982
215 99 955
216 99 780
217 99 1794
218 99 1108
219 99 2031
220 99 1266
221 99 1333
222 99 741
223 99 1240
224 99 1602
225 99 980
226 99 782
227 99 1134
228 99 711
229 99 1056
230 99 1211
231 99 2407
232 99 366
233 99 1904
234 99 1100
235 99 397
236 99 1555
237 99 549
238 99 1045
239 99 1636
240 99 774
241 99 1397
242 99 717
243 99 1223
244 99 1307
245 99 897
246 99 1038
247 99 2007
248 99 1103
249 99 450
250 99 1595
251 99 1805
252 99 1084
253 99 764
254 99 1428
255 99 1173
256 99 1225
257 99 671
258 99 542
259 99 1280
260 99 1141
261 99 1951
262 99 966
263 99 606
264 99 2233
265 99 2003
266 99 1609
267 99 2269
268 99 1829
269 99 1331
270 99 1146
271 99 780
272 99 935
273 99 1805
274 99 785
275 99 1526
276 99 686
277 99 364
278 99 789
279 99 869
280 99 1057
281 99 1347
282 99 1172
283 99 1216
284 99 675
285 99 1338
286 99 880
287 99 1326
288 99 641
289 99 758
290 99 918
291 99 2506
292 99 759
293 99 1895
294 99 1410
295 99 1053
296 99 1670
297 99 315
298 99 2244
299 99 565
300 99 925
301 99 992
302 99 1868
303 99 1065
304 99 996
305 99 1124
306 99 995
307 99 1810
308 99 3298
309 99 2084
310 99 3076
311 99 2292
312 99 1561
313 99 1163
314 99 2380
315 99 1675
316 99 1350
317 99 1467
318 99 974
319 99 894
320 99 2115
321 99 1135
322 99 1069
323 99 1385
324 99 665
325 99 1216
326 99 1294
327 99 1523
328 99 987
329 99 204
330 99 744
331 99 999
332 99 1934
333 99 369
334 99 966
335 99 1204
336 99 598
337 99 2183
338 99 1331
339 99 1273
340 99 314
341 99 1090
342 99 332
343 99 1269
344 99 1376
345 99 1748
346 99 1676
347 99 1837
348 99 2136
349 99 2608
350 99 1931
351 99 1496
352 99 1690
353 99 2393
354 99 658
355 99 1499
356 99 1209
357 99 1651
358 99 601
359 99 970
360 99 1676
361 99 892
362 99 701
363 99 699
364 99 1616
365 99 956
366 99 1479
367 99 708
368 99 1531
369 99 2172
370 99 986
371 99 1909
372 99 1723
373 99 956
374 99 1504
375 99 1862
376 99 781
377 99 816
378 99 1058
379 99 1087
380 99 2160
381 99 1334
382 99 1176
383 99 1239
384 99 1210
385 99 1822
386 99 1226
387 99 827
388 99 758
389 99 1283
390 99 1914
391 99 1231
392 99 401
393 99 1376
394 99 851
395 99 1335
396 99 1029
397 99 1178
398 99 893
399 99 828
400 99 690
401 99 1311
402 99 1507
403 99 878
404 99 2095
405 99 952
406 99 2177
407 99 1006
408 99 1573
409 99 688
410 99 1918
411 99 1724
412 99 877
413 99 1211
414 99 1349
415 99 1441
416 99 1278
417 99 838
418 99 1330
419 99 713
420 99 1752
421 99 870
422 99 999
423 99 600
424 99 601
425 99 1883
426 99 1563
427 99 1349
428 99 1072
429 99 2074
430 99 785
431 99 1379
432 99 1259
433 99 1787
434 99 1282
435 99 1779
436 99 826
437 99 688
438 99 2224
439 99 976
440 99 591
441 99 1068
442 99 1092
443 99 1245
444 99 1093
445 99 442
446 99 1408
447 99 2127
448 99 1715
449 99 1286
450 99 962
451 99 1682
452 99 1872
453 99 1057
454 99 952
455 99 2105
456 99 1553
457 99 1137
458 99 905
459 99 1112
460 99 1568
461 99 1125
462 99 2127
463 99 893
464 99 1022
465 99 913
466 99 895
467 99 1274
468 99 1201
469 99 2159
470 99 1056
471 99 1407
472 99 415
473 99 1198
474 99 682
475 99 878
476 99 778
477 99 908
478 99 1600
479 99 790
480 99 1135
481 99 374
482 99 1352
483 99 715
484 99 750
485 99 1281
486 99 919
487 99 2478
488 99 1813
489 99 1855
490 99 1025
491 99 2483
492 99 1182
493 99 1812
494 99 531
495 99 1699
496 99 596
497 99 597
498 99 1449
499 99 846
500 99 2472
1 100 74
3 100 149
4 100 168
5 100 33
6 100 10
7 100 3
8 100 32
9 100 34
10 100 22
11 100 31
13 100 59
14 100 12
15 100 80
16 100 23
17 100 93
18 100 57
20 100 21
21 100 7
22 100 5
23 100 36
24 100 38
25 100 154
26 100 16
27 100 39
28 100 64
29 100 4
30 100 92
31 100 29
32 100 23
33 100 28
36 100 68
37 100 101
38 100 13
39 100 53
40 100 25
41 100 44
42 100 12
43 100 28
44 100 48
45 100 4
46 100 121
47 100 71
48 100 4
49 100 134
50 100 13
51 100 30
52 100 34
53 100 66
54 100 54
55 100 47
56 100 24
57 100 24
58 100 26
59 100 106
60 100 59
61 100 70
62 100 91
63 100 55
64 100 31
65 100 48
66 100 71
67 100 150
68 100 53
69 100 74
70 100 50
71 100 32
73 100 20
74 100 5
75 100 7
76 100 26
77 100 57
78 100 9
79 100 23
80 100 62
81 100 4
82 100 21
83 100 84
84 100 19
85 100 62
86 100 26
87 100 73
88 100 24
89 100 4
90 100 79
91 100 4
92 100 20
93 100 22
94 100 57
95 100 6
96 100 57
97 100 65
98 100 28
99 100 70
100 100 5
101 100 98
102 100 134
103 100 4
104 100 29
105 100 45
106 100 67
107 100 72
108 100 32
109 100 74
110 100 22
112 100 4
113 100 165
114 100 8
115 100 88
116 100 4
117 100 14
118 100 31
119 100 36
120 100 53
121 100 16
122 100 18
123 100 44
124 100 29
125 100 33
126 100 4
127 100 27
128 100 22
129 100 25
130 100 16
131 100 31
132 100 64
133 100 31
134 100 35
135 100 2
136 100 84
138 100 21
139 100 54
140 100 13
141 100 4
142 100 46
143 100 12
144 100 24
145 100 26
146 100 74
147 100 133
148 100 147
149 100 7
150 100 39
151 100 4
152 100 3
153 100 43
154 100 77
155 100 62
156 100 127
157 100 11
158 100 29
160 100 10
161 100 28
162 100 12
163 100 63
164 100 2
165 100 21
166 100 27
167 100 7
168 100 49
169 100 7
170 100 20
171 100 5
172 100 57
173 100 4
174 100 55
175 100 2
176 100 42
178 100 18
179 100 75
180 100 28
181 100 4
182 100 66
183 100 26
184 100 72
185 100 54
186 100 117
187 100 3
188 100 4
189 100 65
190 100 5
191 100 47
192 100 53
193 100 66
194 100 20
195 100 133
196 100 92
197 100 27
198 100 36
199 100 8
200 100 99
201 100 55
202 100 8
203 100 2
204 100 95
205 100 100
207 100 15
208 100 51
210 100 5
211 100 36
212 100 15
213 100 63
214 100 17
215 100 67
216 100 124
217 100 27
218 100 50
219 100 123
220 100 33
222 100 69
223 100 6
224 100 26
225 100 21
227 100 5
228 100 102
229 100 121
230 100 5
231 100 3
232 100 20
233 100 63
234 100 55
235 100 37
236 100 127
237 100 30
239 100 7
240 100 25
241 100 2
242 100 29
244 100 22
245 100 20
246 100 61
247 100 128
248 100 23
249 100 55
250 100 31
251 100 177
252 100 6
253 100 61
254 100 65
255 100 152
256 100 33
258 100 26
259 100 6
260 100 7
261 100 75
262 100 58
264 100 117
265 100 55
266 100 161
267 100 3
268 100 77
269 100 67
270 100 20
271 100 20
272 100 3
273 100 64
274 100 56
275 100 53
276 100 102
277 100 16
278 100 114
279 100 32
280 100 26
281 100 30
282 100 7
283 100 41
284 100 27
286 100 39
287 100 6
288 100 73
289 100 121
290 100 55
291 100 58
292 100 77
293 100 54
294 100 30
295 100 3
296 100 55
297 100 48
298 100 5
299 100 22
300 100 111
301 100 21
302 100 146
304 100 24
305 100 67
306 100 6
307 100 9
308 100 48
309 100 53
310 100 149
311 100 25
312 100 56
313 100 6
314 100 83
315 100 151
316 100 113
317 100 63
318 100 108
319 100 14
320 100 36
321 100 66
322 100 10
323 100 61
325 100 41
326 100 4
327 100 26
328 100 13
329 100 8
330 100 40
331 100 22
332 100 137
333 100 20
334 100 5
337 100 129
338 100 89
339 100 66
340 100 107
341 100 6
342 100 94
343 100 49
344 100 48
346 100 86
347 100 77
348 100 29
349 100 24
350 100 151
351 100 82
352 100 81
353 100 57
355 100 6
357 100 7
358 100 53
360 100 5
361 100 2
362 100 50
363 100 30
364 100 62
365 100 17
366 100 19
368 100 89
369 100 24
370 100 14
371 100 69
372 100 113
373 100 14
374 100 29
375 100 70
376 100 32
377 100 28
378 100 2
379 100 2
380 100 4
381 100 190
382 100 84
383 100 20
384 100 77
385 100 319
386 100 56
387 100 6
388 100 62
389 100 75
390 100 113
391 100 36
392 100 143
394 100 79
396 100 12
397 100 121
398 100 40
399 100 9
400 100 109
401 100 24
402 100 59
404 100 54
405 100 9
406 100 70
407 100 4
408 100 19
409 100 10
410 100 29
411 100 9
412 100 52
413 100 24
414 100 15
415 100 67
417 100 96
418 100 182
419 100 24
420 100 162
421 100 21
422 100 18
424 100 14
425 100 96
426 100 224
427 100 2
428 100 113
429 100 4
430 100 77
431 100 128
432 100 81
433 100 52
434 100 61
435 100 24
436 100 20
437 100 50
438 100 85
439 100 51
440 100 3
441 100 119
442 100 12
443 100 8
444 100 71
445 100 94
446 100 23
447 100 101
448 100 132
450 100 80
451 100 17
452 100 53
453 100 101
454 100 57
455 100 27
456 100 7
457 100 17
458 100 35
459 100 21
460 100 78
461 100 48
462 100 84
464 100 18
465 100 83
466 100 21
467 100 50
468 100 64
469 100 29
471 100 89
472 100 17
473 100 3
474 100 73
475 100 4
476 100 102
477 100 4
479 100 27
480 100 31
481 100 119
482 100 48
483 100 68
484 100 46
485 100 48
487 100 25
488 100 32
489 100 97
490 100 28
492 100 25
493 100 63
494 100 64
495 100 33
496 100 28
497 100 77
500 100 79
6 101 4
11 101 6
40 101 7
48 101 5
93 101 9
95 101 4
127 101 10
169 101 8
174 101 8
176 101 12
194 101 3
198 101 5
200 101 6
212 101 2
227 101 4
255 101 2
256 101 3
278 101 9
286 101 2
317 101 3
318 101 15
330 101 1
341 101 8
366 101 5
370 101 16
378 101 7
379 101 6
381 101 3
391 101 4
409 101 5
428 101 2
448 101 4
451 101 1
455 101 6
468 101 4
470 101 3
486 101 6
1 102 535
2 102 1037
3 102 1216
4 102 1343
5 102 978
6 102 586
7 102 1199
8 102 1425
9 102 1862
10 102 1406
11 102 801
12 102 831
13 102 1111
14 102 1030
15 102 1417
16 102 418
17 102 759
18 102 857
19 102 932
20 102 715
21 102 456
22 102 2335
23 102 465
24 102 1817
25 102 1118
26 102 1432
27 102 643
28 102 1762
29 102 1416
30 102 1491
31 102 1298
32 102 1839
33 102 1814
34 102 1817
35 102 1291
36 102 1207
37 102 1114
38 102 868
39 102 1189
40 102 1106
41 102 1773
42 102 787
43 102 1352
44 102 2468
45 102 994
46 102 1485
47 102 1005
48 102 543
49 102 484
50 102 816
51 102 1526
52 102 309
53 102 885
54 102 738
55 102 1034
56 102 1122
57 102 1011
58 102 1716
59 102 1319
60 102 1305
61 102 1207
62 102 1632
63 102 662
64 102 1647
65 102 1015
66 102 931
67 102 2241
68 102 599
69 102 922
70 102 985
71 102 1337
72 102 1235
73 102 965
74 102 1550
75 102 1308
76 102 641
77 102 1423
78 102 1282
79 102 2525
80 102 1012
81 102 1063
82 102 941
83 102 2138
84 102 944
85 102 1120
86 102 1689
87 102 2075
88 102 690
89 102 1103
90 102 2102
91 102 1447
92 102 1606
93 102 1873
94 102 908
95 102 533
96 102 2455
97 102 860
98 102 1604
99 102 598
100 102 362
101 102 927
102 102 1719
103 102 1394
104 102 2121
105 102 611
106 102 582
107 102 1131
108 102 681
109 102 852
110 102 1797
111 102 1103
112 102 430
113 102 1606
114 102 1464
115 102 363
116 102 1123
117 102 342
118 102 1258
119 102 1462
120 102 1991
121 102 1272
122 102 712
123 102 1094
124 102 1872
125 102 1590
126 102 697
127 102 742
128 102 2366
129 102 1269
130 102 977
131 102 797
132 102 1808
133 102 492
134 102 582
135 102 1830
136 102 600
137 102 1083
138 102 328
139 102 2072
140 102 466
141 102 980
142 102 656
143 102 905
144 102 941
145 102 1940
146 102 1118
147 102 1011
148 102 1448
149 102 1982
150 102 1692
151 102 1480
152 102 1558
153 102 455
154 102 893
155 102 1394
156 102 1505
157 102 640
158 102 833
159 102 2404
160 102 803
161 102 1408
162 102 463
163 102 1256
164 102 1512
165 102 2602
166 102 1382
167 102 713
168 102 1571
169 102 607
170 102 1986
171 102 3254
172 102 1506
173 102 2349
174 102 1092
175 102 831
176 102 1426
177 102 880
178 102 2171
179 102 1389
180 102 1470
181 102 2036
182 102 2676
183 102 1591
184 102 959
185 102 681
186 102 1392
187 102 817
188 102 1593
189 102 2715
190 102 1058
191 102 946
192 102 1864
193 102 1745
194 102 1897
195 102 816
196 102 1990
197 102 2308
198 102 248
199 102 1702
200 102 1633
201 102 1477
202 102 1307
203 102 1234
204 102 1190
205 102 3037
206 102 608
207 102 931
208 102 742
209 102 608
210 102 629
211 102 1774
212 102 277
213 102 1779
214 102 1404
215 102 1484
216 102 1210
217 102 615
218 102 1754
219 102 1265
220 102 1128
221 102 1358
222 102 230
223 102 1556
224 102 362
225 102 1491
226 102 1275
227 102 602
228 102 1166
229 102 727
230 102 2044
231 102 1041
232 102 1028
233 102 878
234 102 1841
235 102 1176
236 102 1009
237 102 682
238 102 1224
239 102 1133
240 102 959
241 102 1770
242 102 1724
243 102 1047
244 102 1336
245 102 990
246 102 1299
247 102 1866
248 102 2142
249 102 1478
250 102 644
251 102 1612
252 102 1208
253 102 375
254 102 1161
255 102 3922
256 102 1940
257 102 1810
258 102 917
259 102 1495
260 102 883
261 102 939
262 102 1098
263 102 993
264 102 645
265 102 1483
266 102 1494
267 102 1432
268 102 2096
269 102 1181
270 102 545
271 102 1306
272 102 1178
273 102 1337
274 102 1285
275 102 1652
276 102 1166
277 102 331
278 102 1549
279 102 1051
280 102 716
281 102 1587
282 102 848
283 102 1677
284 102 1392
285 102 1872
286 102 1131
287 102 1257
288 102 347
289 102 1275
290 102 1408
291 102 1097
292 102 821
293 102 1739
294 102 1051
295 102 1171
296 102 1497
297 102 758
298 102 1204
299 102 409
300 102 1932
301 102 557
302 102 951
303 102 1152
304 102 925
305 102 1553
306 102 1283
307 102 1126
308 102 1348
309 102 1567
310 102 1184
311 102 684
312 102 1742
313 102 1264
314 102 888
315 102 1054
316 102 1109
317 102 1597
318 102 1299
319 102 2274
320 102 1188
321 102 1169
322 102 830
323 102 896
324 102 1014
325 102 1212
326 102 1133
327 102 1310
328 102 859
329 102 583
330 102 1606
331 102 1075
332 102 921
333 102 363
334 102 954
335 102 840
336 102 1211
337 102 959
338 102 1227
339 102 1373
340 102 1588
341 102 575
342 102 1440
343 102 2000
344 102 620
345 102 1409
346 102 787
347 102 1762
348 102 1609
349 102 1684
350 102 1794
351 102 1391
352 102 2270
353 102 1102
354 102 1042
355 102 1862
356 102 916
357 102 1296
358 102 818
359 102 646
360 102 1221
361 102 1004
362 102 1268
363 102 731
364 102 819
365 102 425
366 102 1622
367 102 1068
368 102 2303
369 102 1779
370 102 559
371 102 1341
372 102 902
373 102 1001
374 102 377
375 102 1991
376 102 2630
377 102 2214
378 102 2147
379 102 603
380 102 905
381 102 1126
382 102 1303
383 102 1594
384 102 1533
385 102 1732
386 102 1571
387 102 2010
388 102 651
389 102 1727
390 102 865
391 102 650
392 102 763
393 102 2127
394 102 614
395 102 2102
396 102 830
397 102 801
398 102 689
399 102 538
400 102 2069
401 102 426
402 102 1692
403 102 613
404 102 1049
405 102 1013
406 102 1884
407 102 684
408 102 1695
409 102 1739
410 102 975
411 102 2189
412 102 772
413 102 1343
414 102 1468
415 102 1360
416 102 1030
417 102 1210
418 102 2590
419 102 1356
420 102 1166
421 102 617
422 102 2149
423 102 1154
424 102 460
425 102 1700
426 102 1745
427 102 2051
428 102 201
429 102 1062
430 102 1773
431 102 1604
432 102 1235
433 102 1539
434 102 1498
435 102 1856
436 102 1011
437 102 1552
438 102 1756
439 102 1153
440 102 1790
441 102 618
442 102 825
443 102 901
444 102 1205
445 102 1745
446 102 275
447 102 2429
448 102 626
449 102 994
450 102 650
451 102 727
452 102 1313
453 102 1259
454 102 644
455 102 1345
456 102 603
457 102 1713
458 102 702
459 102 1163
460 102 2003
461 102 798
462 102 1048
463 102 826
464 102 1266
465 102 1166
466 102 1613
467 102 921
468 102 1286
469 102 560
470 102 3061
471 102 629
472 102 1086
473 102 1356
474 102 1406
475 102 1762
476 102 2232
477 102 992
478 102 1556
479 102 1876
480 102 975
481 102 1823
482 102 535
483 102 699
484 102 1065
485 102 705
486 102 2381
487 102 1199
488 102 825
489 102 1297
490 102 1278
491 102 1573
492 102 969
493 102 1745
494 102 957
495 102 1109
496 102 2264
497 102 1168
498 102 1188
499 102 1326
500 102 2289
1 103 2895
2 103 3405
3 103 4009
4 103 2552
5 103 2326
6 103 1325
7 103 2521
8 103 2031
9 103 2431
10 103 3803
11 103 2318
12 103 1189
13 103 3647
14 103 3030
15 103 2593
16 103 2377
17 103 2143
18 103 2580
19 103 1618
20 103 2083
21 103 2621
22 103 3375
23 103 1800
24 103 1952
25 103 2592
26 103 3801
27 103 1059
28 103 1899
29 103 2975
30 103 2962
31 103 3284
32 103 3454
33 103 1088
34 103 2010
35 103 2031
36 103 2922
37 103 4021
38 103 1283
39 103 2111
40 103 2599
41 103 1930
42 103 1554
43 103 2922
44 103 2521
45 103 3426
46 103 2859
47 103 2166
48 103 1256
49 103 2799
50 103 1355
51 103 1710
52 103 939
53 103 2618
54 103 1476
55 103 1916
56 103 1617
57 103 3186
58 103 2269
59 103 2793
60 103 2589
61 103 2384
62 103 1739
63 103 3152
64 103 1734
65 103 2411
66 103 2655
67 103 3075
68 103 4145
69 103 3353
70 103 3024
71 103 5176
72 103 1248
73 103 3275
74 103 3306
75 103 3689
76 103 1690
77 103 2528
78 103 1833
79 103 3321
80 103 3642
81 103 1852
82 103 2366
83 103 2324
84 103 2748
85 103 3609
86 103 2249
87 103 4392
88 103 2159
89 103 2312
90 103 2733
91 103 1348
92 103 3556
93 103 2146
94 103 3263
95 103 1185
96 103 1393
97 103 3260
98 103 1878
99 103 3317
100 103 3241
101 103 2489
102 103 2347
103 103 2743
104 103 2102
105 103 1045
106 103 3157
107 103 2031
108 103 1990
109 103 2864
110 103 3065
111 103 1588
112 103 1388
113 103 2502
114 103 3109
115 103 1972
116 103 4901
117 103 1662
118 103 1552
119 103 2705
120 103 1751
121 103 2066
122 103 2910
123 103 1698
124 103 1935
125 103 1343
126 103 2583
127 103 2320
128 103 3241
129 103 3692
130 103 1681
131 103 2096
132 103 1808
133 103 882
134 103 2943
135 103 3341
136 103 2004
137 103 2370
138 103 2098
139 103 2597
140 103 1863
141 103 4083
142 103 1111
143 103 1334
144 103 1981
145 103 2806
146 103 2624
147 103 2966
148 103 1791
149 103 3664
150 103 1954
151 103 1141
152 103 3293
153 103 876
154 103 1946
155 103 2269
156 103 4058
157 103 1517
158 103 3668
159 103 2001
160 103 3087
161 103 1237
162 103 1903
163 103 2033
164 103 3265
165 103 3319
166 103 2947
167 103 2256
168 103 2145
169 103 1251
170 103 4319
171 103 3710
172 103 3074
173 103 3291
174 103 2697
175 103 2805
176 103 2293
177 103 2055
178 103 4324
179 103 1743
180 103 2586
181 103 4198
182 103 1711
183 103 1060
184 103 2669
185 103 2812
186 103 2128
187 103 2283
188 103 2317
189 103 3982
190 103 1456
191 103 1061
192 103 1770
193 103 1753
194 103 2381
195 103 2963
196 103 2278
197 103 5425
198 103 2089
199 103 1843
200 103 1342
201 103 3057
202 103 1451
203 103 2018
204 103 918
205 103 3755
206 103 1345
207 103 2189
208 103 2699
209 103 1311
210 103 1329
211 103 835
212 103 1049
213 103 1567
214 103 3717
215 103 1833
216 103 3822
217 103 3561
218 103 2660
219 103 2344
220 103 3793
221 103 3284
222 103 2207
223 103 2324
224 103 2087
225 103 5258
226 103 2036
227 103 1330
228 103 1611
229 103 1730
230 103 1900
231 103 2224
232 103 3707
233 103 2151
234 103 3243
235 103 2729
236 103 2285
237 103 1275
238 103 2292
239 103 2845
240 103 1008
241 103 3434
242 103 3475
243 103 1477
244 103 3566
245 103 2765
246 103 2656
247 103 2511
248 103 2263
249 103 2843
250 103 4410
251 103 3980
252 103 1280
253 103 2818
254 103 2038
255 103 3566
256 103 2465
257 103 1778
258 103 4473
259 103 1959
260 103 2184
261 103 2635
262 103 1729
263 103 2204
264 103 3244
265 103 2260
266 103 4185
267 103 2136
268 103 4313
269 103 1880
270 103 1725
271 103 2658
272 103 2825
273 103 2635
274 103 3045
275 103 1047
276 103 1666
277 103 1681
278 103 2236
279 103 1056
280 103 2067
281 103 3039
282 103 2204
283 103 1805
284 103 1830
285 103 2185
286 103 1963
287 103 1154
288 103 1990
289 103 3840
290 103 3467
291 103 4447
292 103 2225
293 103 2210
294 103 1656
295 103 3188
296 103 1598
297 103 1582
298 103 3275
299 103 1837
300 103 2665
301 103 3006
302 103 4097
303 103 2808
304 103 2248
305 103 2997
306 103 3856
307 103 1787
308 103 4355
309 103 2555
310 103 2815
311 103 3522
312 103 2073
313 103 1294
314 103 1100
315 103 2977
316 103 2759
317 103 4676
318 103 1409
319 103 2517
320 103 4130
321 103 1106
322 103 1188
323 103 1850
324 103 2236
325 103 2387
326 103 1413
327 103 2139
328 103 1399
329 103 1557
330 103 2267
331 103 3317
332 103 4181
333 103 1685
334 103 3041
335 103 1621
336 103 3465
337 103 2880
338 103 3405
339 103 1123
340 103 2812
341 103 1313
342 103 3024
343 103 2668
344 103 2270
345 103 3204
346 103 1998
347 103 1626
348 103 3562
349 103 5332
350 103 2406
351 103 2754
352 103 2691
353 103 1950
354 103 2402
355 103 1777
356 103 2400
357 103 4999
358 103 2389
359 103 1365
360 103 2243
361 103 2072
362 103 1884
363 103 1016
364 103 3383
365 103 1815
366 103 2214
367 103 2326
368 103 2284
369 103 2091
370 103 1282
371 103 4391
372 103 1844
373 103 1722
374 103 1997
375 103 2938
376 103 2353
377 103 2199
378 103 2259
379 103 1282
380 103 3551
381 103 4018
382 103 1344
383 103 1719
384 103 1830
385 103 3926
386 103 3444
387 103 2948
388 103 1505
389 103 3207
390 103 3067
391 103 1459
392 103 2294
393 103 4004
394 103 956
395 103 4036
396 103 1170
397 103 2868
398 103 1685
399 103 1799
400 103 2272
401 103 2171
402 103 1048
403 103 1364
404 103 2417
405 103 1774
406 103 2575
407 103 3191
408 103 2250
409 103 4329
410 103 1313
411 103 2011
412 103 1522
413 103 3573
414 103 3600
415 103 1862
416 103 1461
417 103 2687
418 103 3710
419 103 1915
420 103 2568
421 103 2962
422 103 3310
423 103 3452
424 103 1560
425 103 2638
426 103 2739
427 103 3734
428 103 4567
429 103 1594
430 103 4152
431 103 3129
432 103 2104
433 103 2634
434 103 2487
435 103 4954
436 103 2174
437 103 2149
438 103 3060
439 103 1765
440 103 4232
441 103 3265
442 103 1125
443 103 1895
444 103 2751
445 103 2271
446 103 2145
447 103 2887
448 103 1965
449 103 1526
450 103 2245
451 103 2371
452 103 3363
453 103 5522
454 103 2352
455 103 2306
456 103 1569
457 103 2953
458 103 1892
459 103 1101
460 103 1755
461 103 1873
462 103 3734
463 103 1957
464 103 1543
465 103 2030
466 103 2048
467 103 2104
468 103 3263
469 103 4061
470 103 4307
471 103 3555
472 103 3747
473 103 2884
474 103 2695
475 103 2686
476 103 3154
477 103 3730
478 103 3240
479 103 3322
480 103 3296
481 103 3055
482 103 2002
483 103 1435
484 103 3094
485 103 2028
486 103 2308
487 103 1700
488 103 4003
489 103 4555
490 103 1782
491 103 3138
492 103 2479
493 103 2264
494 103 700
495 103 2681
496 103 3799
497 103 2185
498 103 2954
499 103 2497
500 103 4800
12 104 8
23 104 4
25 104 4
29 104 6
57 104 5
68 104 7
75 104 6
78 104 10
86 104 7
88 104 9
96 104 10
98 104 7
104 104 7
107 104 3
113 104 5
116 104 34
122 104 10
129 104 5
131 104 6
134 104 8
145 104 6
149 104 8
152 104 6
163 104 4
164 104 7
173 104 4
176 104 6
186 104 8
190 104 4
196 104 8
204 104 9
218 104 7
221 104 9
235 104 6
242 104 5
243 104 2
247 104 7
250 104 8
264 104 9
280 104 4
295 104 6
296 104 2
306 104 5
325 104 5
326 104 5
331 104 8
334 104 26
345 104 6
346 104 25
351 104 9
356 104 5
363 104 29
368 104 7
373 104 5
374 104 6
386 104 6
392 104 7
408 104 10
416 104 7
420 104 6
425 104 4
426 104 96
432 104 6
433 104 6
434 104 4
435 104 4
437 104 31
441 104 7
447 104 2
449 104 5
450 104 4
466 104 3
474 104 6
478 104 6
479 104 7
481 104 7
490 104 4
491 104 7
497 104 7
498 104 5
1 105 1142
2 105 1099
3 105 444
4 105 1573
5 105 214
6 105 575
7 105 1010
8 105 1573
9 105 624
10 105 306
11 105 2029
12 105 1279
13 105 1107
14 105 578
15 105 736
16 105 1123
17 105 904
18 105 1083
19 105 779
20 105 1014
21 105 291
22 105 1477
23 105 510
24 105 855
25 105 787
26 105 584
27 105 660
28 105 604
29 105 674
30 105 519
31 105 1683
32 105 737
33 105 896
34 105 644
35 105 1592
36 105 1201
37 105 922
38 105 725
39 105 2163
40 105 921
41 105 892
42 105 680
43 105 1043
44 105 1291
45 105 975
46 105 1388
47 105 1029
48 105 592
49 105 1437
50 105 577
51 105 215
52 105 345
53 105 1122
54 105 856
55 105 2209
56 105 769
57 105 845
58 105 1436
59 105 659
60 105 369
61 105 474
62 105 1373
63 105 970
64 105 1521
65 105 211
66 105 1290
67 105 469
68 105 568
69 105 3061
70 105 807
71 105 1776
72 105 996
73 105 708
74 105 412
75 105 1162
76 105 822
77 105 1188
78 105 549
79 105 1546
80 105 2684
81 105 948
82 105 399
83 105 669
84 105 1327
85 105 964
86 105 713
87 105 2561
88 105 1471
89 105 1038
90 105 431
91 105 1285
92 105 1689
93 105 934
94 105 835
95 105 553
96 105 748
97 105 930
98 105 291
99 105 977
100 105 807
101 105 1693
102 105 920
103 105 802
104 105 495
105 105 616
106 105 1205
107 105 819
108 105 683
109 105 1004
110 105 1095
111 105 240
112 105 555
113 105 934
114 105 686
115 105 972
116 105 1819
117 105 1144
118 105 1112
119 105 888
120 105 1285
121 105 544
122 105 382
123 105 926
124 105 1086
125 105 1240
126 105 1277
127 105 586
128 105 1267
129 105 712
130 105 1910
131 105 372
132 105 572
133 105 1067
134 105 765
135 105 601
136 105 981
137 105 290
138 105 806
139 105 1231
140 105 406
141 105 1508
142 105 621
143 105 673
144 105 1271
145 105 1617
146 105 943
147 105 900
148 105 1649
149 105 900
150 105 475
151 105 559
152 105 1664
153 105 1073
154 105 618
155 105 1197
156 105 622
157 105 192
158 105 549
159 105 708
160 105 842
161 105 572
162 105 366
163 105 484
164 105 1755
165 105 1330
166 105 838
167 105 1625
168 105 681
169 105 586
170 105 1293
171 105 715
172 105 973
173 105 1167
174 105 569
175 105 824
176 105 1153
177 105 1279
178 105 1134
179 105 1362
180 105 1182
181 105 1277
182 105 1460
183 105 955
184 105 1285
185 105 841
186 105 653
187 105 620
188 105 744
189 105 1443
190 105 539
191 105 194
192 105 1353
193 105 450
194 105 732
195 105 629
196 105 611
197 105 1187
198 105 554
199 105 477
200 105 497
201 105 944
202 105 274
203 105 1021
204 105 1036
205 105 1114
206 105 201
207 105 868
208 105 553
209 105 190
210 105 405
211 105 405
212 105 450
213 105 291
214 105 1059
215 105 1364
216 105 752
217 105 1647
218 105 229
219 105 341
220 105 748
221 105 1674
222 105 136
223 105 668
224 105 871
225 105 510
226 105 448
227 105 549
228 105 1193
229 105 692
230 105 845
231 105 1100
232 105 375
233 105 1363
234 105 591
235 105 1124
236 105 891
237 105 625
238 105 413
239 105 727
240 105 912
241 105 617
242 105 1729
243 105 744
244 105 501
245 105 281
246 105 683
247 105 2115
248 105 1046
249 105 490
250 105 1275
251 105 1164
252 105 571
253 105 1570
254 105 930
255 105 1103
256 105 772
257 105 719
258 105 1109
259 105 419
260 105 343
261 105 751
262 105 402
263 105 484
264 105 1482
265 105 2006
266 105 643
267 105 1828
268 105 2610
269 105 1109
270 105 691
271 105 909
272 105 311
273 105 734
274 105 1303
275 105 1471
276 105 1275
277 105 1172
278 105 1274
279 105 769
280 105 1476
281 105 762
282 105 1039
283 105 797
284 105 1215
285 105 932
286 105 387
287 105 922
288 105 974
289 105 766
290 105 440
291 105 927
292 105 505
293 105 1060
294 105 423
295 105 1008
296 105 522
297 105 1477
298 105 1110
299 105 640
300 105 868
301 105 1434
302 105 754
303 105 620
304 105 847
305 105 1243
306 105 1233
307 105 390
308 105 924
309 105 447
310 105 579
311 105 1714
312 105 1966
313 105 581
314 105 1109
315 105 921
316 105 1638
317 105 775
318 105 626
319 105 2430
320 105 2011
321 105 504
322 105 736
323 105 619
324 105 544
325 105 1358
326 105 488
327 105 864
328 105 553
329 105 731
330 105 1207
331 105 1401
332 105 746
333 105 1112
334 105 895
335 105 1087
336 105 1115
337 105 1029
338 105 1303
339 105 797
340 105 647
341 105 619
342 105 947
343 105 1118
344 105 811
345 105 898
346 105 839
347 105 1085
348 105 457
349 105 1292
350 105 1136
351 105 982
352 105 1054
353 105 607
354 105 526
355 105 519
356 105 427
357 105 1394
358 105 314
359 105 200
360 105 682
361 105 799
362 105 1369
363 105 1365
364 105 941
365 105 403
366 105 673
367 105 519
368 105 726
369 105 1568
370 105 982
371 105 1122
372 105 2525
373 105 713
374 105 760
375 105 674
376 105 1979
377 105 1055
378 105 1178
379 105 634
380 105 1343
381 105 1580
382 105 1100
383 105 1231
384 105 596
385 105 1387
386 105 1273
387 105 1167
388 105 847
389 105 966
390 105 1018
391 105 537
392 105 1241
393 105 1204
394 105 570
395 105 1008
396 105 739
397 105 569
398 105 598
399 105 733
400 105 282
401 105 1013
402 105 1666
403 105 174
404 105 1050
405 105 839
406 105 1514
407 105 833
408 105 717
409 105 2060
410 105 924
411 105 683
412 105 1544
413 105 1076
414 105 662
415 105 1216
416 105 589
417 105 680
418 105 649
419 105 1185
420 105 720
421 105 1339
422 105 2491
423 105 1126
424 105 359
425 105 1150
426 105 1078
427 105 1038
428 105 1531
429 105 236
430 105 1381
431 105 964
432 105 806
433 105 629
434 105 1438
435 105 993
436 105 2050
437 105 867
438 105 1457
439 105 398
440 105 996
441 105 468
442 105 698
443 105 506
444 105 1798
445 105 354
446 105 381
447 105 800
448 105 964
449 105 579
450 105 781
451 105 604
452 105 750
453 105 631
454 105 682
455 105 1435
456 105 186
457 105 738
458 105 846
459 105 755
460 105 1217
461 105 1656
462 105 925
463 105 606
464 105 1231
465 105 1354
466 105 457
467 105 843
468 105 205
469 105 1518
470 105 2151
471 105 994
472 105 393
473 105 1021
474 105 2047
475 105 455
476 105 1132
477 105 897
478 105 615
479 105 1102
480 105 681
481 105 839
482 105 886
483 105 816
484 105 1031
485 105 1071
486 105 2078
487 105 684
488 105 799
489 105 1014
490 105 531
491 105 692
492 105 780
493 105 1155
494 105 684
495 105 1138
496 105 847
497 105 445
498 105 1062
499 105 1004
500 105 853
1 106 607
2 106 838
3 106 1450
4 106 1121
5 106 1020
6 106 878
7 106 262
8 106 1103
9 106 449
10 106 670
11 106 1101
12 106 717
13 106 879
14 106 541
15 106 2276
16 106 773
17 106 1022
18 106 747
19 106 888
20 106 1462
21 106 725
22 106 876
23 106 298
24 106 1658
25 106 1221
26 106 567
27 106 243
28 106 996
29 106 807
30 106 518
31 106 1132
32 106 1773
33 106 565
34 106 863
35 106 853
36 106 1342
37 106 1060
38 106 678
39 106 1670
40 106 603
41 106 1614
42 106 369
43 106 790
44 106 1316
45 106 1082
46 106 2101
47 106 884
48 106 840
49 106 958
50 106 645
51 106 1140
52 106 443
53 106 712
54 106 623
55 106 443
56 106 307
57 106 582
58 106 697
59 106 692
60 106 881
61 106 1321
62 106 575
63 106 1183
64 106 1151
65 106 956
66 106 718
67 106 1411
68 106 1541
69 106 514
70 106 1315
71 106 784
72 106 1149
73 106 974
74 106 756
75 106 796
76 106 284
77 106 937
78 106 894
79 106 1688
80 106 867
81 106 1006
82 106 713
83 106 717
84 106 778
85 106 946
86 106 1795
87 106 740
88 106 232
89 106 673
90 106 1211
91 106 1698
92 106 265
93 106 864
94 106 1292
95 106 857
96 106 716
97 106 709
98 106 2282
99 106 484
100 106 874
101 106 696
102 106 1234
103 106 1507
104 106 1827
105 106 225
106 106 1261
107 106 798
108 106 1406
109 106 690
110 106 1340
111 106 534
112 106 407
113 106 961
114 106 1203
115 106 1133
116 106 1035
117 106 633
118 106 1669
119 106 508
120 106 1046
121 106 1103
122 106 1611
123 106 1207
124 106 1491
125 106 1012
126 106 1038
127 106 301
128 106 2116
129 106 1059
130 106 1534
131 106 354
132 106 1003
133 106 402
134 106 675
135 106 620
136 106 595
137 106 857
138 106 551
139 106 1095
140 106 302
141 106 1235
142 106 238
143 106 686
144 106 2159
145 106 382
146 106 1137
147 106 1331
148 106 731
149 106 1334
150 106 1037
151 106 669
152 106 741
153 106 409
154 106 382
155 106 881
156 106 1720
157 106 800
158 106 1109
159 106 612
160 106 619
161 106 341
162 106 330
163 106 910
164 106 729
165 106 847
166 106 357
167 106 981
168 106 520
169 106 817
170 106 1525
171 106 738
172 106 654
173 106 1276
174 106 328
175 106 1412
176 106 894
177 106 628
178 106 748
179 106 1596
180 106 1193
181 106 610
182 106 683
183 106 702
184 106 646
185 106 812
186 106 837
187 106 554
188 106 813
189 106 504
190 106 445
191 106 128
192 106 751
193 106 703
194 106 446
195 106 1495
196 106 1403
197 106 866
198 106 691
199 106 448
200 106 941
201 106 652
202 106 1045
203 106 1394
204 106 1020
205 106 1338
206 106 498
207 106 734
208 106 1400
209 106 516
210 106 700
211 106 1173
212 106 272
213 106 1610
214 106 1744
215 106 522
216 106 1649
217 106 467
218 106 883
219 106 580
220 106 884
221 106 2957
222 106 1081
223 106 1153
224 106 471
225 106 929
226 106 840
227 106 897
228 106 745
229 106 965
230 106 1236
231 106 2585
232 106 870
233 106 808
234 106 737
235 106 1159
236 106 1003
237 106 1039
238 106 808
239 106 805
240 106 362
241 106 569
242 106 1156
243 106 2252
244 106 1020
245 106 1272
246 106 2069
247 106 1351
248 106 852
249 106 659
250 106 1014
251 106 968
252 106 367
253 106 601
254 106 1167
255 106 572
256 106 453
257 106 802
258 106 1093
259 106 632
260 106 734
261 106 1909
262 106 456
263 106 654
264 106 1344
265 106 686
266 106 1665
267 106 610
268 106 762
269 106 1582
270 106 934
271 106 1098
272 106 867
273 106 866
274 106 988
275 106 571
276 106 787
277 106 680
278 106 1062
279 106 1101
280 106 236
281 106 992
282 106 719
283 106 459
284 106 830
285 106 539
286 106 293
287 106 621
288 106 1154
289 106 1668
290 106 542
291 106 858
292 106 1007
293 106 1134
294 106 1733
295 106 1822
296 106 1986
297 106 695
298 106 1267
299 106 332
300 106 506
301 106 1053
302 106 426
303 106 745
304 106 695
305 106 1096
306 106 887
307 106 1220
308 106 1287
309 106 629
310 106 1009
311 106 1252
312 106 1605
313 106 345
314 106 1277
315 106 1413
316 106 920
317 106 1899
318 106 578
319 106 1373
320 106 1005
321 106 970
322 106 589
323 106 421
324 106 752
325 106 1367
326 106 428
327 106 1297
328 106 721
329 106 320
330 106 1578
331 106 686
332 106 455
333 106 684
334 106 670
335 106 767
336 106 1176
337 106 1807
338 106 511
339 106 396
340 106 1275
341 106 830
342 106 943
343 106 1071
344 106 1971
345 106 771
346 106 813
347 106 457
348 106 925
349 106 1402
350 106 677
351 106 1153
352 106 546
353 106 361
354 106 766
355 106 443
356 106 284
357 106 561
358 106 1034
359 106 540
360 106 901
361 106 1638
362 106 953
363 106 755
364 106 719
365 106 293
366 106 1003
367 106 679
368 106 853
369 106 842
370 106 142
371 106 688
372 106 735
373 106 367
374 106 318
375 106 1071
376 106 1270
377 106 1219
378 106 1533
379 106 813
380 106 1058
381 106 756
382 106 1372
383 106 688
384 106 1150
385 106 1699
386 106 1115
387 106 532
388 106 652
389 106 2075
390 106 554
391 106 660
392 106 1103
393 106 1882
394 106 717
395 106 2332
396 106 570
397 106 697
398 106 574
399 106 628
400 106 582
401 106 401
402 106 568
403 106 545
404 106 1013
405 106 511
406 106 2643
407 106 385
408 106 1762
409 106 1556
410 106 811
411 106 1003
412 106 1412
413 106 734
414 106 1369
415 106 1407
416 106 613
417 106 1177
418 106 441
419 106 764
420 106 1260
421 106 1136
422 106 1184
423 106 1138
424 106 406
425 106 1110
426 106 899
427 106 2165
428 106 1120
429 106 511
430 106 519
431 106 835
432 106 165
433 106 1528
434 106 1433
435 106 904
436 106 905
437 106 594
438 106 2134
439 106 533
440 106 881
441 106 789
442 106 596
443 106 899
444 106 361
445 106 797
446 106 1155
447 106 1364
448 106 1754
449 106 594
450 106 1273
451 106 305
452 106 965
453 106 1328
454 106 735
455 106 1443
456 106 806
457 106 336
458 106 1023
459 106 1273
460 106 546
461 106 776
462 106 1040
463 106 1213
464 106 1056
465 106 1330
466 106 793
467 106 637
468 106 622
469 106 900
470 106 770
471 106 933
472 106 839
473 106 1073
474 106 1021
475 106 918
476 106 805
477 106 331
478 106 928
479 106 1357
480 106 916
481 106 1233
482 106 785
483 106 625
484 106 570
485 106 931
486 106 1240
487 106 1426
488 106 444
489 106 1360
490 106 981
491 106 1561
492 106 993
493 106 1074
494 106 96
495 106 759
496 106 1004
497 106 588
498 106 852
499 106 728
500 106 3975
2 107 9
3 107 7
4 107 26
5 107 22
7 107 10
8 107 87
10 107 25
12 107 1
13 107 28
14 107 7
17 107 4
21 107 7
22 107 31
25 107 6
26 107 28
29 107 22
30 107 4
31 107 4
32 107 3
33 107 23
34 107 2
36 107 60
37 107 28
42 107 6
45 107 1
46 107 21
49 107 19
51 107 55
55 107 5
57 107 27
58 107 11
59 107 27
60 107 6
61 107 23
62 107 3
63 107 4
65 107 21
66 107 10
67 107 8
68 107 24
73 107 23
74 107 4
75 107 24
79 107 77
80 107 31
81 107 30
82 107 82
83 107 6
84 107 7
87 107 70
88 107 6
89 107 154
90 107 5
91 107 20
92 107 6
93 107 11
96 107 70
98 107 25
99 107 28
100 107 38
101 107 4
104 107 5
107 107 4
108 107 25
109 107 28
111 107 6
113 107 18
114 107 6
115 107 6
116 107 8
117 107 4
119 107 6
120 107 133
121 107 5
124 107 20
125 107 26
126 107 28
128 107 23
129 107 2
130 107 31
131 107 55
133 107 16
134 107 6
135 107 27
136 107 22
137 107 3
138 107 6
140 107 2
141 107 11
144 107 23
147 107 4
149 107 7
150 107 27
151 107 6
153 107 17
155 107 39
156 107 7
157 107 2
158 107 8
160 107 18
162 107 5
163 107 7
168 107 28
170 107 26
172 107 4
173 107 72
176 107 17
177 107 6
178 107 54
179 107 161
180 107 4
182 107 6
184 107 8
185 107 81
187 107 4
188 107 7
189 107 4
190 107 5
191 107 7
192 107 18
193 107 7
194 107 50
195 107 6
200 107 32
201 107 7
202 107 9
203 107 24
204 107 29
205 107 26
207 107 12
208 107 70
210 107 7
211 107 2
212 107 7
213 107 74
214 107 29
218 107 23
221 107 8
222 107 22
225 107 79
229 107 18
230 107 7
231 107 7
232 107 5
234 107 9
235 107 5
236 107 5
237 107 3
238 107 7
241 107 16
242 107 33
244 107 121
245 107 4
247 107 3
248 107 7
249 107 6
250 107 5
252 107 11
253 107 1
254 107 2
256 107 57
259 107 15
260 107 2
261 107 3
263 107 8
265 107 19
267 107 9
268 107 69
269 107 30
270 107 24
272 107 65
273 107 4
274 107 27
275 107 25
277 107 7
279 107 14
280 107 3
281 107 1
283 107 30
285 107 6
286 107 22
288 107 7
291 107 21
292 107 7
293 107 31
296 107 5
297 107 3
299 107 47
300 107 76
301 107 13
302 107 17
303 107 23
304 107 3
306 107 59
307 107 3
308 107 5
311 107 7
312 107 5
313 107 13
314 107 21
315 107 48
316 107 20
317 107 108
319 107 2
320 107 78
321 107 11
324 107 4
325 107 4
326 107 7
327 107 57
329 107 5
330 107 54
331 107 61
332 107 29
333 107 9
334 107 85
335 107 8
337 107 4
339 107 28
342 107 5
344 107 19
345 107 5
346 107 10
349 107 3
350 107 20
352 107 7
353 107 5
354 107 8
356 107 5
358 107 8
361 107 4
365 107 4
366 107 5
367 107 7
368 107 7
370 107 15
373 107 6
375 107 11
377 107 34
378 107 8
380 107 9
381 107 60
382 107 3
383 107 10
385 107 30
389 107 31
391 107 4
392 107 4
393 107 1
394 107 12
397 107 4
399 107 5
400 107 73
401 107 13
402 107 26
406 107 5
407 107 55
409 107 5
411 107 30
412 107 5
413 107 2
415 107 117
417 107 6
418 107 25
419 107 6
420 107 3
421 107 4
424 107 5
426 107 83
428 107 31
430 107 4
431 107 46
432 107 90
435 107 25
436 107 43
437 107 11
438 107 7
444 107 6
446 107 24
450 107 38
452 107 4
454 107 7
455 107 24
456 107 5
458 107 6
459 107 9
461 107 17
462 107 14
464 107 5
466 107 53
467 107 18
468 107 30
471 107 6
472 107 10
475 107 20
476 107 5
477 107 49
478 107 27
480 107 25
481 107 25
485 107 15
488 107 4
489 107 69
490 107 6
492 107 8
493 107 28
494 107 30
496 107 49
497 107 8
498 107 73
499 107 7
1 108 185
2 108 768
3 108 444
4 108 664
5 108 435
6 108 290
7 108 459
8 108 385
9 108 169
10 108 395
11 108 379
12 108 442
13 108 176
14 108 240
15 108 577
16 108 131
17 108 316
18 108 217
19 108 209
20 108 220
21 108 203
22 108 329
23 108 168
24 108 207
25 108 279
26 108 381
27 108 213
28 108 232
29 108 179
30 108 755
31 108 378
32 108 257
33 108 228
34 108 256
35 108 201
36 108 523
37 108 284
38 108 208
39 108 230
40 108 283
41 108 174
42 108 164
43 108 314
44 108 257
45 108 196
46 108 343
47 108 455
48 108 308
49 108 528
50 108 69
51 108 244
52 108 90
53 108 191
54 108 303
55 108 187
56 108 395
57 108 362
58 108 532
59 108 482
60 108 225
61 108 218
62 108 213
63 108 320
64 108 334
65 108 441
66 108 526
67 108 904
68 108 667
69 108 385
70 108 462
71 108 583
72 108 562
73 108 310
74 108 175
75 108 314
76 108 241
77 108 624
78 108 229
79 108 379
80 108 328
81 108 279
82 108 443
83 108 346
84 108 416
85 108 579
86 108 125
87 108 307
88 108 309
89 108 509
90 108 512
91 108 244
92 108 194
93 108 479
94 108 351
95 108 286
96 108 250
97 108 660
98 108 585
99 108 353
100 108 539
101 108 355
102 108 217
103 108 611
104 108 545
105 108 251
106 108 313
107 108 357
108 108 444
109 108 295
110 108 341
111 108 323
112 108 136
113 108 738
114 108 369
115 108 444
116 108 340
117 108 142
118 108 416
119 108 406
120 108 1007
121 108 353
122 108 202
123 108 229
124 108 452
125 108 236
126 108 412
127 108 223
128 108 412
129 108 157
130 108 389
131 108 155
132 108 198
133 108 72
134 108 164
135 108 483
136 108 272
137 108 250
138 108 351
139 108 218
140 108 234
141 108 669
142 108 225
143 108 188
144 108 188
145 108 579
146 108 284
147 108 545
148 108 376
149 108 475
150 108 208
151 108 225
152 108 513
153 108 69
154 108 325
155 108 406
156 108 461
157 108 575
158 108 256
159 108 30
160 108 486
161 108 259
162 108 259
163 108 209
164 108 532
165 108 429
166 108 303
167 108 320
168 108 262
169 108 302
170 108 162
171 108 695
172 108 481
173 108 221
174 108 192
175 108 576
176 108 259
177 108 517
178 108 175
179 108 495
180 108 315
181 108 376
182 108 182
183 108 299
184 108 570
185 108 186
186 108 189
187 108 352
188 108 196
189 108 205
190 108 160
191 108 179
192 108 193
193 108 378
194 108 578
195 108 298
196 108 238
197 108 407
198 108 258
199 108 295
200 108 259
201 108 490
202 108 500
203 108 706
204 108 497
205 108 535
206 108 96
207 108 416
208 108 290
209 108 100
210 108 83
211 108 552
212 108 50
213 108 285
214 108 379
215 108 219
216 108 443
217 108 276
218 108 205
219 108 593
220 108 278
221 108 343
222 108 226
223 108 285
224 108 308
225 108 584
226 108 363
227 108 330
228 108 170
229 108 246
230 108 422
231 108 371
232 108 372
233 108 84
234 108 368
235 108 326
236 108 497
237 108 428
238 108 528
239 108 434
240 108 441
241 108 470
242 108 315
243 108 323
244 108 519
245 108 149
246 108 308
247 108 278
248 108 377
249 108 369
250 108 700
251 108 338
252 108 318
253 108 297
254 108 302
255 108 864
256 108 585
257 108 210
258 108 234
259 108 261
260 108 118
261 108 337
262 108 535
263 108 203
264 108 220
265 108 320
266 108 500
267 108 212
268 108 312
269 108 294
270 108 48
271 108 403
272 108 246
273 108 707
274 108 183
275 108 303
276 108 151
277 108 141
278 108 333
279 108 102
280 108 267
281 108 394
282 108 171
283 108 247
284 108 184
285 108 513
286 108 231
287 108 376
288 108 417
289 108 456
290 108 135
291 108 240
292 108 267
293 108 165
294 108 520
295 108 387
296 108 523
297 108 196
298 108 513
299 108 383
300 108 462
301 108 179
302 108 354
303 108 184
304 108 433
305 108 370
306 108 512
307 108 852
308 108 222
309 108 290
310 108 737
311 108 294
312 108 574
313 108 281
314 108 502
315 108 294
316 108 273
317 108 321
318 108 132
319 108 564
320 108 418
321 108 334
322 108 277
323 108 326
324 108 245
325 108 425
326 108 160
327 108 672
328 108 76
329 108 237
330 108 106
331 108 198
332 108 322
333 108 136
334 108 259
335 108 248
336 108 450
337 108 465
338 108 295
339 108 448
340 108 488
341 108 299
342 108 212
343 108 232
344 108 587
345 108 650
346 108 266
347 108 222
348 108 183
349 108 516
350 108 153
351 108 49
352 108 296
353 108 513
354 108 244
355 108 250
356 108 217
357 108 276
358 108 288
359 108 104
360 108 238
361 108 551
362 108 300
363 108 100
364 108 612
365 108 256
366 108 220
367 108 248
368 108 204
369 108 328
370 108 193
371 108 273
372 108 491
373 108 154
374 108 204
375 108 518
376 108 297
377 108 544
378 108 423
379 108 295
380 108 260
381 108 403
382 108 512
383 108 225
384 108 370
385 108 338
386 108 348
387 108 990
388 108 317
389 108 263
390 108 525
391 108 226
392 108 422
393 108 390
394 108 190
395 108 230
396 108 327
397 108 291
398 108 245
399 108 241
400 108 236
401 108 432
402 108 282
403 108 103
404 108 185
405 108 365
406 108 406
407 108 472
408 108 119
409 108 280
410 108 507
411 108 307
412 108 232
413 108 390
414 108 251
415 108 531
416 108 345
417 108 427
418 108 387
419 108 302
420 108 238
421 108 533
422 108 856
423 108 463
424 108 107
425 108 247
426 108 499
427 108 496
428 108 320
429 108 391
430 108 341
431 108 327
432 108 230
433 108 438
434 108 217
435 108 703
436 108 314
437 108 619
438 108 629
439 108 524
440 108 381
441 108 287
442 108 281
443 108 497
444 108 530
445 108 379
446 108 206
447 108 517
448 108 351
449 108 344
450 108 247
451 108 226
452 108 804
453 108 261
454 108 171
455 108 495
456 108 532
457 108 292
458 108 313
459 108 181
460 108 288
461 108 193
462 108 300
463 108 164
464 108 470
465 108 255
466 108 103
467 108 339
468 108 113
469 108 346
470 108 333
471 108 370
472 108 343
473 108 196
474 108 303
475 108 787
476 108 406
477 108 422
478 108 361
479 108 272
480 108 331
481 108 357
482 108 263
483 108 292
484 108 139
485 108 316
486 108 358
487 108 558
488 108 207
489 108 373
490 108 342
491 108 496
492 108 271
493 108 151
494 108 246
495 108 553
496 108 96
497 108 193
498 108 276
499 108 353
500 108 574
1 109 1355
2 109 2408
3 109 1000
4 109 1879
5 109 832
6 109 1374
7 109 500
8 109 1142
9 109 1260
10 109 1361
11 109 1424
12 109 1820
13 109 2325
14 109 3041
15 109 1814
16 109 1114
17 109 1345
18 109 1813
19 109 959
20 109 2472
21 109 1580
22 109 2901
23 109 1365
24 109 981
25 109 2188
26 109 1620
27 109 388
28 109 2198
29 109 1343
30 109 1652
31 109 2517
32 109 1617
33 109 1884
34 109 2051
35 109 1509
36 109 1599
37 109 2992
38 109 507
39 109 1041
40 109 2223
41 109 1077
42 109 1236
43 109 2251
44 109 1370
45 109 925
46 109 2892
47 109 1623
48 109 1292
49 109 936
50 109 1018
51 109 797
52 109 1068
53 109 1870
54 109 706
55 109 684
56 109 2046
57 109 2339
58 109 1689
59 109 2744
60 109 1431
61 109 1358
62 109 2406
63 109 1675
64 109 1142
65 109 775
66 109 977
67 109 1122
68 109 1068
69 109 1664
70 109 1102
71 109 2097
72 109 2081
73 109 1735
74 109 1256
75 109 2127
76 109 1090
77 109 2087
78 109 1187
79 109 3803
80 109 565
81 109 1048
82 109 1300
83 109 1856
84 109 1388
85 109 1407
86 109 2801
87 109 3337
88 109 1320
89 109 2881
90 109 1924
91 109 1522
92 109 2025
93 109 1284
94 109 1888
95 109 1340
96 109 1706
97 109 553
98 109 3040
99 109 2298
100 109 1442
101 109 1755
102 109 1198
103 109 1547
104 109 1435
105 109 443
106 109 2076
107 109 1645
108 109 2155
109 109 1162
110 109 1261
111 109 1805
112 109 672
113 109 1909
114 109 1834
115 109 1837
116 109 874
117 109 518
118 109 920
119 109 2687
120 109 2835
121 109 1187
122 109 1332
123 109 1660
124 109 1193
125 109 1961
126 109 1968
127 109 1287
128 109 1611
129 109 2167
130 109 1546
131 109 1396
132 109 2265
133 109 886
134 109 1931
135 109 2140
136 109 1874
137 109 1194
138 109 1770
139 109 1832
140 109 1111
141 109 2403
142 109 390
143 109 522
144 109 1299
145 109 2452
146 109 1730
147 109 2674
148 109 1982
149 109 1836
150 109 833
151 109 332
152 109 2845
153 109 894
154 109 1449
155 109 1551
156 109 918
157 109 1442
158 109 2137
159 109 1531
160 109 2086
161 109 1129
162 109 1074
163 109 1277
164 109 2919
165 109 2319
166 109 1799
167 109 1157
168 109 1608
169 109 1382
170 109 1431
171 109 2607
172 109 1221
173 109 2862
174 109 1938
175 109 1645
176 109 813
177 109 1678
178 109 2622
179 109 1962
180 109 2312
181 109 5021
182 109 1612
183 109 2580
184 109 957
185 109 1870
186 109 1525
187 109 3059
188 109 733
189 109 2756
190 109 660
191 109 551
192 109 1171
193 109 1389
194 109 989
195 109 2044
196 109 2128
197 109 1286
198 109 1085
199 109 1281
200 109 2691
201 109 1245
202 109 1410
203 109 2565
204 109 1135
205 109 1834
206 109 1051
207 109 1775
208 109 2321
209 109 1037
210 109 806
211 109 2158
212 109 453
213 109 2160
214 109 1417
215 109 1772
216 109 1307
217 109 1590
218 109 747
219 109 553
220 109 2350
221 109 2630
222 109 976
223 109 1869
224 109 1290
225 109 1186
226 109 1753
227 109 1422
228 109 2865
229 109 1300
230 109 1654
231 109 477
232 109 1368
233 109 2156
234 109 2375
235 109 2325
236 109 2885
237 109 760
238 109 1500
239 109 2531
240 109 1397
241 109 2076
242 109 1680
243 109 2442
244 109 1625
245 109 1455
246 109 1682
247 109 898
248 109 2221
249 109 1820
250 109 716
251 109 2333
252 109 735
253 109 1757
254 109 1289
255 109 3079
256 109 957
257 109 2491
258 109 1564
259 109 730
260 109 911
261 109 3138
262 109 1765
263 109 840
264 109 1669
265 109 3197
266 109 859
267 109 2137
268 109 3337
269 109 2000
270 109 1291
271 109 1414
272 109 2506
273 109 1630
274 109 2646
275 109 2189
276 109 2789
277 109 548
278 109 1464
279 109 2594
280 109 1292
281 109 1589
282 109 1493
283 109 1855
284 109 2387
285 109 2579
286 109 2034
287 109 1203
288 109 1864
289 109 1384
290 109 2195
291 109 2190
292 109 1403
293 109 1863
294 109 1050
295 109 2111
296 109 1508
297 109 770
298 109 1337
299 109 1611
300 109 3839
301 109 2199
302 109 2453
303 109 1852
304 109 1881
305 109 1645
306 109 1412
307 109 1426
308 109 1902
309 109 2132
310 109 1789
311 109 2192
312 109 2809
313 109 682
314 109 917
315 109 2497
316 109 2683
317 109 3267
318 109 811
319 109 1667
320 109 3579
321 109 338
322 109 983
323 109 1407
324 109 832
325 109 1691
326 109 602
327 109 3259
328 109 1082
329 109 1232
330 109 1396
331 109 1392
332 109 2457
333 109 478
334 109 1949
335 109 1050
336 109 1072
337 109 1275
338 109 2199
339 109 1424
340 109 2800
341 109 1363
342 109 1317
343 109 1840
344 109 1733
345 109 2059
346 109 1125
347 109 1212
348 109 3212
349 109 1803
350 109 1472
351 109 2711
352 109 2943
353 109 1157
354 109 818
355 109 1360
356 109 1231
357 109 1963
358 109 709
359 109 1040
360 109 2102
361 109 2325
362 109 1038
363 109 1571
364 109 549
365 109 1064
366 109 1850
367 109 858
368 109 1450
369 109 1949
370 109 1877
371 109 2559
372 109 2035
373 109 829
374 109 1110
375 109 1393
376 109 2062
377 109 1241
378 109 2178
379 109 1422
380 109 1293
381 109 3207
382 109 1461
383 109 3466
384 109 2411
385 109 1424
386 109 1508
387 109 2203
388 109 754
389 109 1663
390 109 858
391 109 2450
392 109 1636
393 109 1809
394 109 664
395 109 2318
396 109 978
397 109 1390
398 109 568
399 109 1698
400 109 931
401 109 1845
402 109 2204
403 109 1112
404 109 1825
405 109 994
406 109 2430
407 109 1857
408 109 2859
409 109 1385
410 109 1537
411 109 2625
412 109 1913
413 109 1106
414 109 1632
415 109 2507
416 109 1926
417 109 1281
418 109 1729
419 109 2441
420 109 2248
421 109 1464
422 109 2220
423 109 1130
424 109 868
425 109 1839
426 109 1323
427 109 2063
428 109 2446
429 109 1845
430 109 2433
431 109 2072
432 109 764
433 109 1900
434 109 1899
435 109 2154
436 109 1855
437 109 2004
438 109 2833
439 109 1787
440 109 1759
441 109 1170
442 109 991
443 109 1793
444 109 1324
445 109 2549
446 109 1831
447 109 2571
448 109 1804
449 109 1875
450 109 1988
451 109 1274
452 109 1341
453 109 1332
454 109 1948
455 109 1848
456 109 1466
457 109 1439
458 109 1596
459 109 980
460 109 2651
461 109 1241
462 109 1891
463 109 844
464 109 1221
465 109 1832
466 109 1626
467 109 787
468 109 1370
469 109 2799
470 109 3131
471 109 1984
472 109 1398
473 109 3005
474 109 3466
475 109 1720
476 109 1351
477 109 1201
478 109 1010
479 109 1735
480 109 1723
481 109 2836
482 109 1767
483 109 727
484 109 1240
485 109 1909
486 109 2008
487 109 1877
488 109 2714
489 109 1625
490 109 3291
491 109 1030
492 109 1982
493 109 1860
494 109 1438
495 109 1453
496 109 1351
497 109 1790
498 109 786
499 109 2708
500 109 2010
1 110 862
2 110 1699
3 110 2078
4 110 2648
5 110 1095
6 110 1042
7 110 903
8 110 1106
9 110 1214
10 110 2501
11 110 2301
12 110 1568
13 110 1655
14 110 1161
15 110 2942
16 110 1269
17 110 1436
18 110 2853
19 110 1179
20 110 2378
21 110 2214
22 110 2133
23 110 1572
24 110 1007
25 110 2843
26 110 2931
27 110 992
28 110 1638
29 110 1533
30 110 1193
31 110 1610
32 110 2407
33 110 887
34 110 1254
35 110 1002
36 110 521
37 110 2546
38 110 821
39 110 802
40 110 2713
41 110 909
42 110 1240
43 110 2196
44 110 1595
45 110 738
46 110 4978
47 110 1643
48 110 1009
49 110 1654
50 110 782
51 110 643
52 110 434
53 110 2893
54 110 932
55 110 1899
56 110 1868
57 110 3039
58 110 2287
59 110 1152
60 110 1889
61 110 1076
62 110 2072
63 110 1032
64 110 1340
65 110 1205
66 110 529
67 110 1410
68 110 1616
69 110 3026
70 110 1164
71 110 1750
72 110 2968
73 110 1687
74 110 1854
75 110 2141
76 110 186
77 110 1899
78 110 1541
79 110 3414
80 110 997
81 110 921
82 110 1346
83 110 1110
84 110 1902
85 110 1171
86 110 1775
87 110 2259
88 110 1093
89 110 1828
90 110 1023
91 110 1002
92 110 2010
93 110 2364
94 110 857
95 110 1006
96 110 2231
97 110 1947
98 110 1830
99 110 1313
100 110 1586
101 110 1673
102 110 1536
103 110 1525
104 110 1950
105 110 991
106 110 2159
107 110 1184
108 110 1210
109 110 862
110 110 2287
111 110 1456
112 110 1013
113 110 1835
114 110 3007
115 110 1656
116 110 2309
117 110 1059
118 110 1174
119 110 2620
120 110 2111
121 110 1526
122 110 829
123 110 2337
124 110 1521
125 110 1013
126 110 2521
127 110 1117
128 110 2281
129 110 1951
130 110 2296
131 110 1580
132 110 1682
133 110 472
134 110 777
135 110 1141
136 110 1043
137 110 1086
138 110 1539
139 110 2616
140 110 668
141 110 1168
142 110 1020
143 110 798
144 110 669
145 110 3479
146 110 2866
147 110 1396
148 110 1734
149 110 1165
150 110 2091
151 110 1477
152 110 1574
153 110 473
154 110 1265
155 110 1066
156 110 2701
157 110 1011
158 110 3226
159 110 1367
160 110 1323
161 110 1127
162 110 630
163 110 1049
164 110 1678
165 110 1886
166 110 1325
167 110 961
168 110 679
169 110 1065
170 110 2223
171 110 2338
172 110 575
173 110 1630
174 110 2265
175 110 1495
176 110 2154
177 110 2357
178 110 2521
179 110 1984
180 110 1082
181 110 1476
182 110 1043
183 110 1779
184 110 531
185 110 2022
186 110 1531
187 110 1295
188 110 1912
189 110 2955
190 110 1779
191 110 1522
192 110 1614
193 110 1801
194 110 1369
195 110 2196
196 110 2317
197 110 3492
198 110 709
199 110 1007
200 110 2362
201 110 550
202 110 2085
203 110 1519
204 110 2980
205 110 1358
206 110 1267
207 110 1649
208 110 1347
209 110 1320
210 110 1141
211 110 1396
212 110 511
213 110 1017
214 110 1441
215 110 892
216 110 2815
217 110 2060
218 110 795
219 110 2539
220 110 2464
221 110 5053
222 110 1269
223 110 2070
224 110 1832
225 110 2478
226 110 1326
227 110 1085
228 110 984
229 110 1438
230 110 817
231 110 1363
232 110 1040
233 110 1631
234 110 1421
235 110 1642
236 110 3357
237 110 505
238 110 1454
239 110 1888
240 110 1596
241 110 1165
242 110 1140
243 110 2135
244 110 1346
245 110 1243
246 110 1745
247 110 1054
248 110 1322
249 110 746
250 110 583
251 110 2418
252 110 1352
253 110 1578
254 110 1261
255 110 3754
256 110 1360
257 110 1130
258 110 1515
259 110 2169
260 110 918
261 110 2125
262 110 1691
263 110 826
264 110 2692
265 110 2367
266 110 2742
267 110 1840
268 110 2193
269 110 966
270 110 1284
271 110 1699
272 110 1468
273 110 1663
274 110 1308
275 110 2515
276 110 1024
277 110 1019
278 110 1842
279 110 822
280 110 1086
281 110 2011
282 110 1341
283 110 2466
284 110 1586
285 110 1304
286 110 305
287 110 1052
288 110 1639
289 110 2817
290 110 1828
291 110 1401
292 110 1255
293 110 2187
294 110 1551
295 110 2760
296 110 1781
297 110 1240
298 110 4084
299 110 1618
300 110 836
301 110 2572
302 110 2924
303 110 2695
304 110 1689
305 110 1172
306 110 1448
307 110 1549
308 110 1187
309 110 2378
310 110 5329
311 110 2044
312 110 1310
313 110 1328
314 110 805
315 110 1964
316 110 2403
317 110 892
318 110 933
319 110 1678
320 110 2668
321 110 1492
322 110 863
323 110 1341
324 110 801
325 110 1415
326 110 1677
327 110 1491
328 110 779
329 110 642
330 110 670
331 110 1026
332 110 2833
333 110 993
334 110 2177
335 110 829
336 110 2535
337 110 2082
338 110 2260
339 110 942
340 110 2098
341 110 1067
342 110 1107
343 110 2807
344 110 1267
345 110 1879
346 110 1394
347 110 2148
348 110 1906
349 110 3239
350 110 1400
351 110 2576
352 110 1833
353 110 1365
354 110 824
355 110 999
356 110 582
357 110 1999
358 110 1453
359 110 1286
360 110 1860
361 110 3454
362 110 1761
363 110 1695
364 110 1895
365 110 638
366 110 1177
367 110 825
368 110 1356
369 110 1524
370 110 1378
371 110 2505
372 110 1942
373 110 1551
374 110 2684
375 110 2274
376 110 3453
377 110 1452
378 110 2073
379 110 1170
380 110 1791
381 110 2603
382 110 1685
383 110 2190
384 110 3123
385 110 1573
386 110 1180
387 110 2128
388 110 971
389 110 1773
390 110 1455
391 110 1115
392 110 1751
393 110 2377
394 110 785
395 110 2289
396 110 887
397 110 2221
398 110 1265
399 110 1754
400 110 1669
401 110 1531
402 110 2631
403 110 1212
404 110 2937
405 110 1527
406 110 2783
407 110 2454
408 110 1751
409 110 2062
410 110 1404
411 110 1984
412 110 1689
413 110 1731
414 110 2447
415 110 3375
416 110 1618
417 110 2509
418 110 1432
419 110 2108
420 110 2917
421 110 1867
422 110 2355
423 110 2528
424 110 469
425 110 1174
426 110 1709
427 110 1111
428 110 2320
429 110 990
430 110 2073
431 110 1039
432 110 423
433 110 2061
434 110 1471
435 110 911
436 110 1069
437 110 1009
438 110 3610
439 110 1643
440 110 1477
441 110 3012
442 110 902
443 110 1686
444 110 1668
445 110 1898
446 110 1603
447 110 1908
448 110 1141
449 110 1522
450 110 1235
451 110 1060
452 110 1701
453 110 2550
454 110 877
455 110 1858
456 110 1025
457 110 1118
458 110 1183
459 110 1087
460 110 1321
461 110 731
462 110 3818
463 110 2122
464 110 824
465 110 2222
466 110 783
467 110 922
468 110 2319
469 110 1715
470 110 2209
471 110 760
472 110 1058
473 110 1189
474 110 1245
475 110 1156
476 110 2330
477 110 1403
478 110 1419
479 110 1280
480 110 1603
481 110 2243
482 110 1331
483 110 987
484 110 1197
485 110 1427
486 110 2358
487 110 1619
488 110 1724
489 110 1786
490 110 996
491 110 1089
492 110 1786
493 110 2284
494 110 1020
495 110 526
496 110 975
497 110 521
498 110 1037
499 110 2581
500 110 1914
