%%MatrixMarket matrix coordinate integer general
500 125 42619
1 1 2539
2 1 1230
3 1 1516
4 1 343
5 1 298
6 1 2069
7 1 1268
8 1 1261
9 1 446
10 1 2666
11 1 926
12 1 1185
13 1 783
14 1 1411
15 1 887
16 1 593
17 1 727
18 1 904
19 1 1583
20 1 3041
21 1 2085
22 1 879
23 1 991
24 1 2135
25 1 996
26 1 548
27 1 1868
28 1 1364
29 1 922
30 1 1824
31 1 609
32 1 1537
33 1 614
34 1 1299
35 1 2340
36 1 2576
37 1 1266
38 1 1473
39 1 1830
40 1 1643
41 1 1670
42 1 479
43 1 1505
44 1 1179
45 1 956
46 1 1413
47 1 867
48 1 2461
49 1 945
50 1 1284
51 1 2171
52 1 1461
53 1 2018
54 1 1065
55 1 1549
56 1 646
57 1 941
58 1 1784
59 1 921
60 1 2513
61 1 1454
62 1 1172
63 1 2230
64 1 1079
65 1 1204
66 1 780
67 1 566
68 1 747
69 1 1779
70 1 1210
71 1 3111
72 1 1878
73 1 2614
74 1 1796
75 1 450
76 1 1883
77 1 2078
78 1 2316
79 1 1474
80 1 1598
81 1 2086
82 1 971
83 1 2251
84 1 1127
85 1 2073
86 1 1689
87 1 1685
88 1 1821
89 1 955
90 1 1706
91 1 1263
92 1 1729
93 1 683
94 1 1400
95 1 1733
96 1 1190
97 1 375
98 1 1124
99 1 2610
100 1 1033
101 1 610
102 1 1176
103 1 710
104 1 1467
105 1 995
106 1 2615
107 1 1520
108 1 1344
109 1 1899
110 1 897
111 1 1027
112 1 1838
113 1 1726
114 1 1539
115 1 1541
116 1 1442
117 1 862
118 1 2575
119 1 1944
120 1 1065
121 1 772
122 1 2003
123 1 1702
124 1 843
125 1 1299
126 1 1372
127 1 1807
128 1 1658
129 1 1243
130 1 933
131 1 905
132 1 1979
133 1 2769
134 1 2268
135 1 2359
136 1 1522
137 1 978
138 1 1937
139 1 1399
140 1 2283
141 1 1548
142 1 1227
143 1 1129
144 1 1023
145 1 1956
146 1 675
147 1 953
148 1 2022
149 1 1906
150 1 1900
151 1 1124
152 1 1713
153 1 1722
154 1 998
155 1 1564
156 1 2342
157 1 1238
158 1 1528
159 1 1014
160 1 2472
161 1 2045
162 1 1030
163 1 2588
164 1 636
165 1 1149
166 1 787
167 1 1398
168 1 1172
169 1 1451
170 1 2463
171 1 1301
172 1 3907
173 1 1370
174 1 886
175 1 1118
176 1 638
177 1 1302
178 1 1685
179 1 1354
180 1 906
181 1 1380
182 1 1133
183 1 2770
184 1 953
185 1 1995
186 1 2162
187 1 2248
188 1 941
189 1 458
190 1 1282
191 1 1523
192 1 2218
193 1 2379
194 1 2061
195 1 690
196 1 1803
197 1 840
198 1 865
199 1 784
200 1 2043
201 1 1052
202 1 2443
203 1 827
204 1 2232
205 1 1660
206 1 1200
207 1 1487
208 1 2514
209 1 1633
210 1 1494
211 1 1124
212 1 1907
213 1 1137
214 1 662
215 1 1594
216 1 727
217 1 1928
218 1 2181
219 1 2472
220 1 1533
221 1 945
222 1 2728
223 1 1100
224 1 386
225 1 812
226 1 1171
227 1 2775
228 1 1597
229 1 1134
230 1 1238
231 1 3190
232 1 2545
233 1 1991
234 1 1213
235 1 1645
236 1 2053
237 1 1084
238 1 2631
239 1 2067
240 1 990
241 1 1265
242 1 990
243 1 2023
244 1 967
245 1 2479
246 1 1852
247 1 522
248 1 1177
249 1 2099
250 1 954
251 1 2843
252 1 1670
253 1 1614
254 1 1782
255 1 916
256 1 1390
257 1 1003
258 1 1744
259 1 1320
260 1 1057
261 1 610
262 1 1355
263 1 1054
264 1 891
265 1 2039
266 1 1866
267 1 1313
268 1 1145
269 1 1609
270 1 1194
271 1 323
272 1 1845
273 1 1596
274 1 1672
275 1 2216
276 1 1623
277 1 1389
278 1 2263
279 1 527
280 1 299
281 1 3742
282 1 1690
283 1 1801
284 1 999
285 1 540
286 1 456
287 1 1348
288 1 1188
289 1 840
290 1 1988
291 1 1228
292 1 2496
293 1 1941
294 1 2719
295 1 1194
296 1 432
297 1 2213
298 1 1767
299 1 835
300 1 1192
301 1 2024
302 1 1766
303 1 1036
304 1 1903
305 1 1383
306 1 869
307 1 1377
308 1 1306
309 1 1259
310 1 1158
311 1 1425
312 1 1208
313 1 1792
314 1 1214
315 1 2255
316 1 1300
317 1 807
318 1 2457
319 1 1145
320 1 1066
321 1 1762
322 1 1233
323 1 2683
324 1 1729
325 1 1812
326 1 2231
327 1 992
328 1 1315
329 1 1502
330 1 1345
331 1 1512
332 1 1739
333 1 1617
334 1 1362
335 1 1162
336 1 1694
337 1 1866
338 1 1024
339 1 903
340 1 1176
341 1 1836
342 1 2232
343 1 1233
344 1 2138
345 1 3078
346 1 898
347 1 1029
348 1 1820
349 1 702
350 1 2072
351 1 878
352 1 4398
353 1 1963
354 1 867
355 1 1828
356 1 1976
357 1 1040
358 1 1703
359 1 3553
360 1 520
361 1 1292
362 1 1702
363 1 1361
364 1 2822
365 1 1878
366 1 1809
367 1 725
368 1 1127
369 1 597
370 1 425
371 1 1685
372 1 1644
373 1 849
374 1 1292
375 1 1877
376 1 1658
377 1 886
378 1 1673
379 1 1387
380 1 631
381 1 2260
382 1 2466
383 1 1725
384 1 641
385 1 1410
386 1 2163
387 1 1867
388 1 1174
389 1 1878
390 1 1712
391 1 1846
392 1 871
393 1 2255
394 1 1834
395 1 1901
396 1 1000
397 1 519
398 1 1202
399 1 2479
400 1 932
401 1 1595
402 1 2503
403 1 3095
404 1 1864
405 1 1004
406 1 2426
407 1 782
408 1 1162
409 1 827
410 1 1155
411 1 1064
412 1 1849
413 1 985
414 1 2607
415 1 1587
416 1 1092
417 1 1034
418 1 703
419 1 1102
420 1 1158
421 1 1787
422 1 1413
423 1 833
424 1 943
425 1 947
426 1 1637
427 1 2704
428 1 713
429 1 2133
430 1 1988
431 1 1501
432 1 1548
433 1 1905
434 1 2801
435 1 1614
436 1 750
437 1 1454
438 1 1769
439 1 1743
440 1 904
441 1 728
442 1 1819
443 1 1449
444 1 2027
445 1 1389
446 1 2822
447 1 1356
448 1 2238
449 1 404
450 1 1008
451 1 1517
452 1 1124
453 1 1513
454 1 1049
455 1 2296
456 1 2431
457 1 1913
458 1 903
459 1 771
460 1 2127
461 1 1432
462 1 1621
463 1 1799
464 1 899
465 1 2142
466 1 1996
467 1 1327
468 1 1073
469 1 2228
470 1 1605
471 1 2521
472 1 1908
473 1 1817
474 1 1006
475 1 997
476 1 1559
477 1 1242
478 1 1810
479 1 1723
480 1 1743
481 1 1976
482 1 1391
483 1 2622
484 1 1366
485 1 904
486 1 304
487 1 1298
488 1 1694
489 1 1353
490 1 1212
491 1 567
492 1 2913
493 1 2371
494 1 1459
495 1 1912
496 1 1281
497 1 382
498 1 3096
499 1 1627
500 1 1354
1 2 1175
2 2 1110
3 2 1895
4 2 358
5 2 540
6 2 2482
7 2 1214
8 2 1110
9 2 2091
10 2 912
11 2 1205
12 2 1562
13 2 1550
14 2 1825
15 2 511
16 2 429
17 2 665
18 2 574
19 2 856
20 2 1537
21 2 1987
22 2 851
23 2 351
24 2 1215
25 2 1212
26 2 1513
27 2 1827
28 2 1541
29 2 154
30 2 1183
31 2 2282
32 2 1646
33 2 703
34 2 1796
35 2 1172
36 2 1241
37 2 853
38 2 909
39 2 1354
40 2 601
41 2 2001
42 2 1892
43 2 1147
44 2 337
45 2 566
46 2 675
47 2 2185
48 2 1266
49 2 644
50 2 1692
51 2 1852
52 2 1378
53 2 1654
54 2 1217
55 2 2042
56 2 1269
57 2 1576
58 2 976
59 2 1481
60 2 1190
61 2 1004
62 2 1612
63 2 1173
64 2 903
65 2 1939
66 2 1364
67 2 626
68 2 718
69 2 1529
70 2 1310
71 2 1473
72 2 1260
73 2 1792
74 2 1265
75 2 491
76 2 2290
77 2 1919
78 2 661
79 2 1263
80 2 1013
81 2 1871
82 2 980
83 2 1291
84 2 1264
85 2 1588
86 2 1468
87 2 2084
88 2 1740
89 2 1017
90 2 2276
91 2 804
92 2 1979
93 2 1081
94 2 1595
95 2 1486
96 2 1435
97 2 980
98 2 2176
99 2 1386
100 2 1178
101 2 336
102 2 953
103 2 406
104 2 1257
105 2 732
106 2 1163
107 2 1322
108 2 613
109 2 809
110 2 1191
111 2 1183
112 2 1401
113 2 961
114 2 1820
115 2 461
116 2 1319
117 2 638
118 2 2189
119 2 730
120 2 1730
121 2 947
122 2 2661
123 2 1030
124 2 1090
125 2 1729
126 2 516
127 2 1212
128 2 2619
129 2 1345
130 2 2439
131 2 1305
132 2 1109
133 2 1579
134 2 1678
135 2 770
136 2 1874
137 2 1215
138 2 1383
139 2 686
140 2 1313
141 2 1165
142 2 1231
143 2 1545
144 2 471
145 2 1051
146 2 888
147 2 778
148 2 922
149 2 1277
150 2 2546
151 2 1501
152 2 1232
153 2 1987
154 2 1269
155 2 2134
156 2 2028
157 2 1164
158 2 1207
159 2 1854
160 2 1774
161 2 2871
162 2 1233
163 2 2678
164 2 1069
165 2 1076
166 2 1415
167 2 1469
168 2 1589
169 2 1451
170 2 2424
171 2 1541
172 2 1337
173 2 1186
174 2 529
175 2 2138
176 2 591
177 2 1189
178 2 1115
179 2 2148
180 2 178
181 2 347
182 2 1722
183 2 728
184 2 2190
185 2 1335
186 2 2080
187 2 1582
188 2 1320
189 2 281
190 2 704
191 2 1023
192 2 1708
193 2 1051
194 2 1308
195 2 952
196 2 1305
197 2 1258
198 2 637
199 2 734
200 2 1783
201 2 623
202 2 1800
203 2 600
204 2 1204
205 2 2677
206 2 392
207 2 2494
208 2 1327
209 2 2136
210 2 1032
211 2 1878
212 2 2740
213 2 1428
214 2 1178
215 2 1751
216 2 984
217 2 2163
218 2 2544
219 2 1735
220 2 1302
221 2 1948
222 2 1764
223 2 1441
224 2 994
225 2 1231
226 2 1395
227 2 1691
228 2 1541
229 2 872
230 2 1233
231 2 1890
232 2 2302
233 2 1995
234 2 1414
235 2 2281
236 2 2755
237 2 1192
238 2 1735
239 2 2086
240 2 1547
241 2 1769
242 2 1653
243 2 1667
244 2 1589
245 2 719
246 2 1015
247 2 3036
248 2 1659
249 2 2471
250 2 955
251 2 1807
252 2 2244
253 2 1680
254 2 1650
255 2 545
256 2 1600
257 2 725
258 2 2081
259 2 1193
260 2 1875
261 2 1340
262 2 1542
263 2 941
264 2 1024
265 2 1986
266 2 1515
267 2 555
268 2 1611
269 2 2246
270 2 1183
271 2 1888
272 2 548
273 2 1215
274 2 2062
275 2 1142
276 2 1307
277 2 813
278 2 2132
279 2 2860
280 2 2643
281 2 639
282 2 1283
283 2 1023
284 2 1121
285 2 2969
286 2 2105
287 2 2672
288 2 594
289 2 944
290 2 2313
291 2 389
292 2 2256
293 2 952
294 2 1302
295 2 837
296 2 1788
297 2 2678
298 2 1039
299 2 1944
300 2 891
301 2 1385
302 2 1076
303 2 1091
304 2 847
305 2 696
306 2 558
307 2 1452
308 2 615
309 2 1367
310 2 1907
311 2 2463
312 2 335
313 2 1061
314 2 1681
315 2 1352
316 2 1060
317 2 693
318 2 1110
319 2 1335
320 2 3277
321 2 1553
322 2 1409
323 2 555
324 2 871
325 2 1338
326 2 1906
327 2 172
328 2 642
329 2 1205
330 2 1698
331 2 908
332 2 1397
333 2 1616
334 2 2154
335 2 1256
336 2 892
337 2 2020
338 2 1760
339 2 569
340 2 1792
341 2 2115
342 2 1429
343 2 666
344 2 1665
345 2 1360
346 2 688
347 2 698
348 2 885
349 2 430
350 2 1236
351 2 970
352 2 1905
353 2 1600
354 2 1698
355 2 1238
356 2 1171
357 2 1995
358 2 1779
359 2 1417
360 2 1402
361 2 594
362 2 2281
363 2 703
364 2 1806
365 2 1671
366 2 2122
367 2 602
368 2 1130
369 2 772
370 2 1700
371 2 998
372 2 1683
373 2 1327
374 2 1344
375 2 1260
376 2 2311
377 2 717
378 2 1644
379 2 1895
380 2 845
381 2 2696
382 2 560
383 2 1282
384 2 642
385 2 2421
386 2 986
387 2 599
388 2 902
389 2 974
390 2 922
391 2 2111
392 2 901
393 2 840
394 2 1240
395 2 2393
396 2 1526
397 2 1387
398 2 1291
399 2 701
400 2 613
401 2 2526
402 2 968
403 2 2094
404 2 968
405 2 1522
406 2 1586
407 2 241
408 2 2072
409 2 916
410 2 1881
411 2 1045
412 2 1849
413 2 2471
414 2 1436
415 2 1014
416 2 368
417 2 1588
418 2 1197
419 2 657
420 2 1397
421 2 1658
422 2 1592
423 2 1397
424 2 734
425 2 724
426 2 2629
427 2 551
428 2 989
429 2 532
430 2 1475
431 2 2014
432 2 902
433 2 1643
434 2 1844
435 2 1860
436 2 1644
437 2 1280
438 2 1676
439 2 825
440 2 646
441 2 530
442 2 1003
443 2 1846
444 2 1526
445 2 1459
446 2 1913
447 2 605
448 2 690
449 2 836
450 2 572
451 2 1061
452 2 1153
453 2 1388
454 2 1475
455 2 1433
456 2 1574
457 2 2304
458 2 574
459 2 533
460 2 457
461 2 803
462 2 2678
463 2 1554
464 2 1317
465 2 1462
466 2 1649
467 2 530
468 2 1873
469 2 2523
470 2 1732
471 2 1482
472 2 1905
473 2 1278
474 2 1161
475 2 2098
476 2 709
477 2 1341
478 2 1681
479 2 230
480 2 1389
481 2 1713
482 2 2195
483 2 1351
484 2 1340
485 2 853
486 2 449
487 2 1355
488 2 2701
489 2 1185
490 2 1247
491 2 1183
492 2 1564
493 2 1441
494 2 865
495 2 1639
496 2 2620
497 2 1272
498 2 1299
499 2 1649
500 2 166
1 3 376
2 3 790
3 3 931
4 3 520
5 3 1426
6 3 809
7 3 771
8 3 1646
9 3 314
10 3 2528
11 3 804
12 3 735
13 3 1079
14 3 760
15 3 524
16 3 291
17 3 690
18 3 709
19 3 672
20 3 1789
21 3 249
22 3 572
23 3 248
24 3 225
25 3 1422
26 3 1006
27 3 2569
28 3 339
29 3 533
30 3 744
31 3 722
32 3 532
33 3 560
34 3 1316
35 3 791
36 3 391
37 3 785
38 3 1109
39 3 1690
40 3 985
41 3 778
42 3 1388
43 3 905
44 3 1248
45 3 873
46 3 865
47 3 727
48 3 1203
49 3 478
50 3 954
51 3 1038
52 3 764
53 3 703
54 3 1764
55 3 670
56 3 763
57 3 1609
58 3 1141
59 3 748
60 3 1079
61 3 605
62 3 1090
63 3 358
64 3 2382
65 3 804
66 3 989
67 3 273
68 3 589
69 3 581
70 3 428
71 3 1131
72 3 939
73 3 1165
74 3 926
75 3 641
76 3 597
77 3 1115
78 3 1389
79 3 705
80 3 1291
81 3 1778
82 3 753
83 3 1304
84 3 694
85 3 929
86 3 960
87 3 777
88 3 722
89 3 728
90 3 1274
91 3 575
92 3 875
93 3 312
94 3 626
95 3 1213
96 3 428
97 3 653
98 3 860
99 3 933
100 3 483
101 3 1281
102 3 892
103 3 1333
104 3 1970
105 3 920
106 3 1077
107 3 1656
108 3 692
109 3 1557
110 3 751
111 3 1426
112 3 1056
113 3 530
114 3 586
115 3 590
116 3 1746
117 3 734
118 3 640
119 3 969
120 3 841
121 3 807
122 3 1608
123 3 885
124 3 1234
125 3 1209
126 3 827
127 3 916
128 3 1176
129 3 434
130 3 520
131 3 662
132 3 2113
133 3 2052
134 3 984
135 3 1601
136 3 1365
137 3 1413
138 3 838
139 3 1296
140 3 315
141 3 647
142 3 1152
143 3 315
144 3 273
145 3 1030
146 3 674
147 3 685
148 3 2024
149 3 654
150 3 1541
151 3 1052
152 3 1023
153 3 774
154 3 678
155 3 1824
156 3 459
157 3 1130
158 3 1714
159 3 1070
160 3 747
161 3 196
162 3 2062
163 3 1203
164 3 509
165 3 1297
166 3 750
167 3 260
168 3 949
169 3 1354
170 3 1392
171 3 1039
172 3 1595
173 3 1456
174 3 601
175 3 899
176 3 398
177 3 1190
178 3 546
179 3 1190
180 3 484
181 3 595
182 3 1776
183 3 302
184 3 617
185 3 1430
186 3 1075
187 3 488
188 3 581
189 3 1059
190 3 985
191 3 723
192 3 453
193 3 616
194 3 1344
195 3 609
196 3 954
197 3 742
198 3 446
199 3 559
200 3 1602
201 3 314
202 3 254
203 3 644
204 3 882
205 3 244
206 3 476
207 3 483
208 3 421
209 3 803
210 3 734
211 3 1264
212 3 1358
213 3 780
214 3 776
215 3 1130
216 3 657
217 3 3630
218 3 386
219 3 272
220 3 1660
221 3 1050
222 3 812
223 3 784
224 3 687
225 3 987
226 3 473
227 3 516
228 3 654
229 3 725
230 3 513
231 3 728
232 3 1561
233 3 1347
234 3 858
235 3 732
236 3 1916
237 3 655
238 3 1501
239 3 557
240 3 851
241 3 1398
242 3 847
243 3 1783
244 3 1600
245 3 1041
246 3 969
247 3 532
248 3 1011
249 3 676
250 3 297
251 3 550
252 3 837
253 3 1087
254 3 741
255 3 861
256 3 619
257 3 428
258 3 1758
259 3 1416
260 3 1901
261 3 628
262 3 1104
263 3 2120
264 3 848
265 3 834
266 3 342
267 3 374
268 3 1140
269 3 1857
270 3 703
271 3 892
272 3 618
273 3 1966
274 3 712
275 3 703
276 3 604
277 3 1053
278 3 545
279 3 528
280 3 920
281 3 956
282 3 1463
283 3 1805
284 3 633
285 3 518
286 3 337
287 3 1032
288 3 867
289 3 977
290 3 1446
291 3 447
292 3 1531
293 3 736
294 3 1078
295 3 489
296 3 1233
297 3 974
298 3 1242
299 3 802
300 3 998
301 3 694
302 3 1238
303 3 650
304 3 1881
305 3 315
306 3 754
307 3 266
308 3 695
309 3 491
310 3 1184
311 3 511
312 3 927
313 3 1264
314 3 988
315 3 1019
316 3 573
317 3 740
318 3 778
319 3 1212
320 3 1364
321 3 1434
322 3 2082
323 3 1740
324 3 380
325 3 1501
326 3 254
327 3 521
328 3 902
329 3 701
330 3 866
331 3 705
332 3 1629
333 3 395
334 3 516
335 3 576
336 3 361
337 3 1270
338 3 796
339 3 537
340 3 1270
341 3 1300
342 3 1600
343 3 485
344 3 1100
345 3 1334
346 3 542
347 3 886
348 3 1807
349 3 1219
350 3 1089
351 3 361
352 3 965
353 3 1811
354 3 1603
355 3 945
356 3 1323
357 3 3104
358 3 444
359 3 1364
360 3 643
361 3 810
362 3 487
363 3 1327
364 3 820
365 3 732
366 3 1745
367 3 450
368 3 762
369 3 339
370 3 1226
371 3 1119
372 3 1329
373 3 837
374 3 940
375 3 658
376 3 262
377 3 242
378 3 3071
379 3 850
380 3 661
381 3 935
382 3 1059
383 3 908
384 3 548
385 3 1321
386 3 362
387 3 1177
388 3 731
389 3 999
390 3 532
391 3 1913
392 3 766
393 3 193
394 3 439
395 3 783
396 3 748
397 3 1086
398 3 954
399 3 1065
400 3 452
401 3 1285
402 3 894
403 3 1868
404 3 1214
405 3 843
406 3 1216
407 3 1147
408 3 350
409 3 330
410 3 647
411 3 241
412 3 1367
413 3 478
414 3 897
415 3 431
416 3 818
417 3 896
418 3 783
419 3 537
420 3 1140
421 3 946
422 3 1818
423 3 838
424 3 480
425 3 580
426 3 1206
427 3 1770
428 3 568
429 3 311
430 3 454
431 3 596
432 3 1663
433 3 1052
434 3 853
435 3 1481
436 3 1025
437 3 1850
438 3 703
439 3 416
440 3 450
441 3 359
442 3 999
443 3 338
444 3 935
445 3 1316
446 3 1382
447 3 784
448 3 1367
449 3 799
450 3 503
451 3 1510
452 3 437
453 3 1991
454 3 307
455 3 1518
456 3 1216
457 3 1481
458 3 782
459 3 443
460 3 1348
461 3 705
462 3 1158
463 3 454
464 3 1114
465 3 362
466 3 529
467 3 389
468 3 780
469 3 1347
470 3 1180
471 3 276
472 3 1335
473 3 1603
474 3 673
475 3 436
476 3 213
477 3 997
478 3 789
479 3 1166
480 3 940
481 3 1873
482 3 640
483 3 548
484 3 910
485 3 705
486 3 926
487 3 953
488 3 1183
489 3 502
490 3 735
491 3 71
492 3 1420
493 3 1064
494 3 467
495 3 1005
496 3 682
497 3 953
498 3 1016
499 3 1199
500 3 1364
1 4 4208
2 4 4021
3 4 4995
4 4 5600
5 4 6105
6 4 2640
7 4 3597
8 4 3336
9 4 2562
10 4 5805
11 4 2429
12 4 3461
13 4 4624
14 4 3252
15 4 1738
16 4 2498
17 4 2126
18 4 2193
19 4 5450
20 4 3524
21 4 3703
22 4 3328
23 4 928
24 4 5691
25 4 3798
26 4 3333
27 4 5176
28 4 5856
29 4 1765
30 4 5239
31 4 6295
32 4 4266
33 4 1240
34 4 3464
35 4 5603
36 4 4335
37 4 4230
38 4 2607
39 4 11472
40 4 4159
41 4 6829
42 4 6017
43 4 6065
44 4 5443
45 4 3755
46 4 3510
47 4 3685
48 4 3772
49 4 5370
50 4 2248
51 4 6063
52 4 2552
53 4 3514
54 4 3879
55 4 5285
56 4 2287
57 4 3571
58 4 3404
59 4 4096
60 4 4897
61 4 2526
62 4 2740
63 4 4523
64 4 9445
65 4 3151
66 4 4379
67 4 1827
68 4 2845
69 4 6213
70 4 3298
71 4 3027
72 4 2275
73 4 4785
74 4 2317
75 4 2153
76 4 7414
77 4 6208
78 4 3429
79 4 4167
80 4 4828
81 4 4537
82 4 2666
83 4 2218
84 4 2056
85 4 3042
86 4 4481
87 4 7115
88 4 4737
89 4 2739
90 4 2207
91 4 4863
92 4 4125
93 4 3216
94 4 2847
95 4 3396
96 4 3072
97 4 2978
98 4 3830
99 4 5190
100 4 2952
101 4 3964
102 4 4518
103 4 3864
104 4 4721
105 4 2084
106 4 4866
107 4 6849
108 4 3646
109 4 5112
110 4 2397
111 4 3873
112 4 2097
113 4 10463
114 4 4655
115 4 3374
116 4 8842
117 4 1850
118 4 8891
119 4 4294
120 4 3489
121 4 5489
122 4 5594
123 4 5345
124 4 5054
125 4 3675
126 4 4547
127 4 2347
128 4 7399
129 4 5283
130 4 6389
131 4 5080
132 4 7165
133 4 5325
134 4 8026
135 4 4957
136 4 4187
137 4 3765
138 4 7811
139 4 2881
140 4 5486
141 4 4799
142 4 3641
143 4 2934
144 4 4431
145 4 6046
146 4 5764
147 4 2087
148 4 5463
149 4 3977
150 4 5644
151 4 4335
152 4 8562
153 4 6926
154 4 5088
155 4 5078
156 4 4303
157 4 5787
158 4 4416
159 4 3902
160 4 4860
161 4 5031
162 4 3572
163 4 7425
164 4 3573
165 4 3627
166 4 5225
167 4 4409
168 4 4043
169 4 5672
170 4 3490
171 4 4527
172 4 5388
173 4 3516
174 4 1665
175 4 3722
176 4 10262
177 4 5581
178 4 2390
179 4 4962
180 4 1793
181 4 3078
182 4 5813
183 4 4726
184 4 3688
185 4 11562
186 4 3441
187 4 4298
188 4 1717
189 4 5125
190 4 6722
191 4 2385
192 4 4846
193 4 2660
194 4 4117
195 4 2325
196 4 2312
197 4 2313
198 4 4456
199 4 4365
200 4 1998
201 4 1803
202 4 3577
203 4 3300
204 4 5806
205 4 5570
206 4 3466
207 4 5066
208 4 6459
209 4 5809
210 4 2381
211 4 3780
212 4 5836
213 4 10394
214 4 4203
215 4 4716
216 4 2475
217 4 6142
218 4 3504
219 4 3679
220 4 4882
221 4 6175
222 4 3380
223 4 3786
224 4 2890
225 4 4859
226 4 5549
227 4 4056
228 4 4582
229 4 3486
230 4 3372
231 4 5620
232 4 7398
233 4 5020
234 4 4901
235 4 4455
236 4 5732
237 4 3337
238 4 4646
239 4 3724
240 4 7522
241 4 3480
242 4 1787
243 4 4423
244 4 4565
245 4 5959
246 4 7949
247 4 3169
248 4 4413
249 4 4786
250 4 5227
251 4 4103
252 4 4771
253 4 4647
254 4 5651
255 4 3845
256 4 2869
257 4 1321
258 4 3043
259 4 3549
260 4 3356
261 4 1845
262 4 5133
263 4 5900
264 4 3341
265 4 4622
266 4 3716
267 4 6104
268 4 4415
269 4 5211
270 4 3665
271 4 3534
272 4 3297
273 4 3264
274 4 4530
275 4 4485
276 4 3823
277 4 3000
278 4 4732
279 4 3158
280 4 3582
281 4 6547
282 4 4790
283 4 4370
284 4 2874
285 4 3085
286 4 2409
287 4 5077
288 4 3335
289 4 3656
290 4 4064
291 4 3371
292 4 7501
293 4 5671
294 4 2676
295 4 3435
296 4 5325
297 4 3240
298 4 6481
299 4 5069
300 4 1620
301 4 4938
302 4 6567
303 4 2929
304 4 7405
305 4 7654
306 4 2065
307 4 4522
308 4 3587
309 4 3215
310 4 5300
311 4 5158
312 4 4893
313 4 6669
314 4 2298
315 4 3020
316 4 2520
317 4 1799
318 4 1999
319 4 3026
320 4 4370
321 4 4890
322 4 4012
323 4 4974
324 4 2061
325 4 4379
326 4 2896
327 4 1821
328 4 6656
329 4 4681
330 4 4108
331 4 4462
332 4 4935
333 4 3773
334 4 3767
335 4 3385
336 4 2078
337 4 6838
338 4 3507
339 4 10833
340 4 5177
341 4 6539
342 4 5485
343 4 7332
344 4 4534
345 4 4591
346 4 4165
347 4 2110
348 4 7477
349 4 3773
350 4 3500
351 4 3433
352 4 4544
353 4 4672
354 4 3521
355 4 2356
356 4 3747
357 4 9277
358 4 4802
359 4 3612
360 4 6937
361 4 5612
362 4 6865
363 4 3623
364 4 3962
365 4 5704
366 4 2955
367 4 3440
368 4 6926
369 4 3815
370 4 5471
371 4 3454
372 4 3314
373 4 2336
374 4 3479
375 4 3912
376 4 3635
377 4 3448
378 4 4551
379 4 2910
380 4 5780
381 4 3141
382 4 4861
383 4 3974
384 4 2093
385 4 10006
386 4 5622
387 4 3860
388 4 1315
389 4 5881
390 4 10606
391 4 4323
392 4 2685
393 4 4941
394 4 5964
395 4 4636
396 4 4616
397 4 3289
398 4 3462
399 4 5987
400 4 4617
401 4 5359
402 4 2853
403 4 3098
404 4 3976
405 4 7483
406 4 4846
407 4 5260
408 4 4657
409 4 3262
410 4 1941
411 4 1808
412 4 5140
413 4 6331
414 4 5392
415 4 4098
416 4 4118
417 4 3225
418 4 3999
419 4 4255
420 4 2412
421 4 8170
422 4 4164
423 4 1584
424 4 2018
425 4 4431
426 4 5432
427 4 5049
428 4 3467
429 4 5011
430 4 6858
431 4 5392
432 4 4749
433 4 5504
434 4 3956
435 4 3574
436 4 4736
437 4 3068
438 4 5672
439 4 2643
440 4 4625
441 4 3300
442 4 6452
443 4 3033
444 4 3200
445 4 4237
446 4 5454
447 4 5718
448 4 5313
449 4 2915
450 4 4627
451 4 2918
452 4 3642
453 4 3039
454 4 2935
455 4 5229
456 4 3098
457 4 7202
458 4 3829
459 4 2236
460 4 5626
461 4 2345
462 4 7489
463 4 5223
464 4 6001
465 4 2384
466 4 4046
467 4 5828
468 4 2640
469 4 6313
470 4 4750
471 4 3077
472 4 5101
473 4 3883
474 4 3020
475 4 5174
476 4 2743
477 4 5078
478 4 5610
479 4 4872
480 4 3650
481 4 4776
482 4 5693
483 4 5104
484 4 2172
485 4 2008
486 4 3047
487 4 2244
488 4 7362
489 4 1852
490 4 4399
491 4 1224
492 4 5612
493 4 3520
494 4 3219
495 4 3896
496 4 6407
497 4 4833
498 4 6736
499 4 3207
500 4 4390
1 5 888
2 5 504
3 5 396
4 5 418
5 5 863
6 5 1539
7 5 604
8 5 773
9 5 1538
10 5 638
11 5 771
12 5 305
13 5 281
14 5 932
15 5 275
16 5 243
17 5 840
18 5 601
19 5 1602
20 5 681
21 5 270
22 5 500
24 5 1182
25 5 1961
26 5 258
27 5 840
28 5 837
30 5 484
31 5 922
32 5 748
33 5 462
34 5 690
35 5 1784
36 5 846
37 5 551
38 5 1219
39 5 1228
40 5 1070
41 5 431
42 5 606
43 5 1389
44 5 617
45 5 540
46 5 706
47 5 444
48 5 373
49 5 152
50 5 479
51 5 836
52 5 961
53 5 667
54 5 1045
55 5 1145
56 5 244
57 5 497
58 5 533
59 5 473
60 5 623
61 5 248
62 5 325
63 5 221
64 5 479
65 5 737
66 5 270
67 5 236
68 5 537
69 5 282
70 5 765
71 5 382
72 5 398
73 5 458
74 5 386
76 5 444
77 5 873
78 5 663
79 5 1892
80 5 861
81 5 1731
82 5 854
83 5 821
84 5 282
85 5 453
86 5 990
87 5 1147
88 5 1143
89 5 817
90 5 1041
91 5 827
92 5 185
93 5 413
94 5 199
95 5 1880
96 5 1453
97 5 715
98 5 804
99 5 787
100 5 853
101 5 1455
102 5 799
103 5 946
104 5 633
105 5 599
106 5 639
107 5 971
108 5 946
109 5 442
110 5 630
111 5 1978
112 5 205
113 5 842
114 5 824
115 5 697
116 5 700
117 5 389
118 5 846
119 5 109
120 5 1250
121 5 317
122 5 583
123 5 715
124 5 928
125 5 320
126 5 161
127 5 389
128 5 1036
129 5 993
130 5 2332
131 5 114
132 5 809
133 5 320
134 5 1431
135 5 589
136 5 737
137 5 2033
138 5 2375
139 5 1091
140 5 543
141 5 101
142 5 251
143 5 1151
144 5 624
145 5 852
146 5 296
147 5 763
148 5 633
149 5 1323
150 5 624
151 5 898
152 5 395
153 5 1286
154 5 137
155 5 1041
156 5 1658
157 5 1877
158 5 1230
159 5 876
160 5 271
161 5 1359
162 5 847
163 5 427
164 5 357
165 5 1175
166 5 639
167 5 665
168 5 228
169 5 1154
170 5 683
171 5 328
172 5 1285
173 5 1716
175 5 806
177 5 1934
178 5 595
179 5 466
181 5 920
182 5 1125
183 5 921
184 5 622
185 5 1454
186 5 857
187 5 621
188 5 642
189 5 2639
190 5 1023
191 5 898
192 5 904
193 5 763
194 5 845
195 5 443
196 5 361
197 5 399
198 5 681
199 5 1304
200 5 1056
201 5 449
202 5 489
203 5 141
204 5 1835
205 5 516
206 5 1183
207 5 1449
208 5 521
209 5 565
210 5 856
211 5 273
212 5 766
213 5 1441
214 5 1172
215 5 713
216 5 414
217 5 446
218 5 492
219 5 550
220 5 631
221 5 1138
222 5 620
223 5 811
224 5 645
225 5 706
226 5 1506
227 5 613
228 5 854
229 5 336
230 5 645
231 5 859
232 5 1028
233 5 514
234 5 1453
235 5 1328
236 5 1033
237 5 862
238 5 2161
239 5 1953
240 5 1857
241 5 670
242 5 244
243 5 1189
244 5 831
245 5 802
246 5 895
247 5 475
248 5 927
249 5 542
250 5 1558
251 5 647
252 5 1187
253 5 749
254 5 1590
255 5 475
256 5 175
258 5 439
259 5 1784
260 5 164
261 5 347
262 5 1095
263 5 2096
264 5 738
265 5 1040
266 5 1847
267 5 935
268 5 559
269 5 1077
270 5 668
271 5 195
272 5 1460
273 5 721
274 5 944
275 5 574
276 5 705
277 5 1227
278 5 462
279 5 444
280 5 1060
281 5 1307
282 5 903
283 5 867
284 5 597
285 5 522
286 5 1563
287 5 498
288 5 501
289 5 377
290 5 462
291 5 1146
292 5 1006
293 5 164
294 5 210
295 5 1266
296 5 458
297 5 327
298 5 599
299 5 1026
300 5 607
301 5 666
302 5 618
303 5 569
304 5 280
305 5 928
306 5 579
307 5 640
308 5 1025
309 5 1001
310 5 372
311 5 1434
312 5 291
313 5 611
314 5 483
315 5 1349
316 5 627
317 5 425
318 5 432
319 5 92
320 5 1926
321 5 524
322 5 825
323 5 364
324 5 249
325 5 736
326 5 517
328 5 1016
329 5 125
330 5 1056
331 5 1093
332 5 553
333 5 921
334 5 680
335 5 193
336 5 247
337 5 315
338 5 1142
339 5 605
340 5 1808
341 5 1310
342 5 335
343 5 794
344 5 888
345 5 259
347 5 576
348 5 271
349 5 951
350 5 960
352 5 614
353 5 1110
354 5 527
355 5 358
356 5 199
357 5 821
358 5 1416
359 5 122
360 5 1008
361 5 701
362 5 1533
363 5 1093
364 5 635
365 5 1610
366 5 426
368 5 280
369 5 232
370 5 451
371 5 502
372 5 129
373 5 746
374 5 1162
375 5 1334
376 5 1665
377 5 442
378 5 1051
379 5 769
380 5 248
381 5 357
382 5 2014
383 5 804
385 5 1257
386 5 1253
387 5 815
388 5 190
389 5 902
390 5 848
391 5 757
392 5 505
393 5 343
394 5 811
395 5 2023
396 5 408
397 5 686
398 5 1100
399 5 838
400 5 765
401 5 266
402 5 254
403 5 140
404 5 745
405 5 1751
406 5 603
407 5 271
408 5 1188
409 5 593
410 5 681
411 5 662
412 5 962
413 5 2408
414 5 791
415 5 880
416 5 712
417 5 892
418 5 1172
419 5 355
420 5 518
421 5 1181
422 5 362
423 5 125
424 5 714
426 5 279
427 5 372
428 5 295
429 5 461
430 5 436
431 5 1087
432 5 1588
433 5 869
434 5 621
435 5 245
436 5 271
437 5 967
438 5 1582
439 5 451
440 5 742
441 5 599
442 5 899
443 5 1068
444 5 434
445 5 659
446 5 458
447 5 731
448 5 1794
449 5 999
450 5 710
451 5 1525
452 5 429
453 5 976
454 5 1118
455 5 401
456 5 786
457 5 1497
458 5 466
459 5 504
460 5 287
461 5 671
462 5 1046
463 5 1278
464 5 606
465 5 328
466 5 369
467 5 962
468 5 361
469 5 777
470 5 824
471 5 788
472 5 490
473 5 890
474 5 589
475 5 623
476 5 502
477 5 317
478 5 1521
479 5 1380
480 5 647
481 5 1138
482 5 559
483 5 323
484 5 1113
485 5 518
486 5 120
487 5 961
488 5 1136
489 5 378
490 5 612
492 5 1310
493 5 412
494 5 413
495 5 1192
496 5 1659
497 5 704
498 5 1717
499 5 434
500 5 1309
1 6 1492
2 6 1830
3 6 1311
4 6 872
5 6 1141
6 6 1723
7 6 2276
8 6 868
9 6 1471
10 6 2066
11 6 1509
12 6 504
13 6 1280
14 6 376
15 6 14
17 6 922
18 6 987
19 6 2182
20 6 779
21 6 2699
22 6 1304
24 6 1431
25 6 2160
26 6 597
27 6 1682
28 6 2519
30 6 2511
31 6 3211
32 6 2038
33 6 506
34 6 922
35 6 1748
36 6 1612
37 6 791
38 6 1884
39 6 539
40 6 1990
41 6 1227
42 6 1631
43 6 1733
44 6 705
45 6 2015
46 6 1220
47 6 1885
48 6 1669
49 6 227
50 6 1716
51 6 836
52 6 894
53 6 1351
54 6 2801
55 6 1031
56 6 3055
57 6 1985
58 6 768
59 6 1617
60 6 2567
61 6 924
62 6 1522
63 6 1878
64 6 2246
65 6 1465
66 6 1960
67 6 2
68 6 703
69 6 1282
70 6 585
71 6 519
72 6 2253
73 6 633
74 6 2250
76 6 2429
77 6 797
78 6 1927
79 6 1061
80 6 1566
81 6 1548
82 6 1496
83 6 2118
84 6 1180
85 6 1401
86 6 1688
87 6 1712
88 6 3014
89 6 1474
90 6 1569
91 6 1163
92 6 1117
93 6 629
94 6 1115
95 6 1119
96 6 1087
97 6 630
98 6 1561
99 6 4298
100 6 1709
101 6 2687
102 6 1915
103 6 1313
104 6 527
105 6 1116
106 6 2553
107 6 674
108 6 2979
109 6 1560
110 6 1271
111 6 2012
112 6 681
113 6 1210
114 6 1233
115 6 679
116 6 1612
117 6 75
118 6 1426
119 6 1093
120 6 2128
121 6 2905
122 6 2450
123 6 705
124 6 1787
125 6 1201
126 6 2309
127 6 2222
128 6 984
129 6 1455
130 6 1622
131 6 2955
132 6 1954
133 6 1856
134 6 1252
135 6 933
136 6 2926
137 6 2118
138 6 4552
139 6 1497
140 6 2269
141 6 1808
142 6 2265
143 6 1882
144 6 681
145 6 2189
146 6 795
147 6 906
148 6 1407
149 6 3060
150 6 2394
151 6 2794
152 6 2087
153 6 1670
154 6 2945
155 6 1736
156 6 2020
157 6 2907
158 6 1478
159 6 1902
160 6 1909
161 6 1834
162 6 437
163 6 2146
164 6 1186
165 6 2231
166 6 3016
167 6 643
168 6 519
169 6 2346
170 6 1620
171 6 1684
172 6 1588
173 6 1309
175 6 1587
177 6 2905
178 6 2019
179 6 1076
181 6 1327
182 6 1853
183 6 2575
184 6 2210
185 6 2118
186 6 1125
187 6 1600
188 6 836
189 6 3342
190 6 1129
191 6 1916
192 6 2364
193 6 581
194 6 1329
195 6 245
196 6 2275
197 6 812
198 6 1002
199 6 2692
200 6 1845
201 6 919
202 6 725
203 6 1
204 6 1827
205 6 1990
206 6 1792
207 6 2034
208 6 1831
209 6 462
210 6 1973
211 6 1623
212 6 1898
213 6 2343
214 6 2535
215 6 1493
216 6 282
217 6 1000
218 6 2034
219 6 737
220 6 1735
221 6 518
222 6 390
223 6 1211
224 6 625
225 6 2010
226 6 1698
227 6 1614
228 6 2123
229 6 1110
230 6 1573
231 6 2545
232 6 188
233 6 1889
234 6 1471
235 6 1664
236 6 1297
237 6 1670
238 6 1411
239 6 2935
240 6 3288
241 6 864
242 6 428
243 6 1324
244 6 1267
245 6 2026
246 6 1386
247 6 2046
248 6 2445
249 6 1139
250 6 1987
251 6 1553
252 6 1156
253 6 1546
254 6 2459
255 6 2106
256 6 1137
258 6 528
259 6 1326
260 6 2698
261 6 871
262 6 1756
263 6 1790
264 6 1567
265 6 1692
266 6 2176
267 6 1818
268 6 1548
269 6 1680
270 6 2395
271 6 2520
272 6 1046
273 6 1765
274 6 945
275 6 1771
276 6 795
277 6 702
278 6 1533
279 6 2007
280 6 1877
281 6 1706
282 6 1681
283 6 1362
284 6 1008
285 6 2027
286 6 1598
287 6 2531
288 6 978
289 6 2737
290 6 1191
291 6 1815
292 6 189
293 6 525
294 6 629
295 6 1099
296 6 1790
297 6 1729
298 6 2620
299 6 2635
300 6 370
301 6 933
302 6 2629
303 6 983
304 6 2319
305 6 1634
306 6 916
307 6 660
308 6 2933
309 6 1779
310 6 1195
311 6 2090
312 6 1035
313 6 2640
314 6 1702
315 6 1002
316 6 250
317 6 73
318 6 1013
319 6 908
320 6 1711
321 6 1074
322 6 1556
323 6 1774
324 6 769
325 6 1902
326 6 1082
328 6 1100
329 6 1868
330 6 2468
331 6 1105
332 6 1011
333 6 1881
334 6 1547
335 6 2144
336 6 820
337 6 1808
338 6 2209
339 6 967
340 6 819
341 6 2409
342 6 426
343 6 1794
344 6 427
345 6 1155
347 6 1093
348 6 2261
349 6 1283
350 6 778
352 6 1655
353 6 2170
354 6 2042
355 6 2214
356 6 1521
357 6 1495
358 6 2254
359 6 945
360 6 953
361 6 901
362 6 2611
363 6 1268
364 6 2032
365 6 2398
366 6 530
368 6 1614
370 6 1735
371 6 757
372 6 1456
373 6 1214
374 6 216
375 6 3049
376 6 1632
377 6 90
378 6 678
379 6 1828
380 6 791
381 6 1708
382 6 1710
383 6 2492
385 6 1270
386 6 1238
387 6 1690
388 6 1032
389 6 2173
390 6 1158
391 6 2690
392 6 1329
393 6 651
394 6 2029
395 6 2973
396 6 1381
397 6 1212
398 6 214
399 6 2069
400 6 1131
401 6 1408
402 6 1053
403 6 2139
404 6 1599
405 6 3255
406 6 1463
407 6 1593
408 6 2384
409 6 477
410 6 961
411 6 1131
412 6 2154
413 6 1659
414 6 4428
415 6 1304
416 6 1207
417 6 865
418 6 2640
419 6 5
420 6 1182
421 6 1837
422 6 945
423 6 637
424 6 1073
426 6 1516
427 6 1782
428 6 814
429 6 2184
430 6 1805
431 6 1035
432 6 2578
433 6 2397
434 6 2010
435 6 497
436 6 1231
437 6 1113
438 6 2492
439 6 44
440 6 1148
441 6 620
442 6 2046
443 6 3027
444 6 1324
445 6 982
446 6 1059
447 6 936
448 6 1486
449 6 1606
450 6 1172
451 6 1628
452 6 704
453 6 1177
454 6 1993
455 6 1232
456 6 1038
457 6 1036
458 6 2004
459 6 1008
460 6 828
461 6 1196
462 6 952
463 6 2582
464 6 2400
465 6 2134
466 6 2725
467 6 1906
468 6 1414
469 6 2760
470 6 1492
471 6 1588
472 6 2030
473 6 1327
474 6 983
475 6 1636
476 6 873
477 6 1478
478 6 2473
479 6 1915
480 6 2145
481 6 2154
482 6 3431
483 6 1431
484 6 1115
485 6 480
486 6 981
487 6 1208
488 6 941
489 6 970
490 6 1829
492 6 1841
493 6 1107
494 6 1802
495 6 2144
496 6 1400
497 6 1520
498 6 3860
499 6 546
500 6 1392
1 7 3002
2 7 1935
3 7 3260
4 7 1512
5 7 1504
6 7 1409
7 7 3154
8 7 2375
9 7 3138
10 7 1518
11 7 2476
12 7 1302
13 7 1728
14 7 1841
17 7 1588
18 7 971
19 7 2380
20 7 2466
21 7 3213
22 7 2250
24 7 1073
25 7 1789
26 7 198
27 7 4117
28 7 2627
30 7 4612
31 7 2551
32 7 3234
33 7 20
34 7 1341
35 7 3470
36 7 3036
37 7 2472
38 7 2545
39 7 2389
40 7 2597
41 7 1847
42 7 1649
43 7 2355
44 7 2116
45 7 2253
46 7 2652
47 7 3009
48 7 2154
49 7 154
50 7 3321
51 7 1917
52 7 2297
53 7 2391
54 7 3210
55 7 3715
56 7 2359
57 7 2203
58 7 1762
59 7 2072
60 7 2757
61 7 2013
62 7 1156
63 7 3716
64 7 3866
65 7 2572
66 7 2524
68 7 280
69 7 2171
70 7 1641
71 7 3019
72 7 3642
73 7 1968
74 7 3718
76 7 3409
77 7 1903
78 7 4095
79 7 1666
80 7 1299
81 7 3497
82 7 2751
83 7 2421
84 7 1697
85 7 2482
86 7 1231
87 7 1941
88 7 1659
89 7 2683
90 7 1874
91 7 1322
92 7 2642
93 7 61
94 7 2055
95 7 3337
96 7 3068
97 7 829
98 7 1876
99 7 2515
100 7 1717
101 7 2903
102 7 2060
103 7 1025
104 7 3080
105 7 1323
106 7 2755
107 7 2283
108 7 2775
109 7 3145
110 7 20
111 7 1855
112 7 3233
113 7 1651
114 7 1370
115 7 210
116 7 842
117 7 4
118 7 4169
119 7 3261
120 7 3617
121 7 4033
122 7 2629
123 7 1924
124 7 2660
125 7 2721
126 7 3119
127 7 3591
128 7 3010
129 7 2088
130 7 3144
131 7 1849
132 7 1441
133 7 3497
134 7 2831
135 7 2432
136 7 2655
137 7 1807
138 7 5713
139 7 2650
140 7 3417
141 7 2148
142 7 2474
143 7 2782
144 7 20
145 7 4442
146 7 407
147 7 1848
148 7 1728
149 7 3253
150 7 2576
151 7 1579
152 7 2753
153 7 1909
154 7 1839
155 7 2219
156 7 3554
157 7 3243
158 7 2294
159 7 1773
160 7 6753
161 7 2453
162 7 3249
163 7 3487
164 7 1099
165 7 3170
166 7 4217
167 7 2323
168 7 1397
169 7 4978
170 7 2067
171 7 2744
172 7 4210
173 7 2338
175 7 1870
177 7 3183
178 7 1834
179 7 1376
181 7 3201
182 7 3244
183 7 3782
184 7 3658
185 7 2946
186 7 2638
187 7 4105
188 7 138
189 7 3991
190 7 1675
191 7 2078
192 7 4225
193 7 3169
194 7 1737
196 7 3551
197 7 311
198 7 518
199 7 4110
200 7 3690
201 7 1015
202 7 3400
204 7 3483
205 7 4812
206 7 2886
207 7 2469
208 7 3196
209 7 3367
210 7 2123
211 7 2523
212 7 4713
213 7 3407
214 7 3839
215 7 2329
217 7 3314
218 7 1894
219 7 3353
220 7 3619
221 7 2220
222 7 2250
223 7 1506
224 7 797
225 7 2552
226 7 3387
227 7 1414
228 7 3038
229 7 1193
230 7 2038
231 7 2610
232 7 1969
233 7 3061
234 7 2115
235 7 4553
236 7 1488
237 7 2159
238 7 1099
239 7 4171
240 7 3090
241 7 1333
242 7 1266
243 7 4270
244 7 2600
245 7 3435
246 7 1373
247 7 2178
248 7 3315
249 7 6152
250 7 2584
251 7 1361
252 7 2739
253 7 2438
254 7 3629
255 7 2191
256 7 1925
258 7 1068
259 7 2383
260 7 2505
261 7 287
262 7 2646
263 7 4305
264 7 2145
265 7 3720
266 7 2447
267 7 3690
268 7 1903
269 7 2194
270 7 3230
271 7 1512
272 7 2599
273 7 2463
274 7 3289
275 7 2492
276 7 1677
277 7 1180
278 7 5223
279 7 2107
280 7 2924
281 7 3805
282 7 1466
283 7 2170
284 7 1099
285 7 2112
286 7 3173
287 7 2721
288 7 1828
289 7 2144
290 7 2487
291 7 2797
292 7 1885
293 7 2388
294 7 1981
295 7 1898
296 7 3382
297 7 2213
298 7 3167
299 7 2590
300 7 35
301 7 1516
302 7 3150
303 7 1048
304 7 2626
305 7 1199
306 7 972
307 7 2306
308 7 2757
309 7 1610
310 7 2934
311 7 2560
312 7 1827
313 7 3210
314 7 3328
315 7 2187
316 7 525
317 7 7
318 7 1488
319 7 2708
320 7 2807
321 7 2936
322 7 1145
323 7 3223
324 7 1744
325 7 4006
326 7 2987
328 7 1748
329 7 2207
330 7 932
331 7 2176
332 7 2311
333 7 2001
334 7 2370
335 7 2731
336 7 1833
337 7 2504
338 7 3529
339 7 755
340 7 1328
341 7 2762
342 7 2913
343 7 2760
344 7 1211
345 7 3210
347 7 1323
348 7 2670
349 7 1027
350 7 1872
352 7 2671
353 7 2602
354 7 2229
355 7 3727
356 7 2280
357 7 3333
358 7 1578
359 7 2327
360 7 1667
361 7 2630
362 7 1745
363 7 81
364 7 3118
365 7 3571
366 7 1075
368 7 2800
370 7 3292
371 7 1720
372 7 2810
373 7 3856
375 7 3331
376 7 2212
378 7 4979
379 7 1550
380 7 376
381 7 2101
382 7 4378
383 7 3165
385 7 1952
386 7 3576
387 7 2549
388 7 1698
389 7 4570
390 7 1687
391 7 3832
392 7 2903
393 7 3053
394 7 3008
395 7 3755
396 7 2061
397 7 1515
399 7 3449
400 7 3651
401 7 2549
402 7 1286
403 7 2885
404 7 4698
405 7 3097
406 7 4186
407 7 3052
408 7 3631
409 7 2804
410 7 2010
411 7 2054
412 7 3479
413 7 2997
414 7 2549
415 7 1887
416 7 2016
417 7 2293
418 7 3779
420 7 1803
421 7 8697
422 7 3119
423 7 137
424 7 2510
426 7 2524
427 7 3169
428 7 1508
429 7 2265
430 7 3354
431 7 3711
432 7 3484
433 7 1329
434 7 3206
435 7 2075
436 7 1729
437 7 1189
438 7 3653
439 7 3
440 7 3628
441 7 1878
442 7 2256
443 7 1730
444 7 2465
445 7 1784
446 7 2538
447 7 2648
448 7 1803
449 7 1781
450 7 3692
451 7 2819
452 7 1725
453 7 1163
454 7 2771
455 7 1304
456 7 3657
457 7 2936
458 7 2368
459 7 2014
460 7 4152
461 7 1430
462 7 2990
463 7 1949
464 7 1919
465 7 2267
466 7 2533
467 7 3665
468 7 1148
469 7 3942
470 7 2520
471 7 2656
472 7 2984
473 7 2669
474 7 1131
475 7 3621
476 7 314
477 7 2986
478 7 3686
479 7 2134
480 7 2228
481 7 2662
482 7 3187
483 7 5802
484 7 3123
485 7 9
486 7 980
487 7 3076
488 7 2905
489 7 58
490 7 1968
492 7 3224
493 7 2339
494 7 2268
495 7 3149
496 7 3009
497 7 4127
498 7 4929
499 7 662
500 7 2801
1 8 2048
2 8 841
3 8 1884
4 8 51
5 8 737
6 8 990
7 8 498
8 8 1483
9 8 1456
10 8 1073
11 8 641
12 8 883
13 8 942
14 8 981
17 8 189
18 8 293
19 8 993
20 8 1393
21 8 967
22 8 262
24 8 1436
25 8 850
26 8 6
27 8 1292
28 8 694
30 8 1250
31 8 2060
32 8 1208
34 8 769
35 8 723
36 8 2049
37 8 835
38 8 1535
39 8 587
40 8 687
41 8 492
42 8 601
43 8 935
44 8 1430
45 8 726
46 8 1116
47 8 2150
48 8 1314
50 8 1177
51 8 1180
52 8 1384
53 8 2981
54 8 554
55 8 237
56 8 762
57 8 365
58 8 390
59 8 1520
60 8 2580
61 8 794
62 8 1249
63 8 642
64 8 2115
65 8 1673
66 8 637
69 8 956
70 8 1606
71 8 194
72 8 735
73 8 729
74 8 727
76 8 1083
77 8 1203
78 8 988
79 8 1615
80 8 496
81 8 1281
82 8 982
83 8 864
84 8 1034
85 8 1254
86 8 411
87 8 1882
88 8 1231
89 8 1069
90 8 977
91 8 30
92 8 2410
94 8 293
95 8 689
96 8 995
98 8 885
99 8 771
100 8 621
101 8 1280
102 8 533
103 8 72
104 8 1705
105 8 41
106 8 2526
107 8 948
108 8 1584
109 8 905
110 8 2
111 8 843
112 8 1903
113 8 1357
114 8 1331
116 8 733
118 8 1571
119 8 2705
120 8 1818
121 8 1646
122 8 1613
123 8 653
124 8 1276
125 8 463
126 8 1507
127 8 744
128 8 1182
129 8 2202
130 8 1586
131 8 1895
132 8 877
133 8 1306
134 8 1307
135 8 845
136 8 530
137 8 850
138 8 1035
139 8 963
140 8 1472
141 8 1194
142 8 1754
143 8 611
145 8 1197
146 8 213
147 8 859
148 8 1355
149 8 2133
150 8 1646
151 8 1997
152 8 1324
153 8 1833
154 8 1911
155 8 535
156 8 1799
157 8 2760
158 8 1107
159 8 638
160 8 428
161 8 1669
162 8 1742
163 8 1046
164 8 251
165 8 1231
166 8 1194
167 8 1453
168 8 1103
169 8 1000
170 8 987
171 8 1082
172 8 1814
173 8 753
175 8 890
177 8 2819
178 8 834
179 8 980
181 8 2509
182 8 1177
183 8 1522
184 8 1142
185 8 1714
186 8 1578
187 8 1199
188 8 4
189 8 1741
190 8 1244
191 8 1255
192 8 1040
193 8 387
194 8 1835
196 8 730
197 8 4
198 8 22
199 8 2958
200 8 2891
201 8 477
202 8 1061
204 8 754
205 8 1450
206 8 1041
207 8 2246
208 8 468
209 8 1896
210 8 1328
211 8 821
212 8 1668
213 8 1645
214 8 2073
215 8 865
217 8 1688
218 8 1273
219 8 1103
220 8 1417
221 8 1071
222 8 1326
223 8 298
225 8 1461
226 8 988
227 8 1156
228 8 1254
229 8 73
230 8 1169
231 8 1858
232 8 942
233 8 1023
234 8 1796
235 8 769
236 8 450
237 8 1083
238 8 1469
239 8 1184
240 8 1481
241 8 795
242 8 938
243 8 1296
244 8 1850
245 8 830
246 8 1196
247 8 1523
248 8 1676
249 8 1470
250 8 938
251 8 1225
252 8 1028
253 8 887
254 8 2347
255 8 739
256 8 253
258 8 635
259 8 747
260 8 829
262 8 930
263 8 2983
264 8 942
265 8 2392
266 8 565
267 8 2200
268 8 1385
269 8 542
270 8 524
271 8 929
272 8 1312
273 8 1578
274 8 1153
275 8 987
276 8 752
277 8 1066
278 8 2382
279 8 1525
280 8 866
281 8 1195
282 8 418
283 8 1666
284 8 689
285 8 1536
286 8 1470
287 8 1135
288 8 1414
289 8 1352
290 8 2375
291 8 974
292 8 945
293 8 829
294 8 1135
295 8 632
296 8 636
297 8 1092
298 8 1321
299 8 1283
300 8 2
301 8 1396
302 8 1350
303 8 645
304 8 1052
305 8 138
306 8 284
307 8 1591
308 8 1658
309 8 410
310 8 674
311 8 2203
312 8 952
313 8 1384
314 8 1202
315 8 1832
316 8 28
318 8 480
319 8 556
320 8 813
321 8 929
322 8 582
323 8 269
324 8 1025
325 8 1789
326 8 2446
328 8 1240
329 8 1202
330 8 2222
331 8 1690
332 8 1581
333 8 324
334 8 629
335 8 837
336 8 1027
337 8 1376
338 8 1774
340 8 522
341 8 634
342 8 1643
343 8 1401
344 8 1107
345 8 1558
347 8 34
348 8 1070
349 8 92
350 8 1117
352 8 1844
353 8 2072
354 8 344
355 8 746
356 8 1341
357 8 985
358 8 2440
359 8 1434
360 8 1368
361 8 2308
362 8 214
364 8 2169
365 8 2500
366 8 645
368 8 1399
370 8 628
371 8 434
372 8 620
373 8 866
375 8 2173
376 8 1515
378 8 1811
379 8 1446
380 8 216
381 8 1120
382 8 1162
383 8 600
385 8 335
386 8 1265
387 8 982
388 8 702
389 8 1232
390 8 1317
391 8 1510
392 8 469
393 8 1171
394 8 484
395 8 1136
396 8 1008
397 8 1424
399 8 870
400 8 648
401 8 717
402 8 698
403 8 1044
404 8 1280
405 8 1499
406 8 372
407 8 2035
408 8 1833
409 8 500
410 8 945
411 8 330
412 8 899
413 8 1719
414 8 767
415 8 1359
416 8 983
417 8 827
418 8 2074
420 8 1209
421 8 2266
422 8 1674
424 8 932
426 8 775
427 8 290
428 8 1158
429 8 1432
430 8 2458
431 8 220
432 8 1066
433 8 592
434 8 2141
435 8 402
436 8 955
437 8 1136
438 8 2517
440 8 629
441 8 799
442 8 743
443 8 814
444 8 1313
445 8 1006
446 8 1101
447 8 2304
448 8 407
449 8 697
450 8 653
451 8 1467
452 8 652
453 8 1147
454 8 594
455 8 165
456 8 1308
457 8 468
458 8 760
459 8 1566
460 8 752
461 8 878
462 8 1119
463 8 1177
464 8 75
465 8 816
466 8 1832
467 8 2164
468 8 815
469 8 1599
470 8 877
471 8 1110
472 8 1005
473 8 964
474 8 652
475 8 2189
476 8 8
477 8 1062
478 8 2434
479 8 930
480 8 1507
481 8 2077
482 8 183
483 8 2203
484 8 2447
486 8 340
487 8 2561
488 8 1253
489 8 3
490 8 1302
492 8 1878
493 8 257
494 8 479
495 8 969
496 8 1124
497 8 1054
498 8 1761
499 8 959
500 8 622
1 9 2027
2 9 1191
3 9 631
4 9 7
5 9 302
6 9 412
7 9 1446
8 9 170
9 9 493
10 9 739
11 9 1339
12 9 1321
13 9 933
14 9 1450
18 9 162
19 9 955
20 9 828
21 9 819
22 9 162
24 9 2072
25 9 335
27 9 221
28 9 227
30 9 647
31 9 1349
32 9 484
34 9 153
35 9 835
36 9 1919
37 9 239
38 9 1033
39 9 485
40 9 537
41 9 332
42 9 467
43 9 1478
44 9 914
45 9 1119
46 9 945
47 9 1067
48 9 1588
50 9 630
51 9 126
52 9 1219
53 9 1336
54 9 721
55 9 455
56 9 448
57 9 197
58 9 11
59 9 257
60 9 1519
61 9 646
62 9 724
63 9 547
64 9 1533
65 9 1249
66 9 517
69 9 774
70 9 1790
71 9 330
72 9 812
73 9 595
74 9 870
76 9 1669
77 9 137
78 9 220
79 9 1226
80 9 101
81 9 1686
82 9 319
83 9 669
84 9 304
85 9 1255
86 9 194
87 9 701
88 9 1015
89 9 354
90 9 329
91 9 2
92 9 725
94 9 240
95 9 394
96 9 1107
98 9 384
99 9 375
100 9 542
101 9 1200
102 9 1065
103 9 23
104 9 499
105 9 59
106 9 1481
107 9 447
108 9 1847
109 9 389
111 9 359
112 9 540
113 9 940
114 9 154
116 9 102
118 9 1009
119 9 467
120 9 963
121 9 972
122 9 631
123 9 445
124 9 234
125 9 999
126 9 622
127 9 892
128 9 1114
129 9 2225
130 9 713
131 9 517
132 9 1619
133 9 181
134 9 414
135 9 1005
136 9 1226
137 9 376
138 9 1366
139 9 252
140 9 440
141 9 272
142 9 1449
143 9 1363
145 9 536
146 9 6
147 9 375
148 9 245
149 9 2790
150 9 622
151 9 1459
152 9 560
153 9 693
154 9 560
155 9 220
156 9 1478
157 9 229
158 9 812
159 9 693
160 9 2097
161 9 405
162 9 645
163 9 1453
164 9 1198
165 9 969
166 9 1050
167 9 1090
168 9 462
169 9 636
170 9 616
171 9 545
172 9 1132
173 9 433
175 9 377
177 9 210
178 9 251
179 9 1506
181 9 775
182 9 1144
183 9 931
184 9 586
185 9 925
186 9 978
187 9 485
189 9 1841
190 9 1031
191 9 375
192 9 1119
193 9 748
194 9 1104
196 9 815
199 9 617
200 9 857
201 9 26
202 9 909
204 9 843
205 9 675
206 9 655
207 9 607
208 9 818
209 9 1299
210 9 369
211 9 889
212 9 544
213 9 1102
214 9 1137
215 9 1367
217 9 472
218 9 479
219 9 875
220 9 448
221 9 1189
222 9 208
223 9 100
225 9 810
226 9 1300
227 9 1055
228 9 894
230 9 492
231 9 741
232 9 1122
233 9 1164
234 9 552
235 9 1944
236 9 145
237 9 299
238 9 467
239 9 381
240 9 1677
241 9 143
242 9 762
243 9 549
244 9 987
245 9 204
246 9 182
247 9 643
248 9 128
249 9 1883
250 9 631
251 9 1094
252 9 260
253 9 1366
254 9 586
255 9 1061
256 9 206
258 9 801
259 9 491
260 9 971
262 9 941
263 9 532
264 9 380
265 9 442
266 9 1211
267 9 1427
268 9 700
269 9 246
270 9 1394
271 9 826
272 9 155
273 9 1751
274 9 1281
275 9 283
276 9 761
277 9 718
278 9 913
279 9 591
280 9 411
281 9 653
282 9 276
283 9 1893
284 9 751
285 9 621
286 9 454
287 9 1233
288 9 526
289 9 904
290 9 296
291 9 651
292 9 1188
293 9 235
294 9 867
295 9 444
296 9 256
297 9 627
298 9 2244
299 9 1100
301 9 1421
302 9 2315
303 9 735
304 9 407
305 9 10
306 9 141
307 9 1116
308 9 1758
309 9 114
310 9 446
311 9 626
312 9 1474
313 9 2307
314 9 643
315 9 568
316 9 4
318 9 9
319 9 2275
320 9 845
321 9 1666
322 9 746
323 9 112
324 9 350
325 9 913
326 9 516
328 9 988
329 9 281
330 9 663
331 9 992
332 9 1320
333 9 345
334 9 617
335 9 314
336 9 402
337 9 847
338 9 1026
340 9 760
341 9 1403
342 9 194
343 9 769
344 9 1121
345 9 2165
347 9 58
348 9 367
349 9 26
350 9 358
352 9 1074
353 9 457
354 9 212
355 9 823
356 9 976
357 9 2987
358 9 1345
359 9 1585
360 9 393
361 9 456
362 9 314
364 9 978
365 9 548
366 9 839
368 9 925
370 9 273
371 9 9
372 9 170
373 9 468
375 9 2782
376 9 2066
378 9 1776
379 9 1396
380 9 5
381 9 580
382 9 678
383 9 1041
385 9 965
386 9 1151
387 9 918
388 9 56
389 9 504
390 9 954
391 9 283
392 9 163
393 9 1228
394 9 522
395 9 1250
396 9 957
397 9 1184
399 9 211
400 9 680
401 9 1098
402 9 382
403 9 2187
404 9 557
405 9 1606
406 9 203
407 9 1683
408 9 1373
409 9 121
410 9 194
411 9 14
412 9 667
413 9 824
414 9 349
415 9 689
416 9 605
417 9 671
418 9 1198
420 9 801
421 9 1323
422 9 2169
424 9 229
426 9 1062
427 9 87
428 9 52
429 9 1424
430 9 529
431 9 469
432 9 612
433 9 761
434 9 1047
435 9 848
436 9 963
437 9 739
438 9 545
440 9 711
441 9 63
442 9 63
443 9 547
444 9 1220
445 9 796
446 9 164
447 9 431
448 9 1365
449 9 1359
450 9 735
451 9 97
452 9 569
453 9 712
454 9 1368
455 9 268
456 9 585
457 9 883
458 9 1127
459 9 770
460 9 677
461 9 99
462 9 1108
463 9 334
464 9 384
465 9 563
466 9 1001
467 9 1341
468 9 798
469 9 1781
470 9 1354
471 9 1625
472 9 1172
473 9 517
474 9 724
475 9 757
477 9 1461
478 9 543
479 9 65
480 9 916
481 9 446
482 9 1100
483 9 1303
484 9 1027
486 9 50
487 9 996
488 9 1057
490 9 461
492 9 590
493 9 788
494 9 1041
495 9 1078
496 9 559
497 9 147
498 9 318
499 9 1136
500 9 761
1 10 3111
2 10 2858
3 10 2361
5 10 142
6 10 1557
7 10 2519
8 10 1444
9 10 2417
10 10 3610
11 10 1999
12 10 1567
13 10 3061
14 10 2334
18 10 5
19 10 853
20 10 2345
21 10 2228
22 10 12
24 10 2425
25 10 1701
27 10 4065
28 10 1448
30 10 2594
31 10 2871
32 10 4635
34 10 55
35 10 1869
36 10 3119
37 10 45
38 10 2976
39 10 3058
40 10 1117
41 10 4650
42 10 1761
43 10 3840
44 10 3043
45 10 2899
46 10 2811
47 10 3094
48 10 1802
50 10 2459
51 10 1803
52 10 2204
53 10 2154
54 10 2314
55 10 1793
56 10 1954
57 10 2269
59 10 2200
60 10 2602
61 10 1667
62 10 920
63 10 3601
64 10 4146
65 10 2767
66 10 503
69 10 2515
70 10 2330
71 10 1216
72 10 3589
73 10 1585
74 10 3726
76 10 2807
77 10 1768
78 10 1617
79 10 3349
80 10 1280
81 10 3352
82 10 1090
83 10 2854
84 10 12
85 10 2582
86 10 635
87 10 1690
88 10 3386
89 10 1138
90 10 125
92 10 2109
94 10 167
95 10 2507
96 10 2321
98 10 2179
99 10 749
100 10 1792
101 10 1472
102 10 603
103 10 2
104 10 1340
105 10 14
106 10 2652
107 10 3443
108 10 2594
109 10 1836
111 10 1679
112 10 2130
113 10 2326
114 10 2632
116 10 1983
118 10 5606
119 10 2899
120 10 1625
121 10 3115
122 10 2019
123 10 1213
124 10 1629
125 10 1470
126 10 2741
127 10 3761
128 10 2017
129 10 4469
130 10 3412
131 10 3098
132 10 2718
133 10 2872
134 10 2057
135 10 932
136 10 2044
137 10 1597
138 10 2476
139 10 742
140 10 2195
141 10 2910
142 10 2476
143 10 2282
145 10 2446
147 10 319
148 10 2604
149 10 3794
150 10 2076
151 10 4118
152 10 3476
153 10 1758
154 10 3024
155 10 1075
156 10 3329
157 10 2734
158 10 1576
159 10 2951
160 10 4690
161 10 1766
162 10 2482
163 10 3039
164 10 1222
165 10 2330
166 10 2659
167 10 2144
168 10 1863
169 10 2490
170 10 2058
171 10 697
172 10 1607
173 10 79
175 10 2277
177 10 2895
178 10 2708
179 10 3787
181 10 4760
182 10 2615
183 10 1506
184 10 2603
185 10 2906
186 10 2072
187 10 3253
189 10 3641
190 10 2652
191 10 184
192 10 3383
193 10 793
194 10 3016
196 10 3670
199 10 2834
200 10 2537
201 10 2
202 10 2360
204 10 1900
205 10 2828
206 10 1897
207 10 1452
208 10 4710
209 10 2002
210 10 171
211 10 2125
212 10 2831
213 10 2381
214 10 2302
215 10 2245
217 10 3119
218 10 2193
219 10 2376
220 10 3339
221 10 2220
222 10 3090
223 10 518
225 10 3962
226 10 2944
227 10 2063
228 10 1866
230 10 1774
231 10 4165
232 10 1678
233 10 3422
234 10 895
235 10 2301
236 10 1070
237 10 2053
238 10 2418
239 10 3351
240 10 3765
241 10 41
242 10 1864
243 10 3716
244 10 3148
245 10 3276
246 10 2205
247 10 2429
248 10 1087
249 10 3926
250 10 1860
251 10 2074
252 10 1836
253 10 2242
254 10 2777
255 10 2777
256 10 188
258 10 3020
259 10 78
260 10 1943
262 10 1710
263 10 2281
264 10 925
265 10 2608
266 10 3298
267 10 2354
268 10 208
269 10 1017
270 10 2444
271 10 2847
272 10 2752
273 10 3037
274 10 4306
275 10 2398
276 10 2243
277 10 1444
278 10 3530
279 10 2233
280 10 2912
281 10 4280
282 10 2426
283 10 2434
284 10 2477
285 10 2310
286 10 2504
287 10 2904
288 10 1841
289 10 1930
290 10 2414
291 10 1833
292 10 1749
293 10 6765
294 10 3523
295 10 1847
296 10 2097
297 10 1661
298 10 3159
299 10 3302
301 10 1872
302 10 3079
303 10 2531
304 10 2909
305 10 1
306 10 4
307 10 2081
308 10 2560
309 10 803
310 10 2253
311 10 1436
312 10 2994
313 10 3210
314 10 2472
315 10 5346
319 10 6903
320 10 3390
321 10 1766
322 10 2319
323 10 3260
324 10 10
325 10 1294
326 10 1659
328 10 2563
329 10 2885
330 10 3698
331 10 2406
332 10 4775
333 10 1758
334 10 2950
335 10 784
336 10 14
337 10 765
338 10 1633
340 10 4026
341 10 3995
342 10 2183
343 10 2293
344 10 3770
345 10 3103
347 10 16
348 10 2870
349 10 5
350 10 1088
352 10 2081
353 10 4006
354 10 2182
355 10 3655
356 10 2799
357 10 1668
358 10 4631
359 10 1311
360 10 2981
361 10 1867
362 10 1772
364 10 1868
365 10 2720
366 10 2936
368 10 2392
370 10 2053
372 10 2761
373 10 1172
375 10 3862
376 10 3695
378 10 6112
379 10 2714
381 10 1764
382 10 3538
383 10 2506
385 10 515
386 10 3094
387 10 2494
389 10 2426
390 10 2386
391 10 1084
392 10 8
393 10 3883
394 10 3225
395 10 3699
396 10 2067
397 10 2684
399 10 3069
400 10 3272
401 10 5220
402 10 3360
403 10 2128
404 10 1965
405 10 3779
406 10 1623
407 10 5115
408 10 2876
409 10 58
410 10 10
412 10 2928
413 10 3234
414 10 824
415 10 2415
416 10 2075
417 10 1680
418 10 2382
420 10 1990
421 10 4445
422 10 2259
424 10 60
426 10 5345
427 10 3171
428 10 46
429 10 3140
430 10 2184
431 10 1811
432 10 2452
433 10 1424
434 10 1918
435 10 1781
436 10 3084
437 10 821
438 10 2704
440 10 3274
441 10 6
443 10 3402
444 10 2577
445 10 342
446 10 2395
447 10 1809
448 10 2890
449 10 2481
450 10 3289
451 10 1340
452 10 243
453 10 785
454 10 2246
455 10 1710
456 10 2052
457 10 3037
458 10 3000
459 10 42
460 10 3063
462 10 1989
463 10 2488
464 10 1094
465 10 1789
466 10 2197
467 10 2381
468 10 750
469 10 2886
470 10 2281
471 10 2592
472 10 3624
473 10 3602
474 10 2513
475 10 2233
477 10 1583
478 10 2698
479 10 1656
480 10 2558
481 10 4004
482 10 3288
483 10 2307
484 10 2745
487 10 2639
488 10 1992
490 10 1912
492 10 1462
493 10 2113
494 10 1694
495 10 3663
496 10 2934
497 10 3218
498 10 3676
499 10 2860
500 10 5611
1 11 51
2 11 16
3 11 35
4 11 19080
5 11 7584
6 11 70
7 11 15
8 11 50
9 11 4
10 11 56
11 11 79
12 11 632
13 11 27
14 11 5
15 11 8213
16 11 13813
17 11 6267
18 11 12578
19 11 173
20 11 27
21 11 26
22 11 11736
23 11 7168
24 11 6
25 11 13
26 11 8729
27 11 48
28 11 57
29 11 8682
30 11 97
31 11 71
32 11 53
33 11 11718
34 11 3035
35 11 73
36 11 48
37 11 16942
38 11 47
39 11 26
40 11 27
41 11 24
42 11 66
43 11 13
44 11 130
45 11 38
46 11 17
47 11 58
48 11 50
49 11 9389
50 11 124
51 11 24
52 11 94
53 11 98
54 11 88
55 11 27
56 11 37
57 11 12
58 11 7693
59 11 94
60 11 68
62 11 1500
63 11 75
64 11 53
65 11 31
66 11 4247
67 11 6960
68 11 24055
69 11 565
70 11 67
71 11 4
72 11 32
73 11 49
74 11 36
75 11 12155
76 11 26
77 11 18
78 11 59
79 11 18
80 11 36
81 11 6
82 11 61
83 11 44
84 11 3990
85 11 20
86 11 3623
87 11 12
88 11 39
89 11 74
90 11 14597
91 11 5269
92 11 3
93 11 11230
94 11 6904
95 11 33
96 11 13
97 11 7509
98 11 43
99 11 144
100 11 231
101 11 35
102 11 1054
103 11 15866
104 11 38
105 11 12695
106 11 67
107 11 64
108 11 93
109 11 29
110 11 7240
111 11 15
112 11 46
113 11 48
114 11 20
115 11 5088
116 11 81
117 11 15525
118 11 5
119 11 49
120 11 55
121 11 20
122 11 56
123 11 54
124 11 26
125 11 23
126 11 28
127 11 22
128 11 72
129 11 29
130 11 28
131 11 18
132 11 58
133 11 75
134 11 68
135 11 2534
136 11 87
137 11 9
138 11 48
139 11 71
140 11 14
141 11 54
142 11 85
143 11 50
144 11 7830
145 11 59
146 11 7668
147 11 9473
148 11 66
149 11 60
150 11 58
151 11 105
152 11 64
153 11 14
154 11 25
155 11 55
156 11 67
157 11 80
158 11 160
159 11 50
160 11 68
161 11 68
162 11 46
163 11 11
164 11 26
165 11 58
166 11 10
167 11 62
168 11 61
169 11 112
170 11 21
171 11 129
172 11 108
173 11 8152
174 11 9172
175 11 45
176 11 2469
177 11 90
178 11 23
179 11 76
180 11 8766
181 11 24
182 11 51
183 11 51
184 11 14
185 11 57
186 11 29
187 11 28
188 11 13780
189 11 96
190 11 7
191 11 2259
192 11 26
193 11 79
194 11 37
195 11 7964
196 11 30
197 11 11524
198 11 14292
199 11 180
200 11 34
201 11 11718
202 11 27
203 11 11677
204 11 68
205 11 59
206 11 6
207 11 88
209 11 117
210 11 2253
211 11 58
212 11 39
213 11 11
214 11 82
215 11 48
216 11 8071
217 11 20
218 11 23
219 11 37
220 11 17
221 11 27
222 11 34
223 11 59
224 11 7493
225 11 35
226 11 45
227 11 61
228 11 85
229 11 11813
230 11 202
231 11 35
232 11 55
233 11 56
234 11 37
235 11 25
236 11 24
237 11 3
238 11 9
239 11 9
240 11 86
241 11 3069
242 11 48
243 11 19
244 11 30
245 11 20
246 11 118
247 11 48
248 11 129
249 11 56
250 11 88
251 11 65
252 11 19
253 11 47
254 11 34
255 11 48
256 11 6754
257 11 10356
258 11 63
259 11 8250
260 11 99
261 11 18494
262 11 44
263 11 98
264 11 1312
265 11 52
266 11 17
267 11 43
268 11 4651
269 11 49
270 11 20
271 11 29
272 11 14
273 11 7
274 11 60
275 11 17
276 11 121
277 11 16
278 11 74
279 11 34
280 11 26
281 11 59
282 11 85
283 11 45
284 11 4
285 11 43
286 11 8
287 11 176
288 11 82
289 11 66
290 11 50
291 11 10
292 11 40
293 11 11
294 11 46
295 11 46
296 11 45
297 11 14
298 11 28
299 11 14
300 11 5244
301 11 1187
302 11 17
303 11 4
304 11 49
305 11 10435
306 11 13026
307 11 56
308 11 82
309 11 73
310 11 53
311 11 91
312 11 30
313 11 29
314 11 129
315 11 41
316 11 15195
317 11 15195
318 11 14872
319 11 33
320 11 42
321 11 28
322 11 42
323 11 38
324 11 8758
325 11 175
326 11 40
327 11 8853
328 11 7
329 11 51
330 11 14
331 11 36
332 11 15
333 11 49
334 11 547
335 11 82
336 11 8863
337 11 76
338 11 57
339 11 14479
340 11 29
341 11 44
342 11 11
343 11 35
344 11 18
345 11 15
346 11 8036
347 11 12741
348 11 55
349 11 15966
350 11 83
351 11 11211
352 11 84
353 11 67
354 11 12
355 11 29
356 11 9
357 11 59
358 11 46
359 11 37
360 11 30
361 11 17
362 11 90
363 11 6825
364 11 48
365 11 32
366 11 54
367 11 3711
368 11 73
369 11 6833
370 11 50
371 11 7304
372 11 36
373 11 92
374 11 13638
375 11 77
376 11 13
377 11 6421
378 11 108
379 11 17
380 11 7579
381 11 11
382 11 27
383 11 71
384 11 3196
385 11 80
386 11 33
387 11 25
388 11 7489
389 11 47
390 11 62
391 11 102
392 11 3879
393 11 38
394 11 46
395 11 23
396 11 53
397 11 44
398 11 13677
399 11 17
400 11 65
401 11 98
402 11 130
403 11 69
404 11 54
405 11 84
406 11 65
407 11 72
408 11 84
409 11 6665
410 11 4313
411 11 9983
412 11 79
413 11 25
414 11 163
415 11 19
416 11 74
417 11 311
418 11 72
419 11 12314
420 11 22
421 11 187
422 11 14
423 11 9137
424 11 6975
425 11 8315
426 11 108
427 11 46
428 11 7099
429 11 73
430 11 83
431 11 33
432 11 14
433 11 105
434 11 48
435 11 31
436 11 33
437 11 35
438 11 27
439 11 4592
440 11 44
441 11 13640
442 11 6354
443 11 52
444 11 22
445 11 4565
446 11 101
447 11 21
448 11 51
449 11 73
450 11 59
451 11 93
452 11 4721
453 11 37
454 11 47
455 11 62
456 11 25
457 11 51
458 11 50
459 11 7147
460 11 17
461 11 7828
462 11 72
463 11 47
464 11 91
465 11 30
466 11 20
467 11 56
468 11 2158
469 11 46
470 11 52
471 11 49
472 11 40
473 11 55
474 11 3
475 11 34
476 11 6143
477 11 16
478 11 37
479 11 26
480 11 31
481 11 68
482 11 64
483 11 53
484 11 35
485 11 17225
486 11 16994
487 11 34
488 11 78
489 11 7000
490 11 141
491 11 6798
492 11 38
493 11 89
494 11 153
495 11 3
496 11 59
497 11 64
498 11 78
499 11 101
500 11 26
1 12 562
2 12 99
3 12 1894
5 12 3
6 12 1804
7 12 481
8 12 1333
9 12 1249
10 12 658
11 12 47
12 12 7
13 12 200
14 12 1315
15 12 2
17 12 1
19 12 1170
20 12 1955
21 12 1546
24 12 1936
25 12 1140
27 12 1036
28 12 797
30 12 1346
31 12 1880
32 12 265
34 12 15
35 12 828
36 12 566
38 12 2052
39 12 2408
40 12 187
41 12 1468
42 12 2344
43 12 473
44 12 9
45 12 1210
46 12 332
47 12 1394
48 12 979
49 12 1
50 12 663
51 12 2046
52 12 43
53 12 1759
54 12 1650
55 12 1700
56 12 263
57 12 326
58 12 4
59 12 391
60 12 1256
61 12 732
62 12 5
63 12 743
64 12 1933
65 12 938
67 12 2
68 12 1
69 12 26
70 12 369
71 12 1045
72 12 1391
73 12 1137
74 12 1447
76 12 1665
77 12 2128
78 12 682
79 12 884
80 12 1084
81 12 1674
82 12 1619
83 12 1573
85 12 643
86 12 16
87 12 1404
88 12 789
89 12 1636
92 12 1310
94 12 5
95 12 31
96 12 1044
97 12 3
98 12 1116
99 12 427
100 12 10
101 12 930
102 12 4
103 12 7
104 12 984
106 12 1135
107 12 2692
108 12 1357
109 12 802
110 12 4
111 12 1115
112 12 1171
113 12 759
114 12 1157
115 12 4
116 12 895
118 12 1887
119 12 1151
120 12 788
121 12 826
122 12 1265
123 12 1077
124 12 426
125 12 1659
126 12 1805
127 12 1531
128 12 2186
129 12 666
130 12 2902
131 12 985
132 12 1686
133 12 1109
134 12 456
136 12 748
137 12 1084
138 12 2538
139 12 29
140 12 1610
141 12 440
142 12 620
143 12 165
145 12 1304
148 12 525
149 12 541
150 12 1252
151 12 126
152 12 1672
153 12 1449
154 12 968
155 12 858
156 12 1493
157 12 577
158 12 32
159 12 1991
160 12 379
161 12 1814
162 12 1344
163 12 1995
164 12 565
165 12 1332
166 12 2328
167 12 1080
168 12 448
169 12 681
170 12 807
171 12 7
172 12 1322
175 12 1131
176 12 2
177 12 582
178 12 125
179 12 787
181 12 1050
182 12 567
183 12 34
184 12 1164
185 12 218
186 12 368
187 12 877
188 12 2
189 12 692
190 12 1237
191 12 16
192 12 1307
193 12 639
194 12 478
196 12 1466
197 12 2
198 12 2
199 12 2006
200 12 1878
202 12 1307
203 12 1
204 12 829
205 12 811
206 12 410
207 12 876
208 12 2221
209 12 1079
210 12 6
211 12 1312
212 12 466
213 12 1214
214 12 2232
215 12 407
217 12 1037
218 12 583
219 12 1287
220 12 1317
221 12 1981
222 12 916
223 12 988
224 12 9
225 12 473
226 12 1418
227 12 2341
228 12 1567
230 12 203
231 12 1189
232 12 7
233 12 1420
234 12 1526
235 12 1778
236 12 435
237 12 534
238 12 1024
239 12 843
240 12 674
241 12 14
242 12 427
243 12 1234
244 12 1060
245 12 2884
246 12 2452
247 12 1630
248 12 205
249 12 1879
250 12 723
251 12 2411
252 12 1529
253 12 409
254 12 1935
255 12 1216
256 12 2
258 12 1876
260 12 815
261 12 3
262 12 826
263 12 287
264 12 15
265 12 1844
266 12 801
267 12 2695
269 12 814
270 12 453
271 12 442
272 12 253
273 12 1361
274 12 501
275 12 1237
276 12 228
277 12 2510
278 12 2267
279 12 1675
280 12 1635
281 12 465
282 12 985
283 12 548
284 12 697
285 12 1638
286 12 1250
287 12 151
288 12 1215
289 12 1245
290 12 2281
291 12 366
292 12 7
293 12 1024
294 12 2379
295 12 1914
296 12 807
297 12 1455
298 12 640
299 12 1774
302 12 647
303 12 751
304 12 1304
305 12 15
307 12 1047
308 12 1400
309 12 730
310 12 374
311 12 826
312 12 1475
313 12 653
314 12 620
315 12 814
318 12 1
319 12 1027
320 12 2249
321 12 533
322 12 68
323 12 1732
325 12 155
326 12 950
328 12 1192
329 12 465
330 12 1969
331 12 1479
332 12 1580
333 12 285
334 12 11
335 12 354
337 12 87
338 12 858
340 12 1448
341 12 1056
342 12 1550
343 12 963
344 12 2323
345 12 2030
346 12 2
348 12 1248
349 12 8
350 12 30
352 12 3151
353 12 1495
354 12 315
355 12 1403
356 12 936
357 12 1342
358 12 1061
359 12 336
360 12 1053
361 12 421
362 12 539
363 12 1
364 12 1789
365 12 1899
366 12 1789
368 12 805
370 12 831
371 12 1
372 12 1117
373 12 12
375 12 559
376 12 1193
377 12 3
378 12 286
379 12 1560
381 12 1456
382 12 1514
383 12 1770
384 12 4
385 12 449
386 12 1711
387 12 1060
389 12 1292
390 12 739
391 12 1276
393 12 1475
394 12 2306
395 12 1805
396 12 835
397 12 16
399 12 2875
400 12 1304
401 12 2141
402 12 67
403 12 201
404 12 437
405 12 668
406 12 1432
407 12 1965
408 12 2463
411 12 3
412 12 1153
413 12 2809
414 12 399
415 12 1335
416 12 78
417 12 6
418 12 2328
420 12 1248
421 12 702
422 12 1545
423 12 3
424 12 1
425 12 2
426 12 2107
427 12 1707
428 12 2
429 12 487
430 12 914
431 12 1726
432 12 882
433 12 63
434 12 1815
435 12 441
436 12 213
437 12 1338
438 12 1959
439 12 3
440 12 1289
443 12 2370
444 12 621
445 12 2
446 12 740
447 12 431
448 12 336
449 12 447
450 12 1224
451 12 173
452 12 15
453 12 1232
454 12 163
455 12 873
456 12 1133
457 12 2178
458 12 1201
460 12 2079
462 12 2319
463 12 1106
464 12 1417
465 12 882
466 12 1084
467 12 2822
468 12 7
469 12 1430
470 12 408
471 12 2035
472 12 1496
473 12 866
474 12 730
475 12 642
476 12 3
477 12 242
478 12 1878
479 12 186
480 12 933
481 12 1466
482 12 1063
483 12 1229
484 12 1356
485 12 3
486 12 6
487 12 1394
488 12 2272
489 12 1
490 12 73
492 12 2345
493 12 559
494 12 763
495 12 1477
496 12 1715
497 12 1054
498 12 824
499 12 26
500 12 1708
1 13 6616
2 13 14
3 13 6566
6 13 6225
7 13 12468
8 13 2007
9 13 6217
10 13 5054
11 13 18
13 13 2623
14 13 3731
15 13 3
19 13 4902
20 13 4377
21 13 4164
24 13 9430
25 13 651
27 13 5372
28 13 9672
30 13 5870
31 13 6099
32 13 6406
35 13 7475
36 13 6552
37 13 6
38 13 4401
39 13 6657
40 13 3050
41 13 13183
42 13 7571
43 13 4216
45 13 4787
46 13 153
47 13 4436
48 13 3137
50 13 5021
51 13 13490
52 13 10
53 13 8692
54 13 5918
55 13 6859
56 13 4538
57 13 2780
58 13 1
59 13 7575
60 13 11088
61 13 6751
63 13 4459
64 13 7047
65 13 4960
70 13 4911
71 13 7353
72 13 7756
73 13 5849
74 13 7528
76 13 7896
77 13 13592
78 13 5760
79 13 4002
80 13 4126
81 13 10689
82 13 8207
83 13 11494
84 13 7
85 13 3391
87 13 7607
88 13 9207
89 13 8003
92 13 7246
96 13 2279
98 13 3772
99 13 6050
101 13 6676
104 13 5247
106 13 11084
107 13 8937
108 13 8269
109 13 4984
111 13 685
112 13 9921
113 13 1854
114 13 7684
115 13 9
116 13 4608
118 13 9951
119 13 5244
120 13 2150
121 13 5910
122 13 6501
123 13 3437
124 13 1886
125 13 5395
126 13 8810
127 13 7550
128 13 6922
129 13 4847
130 13 10629
131 13 6643
132 13 7856
133 13 6372
134 13 4758
136 13 5741
137 13 680
138 13 8698
139 13 16
140 13 12464
141 13 5083
142 13 6079
143 13 12
145 13 6964
146 13 5
148 13 6022
149 13 9958
150 13 6477
151 13 11
152 13 6287
153 13 7659
154 13 6736
155 13 4185
156 13 6203
157 13 11439
158 13 5
159 13 6248
160 13 5340
161 13 5098
162 13 6396
163 13 6479
164 13 6260
165 13 5007
166 13 9211
167 13 8292
168 13 3902
169 13 6188
170 13 12609
172 13 8078
175 13 3636
177 13 11396
178 13 385
179 13 4700
181 13 5509
182 13 7221
184 13 9437
185 13 5615
186 13 3744
187 13 4923
189 13 8118
190 13 4176
192 13 5121
193 13 3501
194 13 4812
196 13 7694
199 13 6306
200 13 6740
202 13 4783
204 13 7572
205 13 5302
206 13 4902
207 13 4479
208 13 5679
209 13 4783
211 13 6206
212 13 4730
213 13 8521
214 13 5005
215 13 5026
217 13 4811
218 13 7072
219 13 4550
220 13 8472
221 13 5421
222 13 8015
223 13 815
225 13 8897
226 13 6689
227 13 7777
228 13 5735
230 13 82
231 13 7406
233 13 5687
234 13 3637
235 13 6174
236 13 9627
237 13 1288
238 13 6744
239 13 6131
240 13 8114
242 13 603
243 13 4317
244 13 5896
245 13 8285
246 13 7858
247 13 6570
248 13 3507
249 13 6499
250 13 4685
251 13 7523
252 13 10975
253 13 5234
254 13 6445
255 13 4686
258 13 5334
260 13 5431
262 13 1580
263 13 8006
264 13 17
265 13 5958
266 13 4384
267 13 8548
269 13 4195
270 13 12808
271 13 3827
272 13 60
273 13 9234
274 13 3885
275 13 6774
276 13 938
277 13 7737
278 13 10241
279 13 6476
280 13 4483
281 13 8192
282 13 9486
283 13 4735
284 13 5389
285 13 6647
286 13 6205
287 13 5421
288 13 3958
289 13 2036
290 13 6901
291 13 4963
293 13 14557
294 13 4693
295 13 5344
296 13 10198
297 13 10646
298 13 9415
299 13 5259
302 13 9205
303 13 5373
304 13 6966
307 13 8415
308 13 8496
309 13 2365
310 13 1331
311 13 4502
312 13 7310
313 13 9533
314 13 5072
315 13 4946
319 13 4593
320 13 7096
321 13 3177
322 13 7
323 13 5724
324 13 6
325 13 3422
326 13 2876
328 13 4227
329 13 5111
330 13 7758
331 13 229
332 13 9299
333 13 1775
335 13 2378
336 13 2
337 13 14914
338 13 2019
339 13 4
340 13 4008
341 13 7681
342 13 9097
343 13 314
344 13 4379
345 13 4722
348 13 7163
350 13 6
352 13 9270
353 13 10537
354 13 2823
355 13 7732
356 13 5909
357 13 8038
358 13 3722
359 13 5347
360 13 5717
361 13 6273
362 13 4575
364 13 7736
365 13 6492
366 13 5409
368 13 985
370 13 10204
371 13 2
372 13 6525
373 13 27
375 13 9930
376 13 9205
378 13 7720
379 13 7437
380 13 4
381 13 10688
382 13 6269
383 13 5674
385 13 3071
386 13 6460
387 13 4513
389 13 6797
390 13 1889
391 13 5354
393 13 8852
394 13 9969
395 13 10333
396 13 7462
397 13 11
399 13 8279
400 13 5526
401 13 7515
402 13 73
403 13 7989
404 13 4395
405 13 8183
406 13 5285
407 13 8062
408 13 6380
409 13 3
412 13 5034
413 13 10612
414 13 6101
415 13 5900
416 13 674
417 13 8
418 13 4883
420 13 6649
421 13 8419
422 13 8193
426 13 7616
427 13 5727
429 13 5841
430 13 11079
431 13 7034
432 13 3340
433 13 18
434 13 7713
435 13 524
436 13 2580
437 13 5785
438 13 6486
440 13 5582
441 13 2
443 13 6349
444 13 3258
446 13 7015
447 13 6011
448 13 81
449 13 1523
450 13 5779
451 13 6055
452 13 4
453 13 5610
454 13 7
455 13 3054
456 13 5122
457 13 5070
458 13 4928
460 13 8206
462 13 6991
463 13 18053
464 13 6097
465 13 940
466 13 5345
467 13 8807
469 13 3905
470 13 5190
471 13 8814
472 13 5978
473 13 4567
474 13 5238
475 13 6869
476 13 4
477 13 677
478 13 6452
479 13 40
480 13 5820
481 13 10650
482 13 6932
483 13 7656
484 13 7918
487 13 7794
488 13 6951
490 13 4
492 13 9903
493 13 30
494 13 2592
495 13 7759
496 13 6733
497 13 5294
498 13 10200
500 13 6621
1 14 8
3 14 2073
6 14 1604
7 14 2205
8 14 63
9 14 98
13 14 143
14 14 52
20 14 1223
21 14 2323
27 14 2327
28 14 2021
30 14 2661
31 14 3373
32 14 2166
36 14 5
38 14 3276
40 14 23
43 14 834
45 14 104
47 14 235
48 14 6
50 14 1491
51 14 1858
55 14 2856
56 14 1308
57 14 35
59 14 2031
60 14 3556
61 14 427
65 14 43
70 14 56
72 14 1
74 14 6
76 14 1722
77 14 1883
78 14 2414
79 14 46
80 14 1634
81 14 3361
82 14 2274
83 14 1725
85 14 101
87 14 2557
89 14 2253
92 14 8
98 14 74
99 14 1803
101 14 101
104 14 5
106 14 3648
108 14 2968
109 14 9
112 14 1865
113 14 5
114 14 1373
116 14 2748
118 14 4
120 14 40
121 14 104
123 14 1726
124 14 12
125 14 2
127 14 4
128 14 3999
129 14 40
131 14 3266
132 14 963
133 14 2157
141 14 1640
142 14 2626
148 14 2328
152 14 934
153 14 2494
154 14 3186
155 14 1939
156 14 2715
161 14 2792
162 14 2171
164 14 2581
165 14 2539
166 14 1985
167 14 2025
168 14 1101
169 14 4
175 14 88
179 14 5
181 14 3551
185 14 173
186 14 2671
190 14 74
193 14 60
194 14 118
196 14 4
200 14 9
206 14 982
207 14 2658
209 14 2220
211 14 2581
213 14 1818
214 14 2427
218 14 3342
220 14 2742
221 14 2333
222 14 1983
225 14 1800
226 14 4870
227 14 2678
228 14 27
231 14 4
234 14 54
235 14 4012
237 14 4
238 14 6
239 14 3377
244 14 154
246 14 2649
248 14 88
249 14 2717
251 14 2788
254 14 2451
255 14 88
262 14 2
263 14 2702
265 14 2694
266 14 4320
269 14 1955
270 14 2185
271 14 1713
273 14 162
274 14 2576
277 14 2129
280 14 1500
283 14 434
284 14 1309
286 14 108
287 14 2968
288 14 349
289 14 5
291 14 1067
293 14 1338
295 14 1921
296 14 818
297 14 3
298 14 3608
302 14 3593
303 14 1268
304 14 2257
307 14 1999
308 14 2926
311 14 2674
312 14 2578
313 14 3566
314 14 1502
315 14 1840
319 14 3270
320 14 3178
321 14 1559
323 14 3305
325 14 120
326 14 1671
328 14 64
329 14 1723
330 14 3103
332 14 1800
333 14 39
335 14 7
338 14 38
341 14 2134
344 14 471
345 14 2196
348 14 2327
353 14 5
354 14 45
355 14 4
356 14 2632
358 14 2598
359 14 880
360 14 1850
361 14 3444
362 14 6
364 14 3041
365 14 2329
370 14 810
378 14 6
379 14 1888
381 14 6
382 14 2475
385 14 2496
387 14 4
390 14 6
391 14 7
393 14 2878
395 14 1760
396 14 752
401 14 2834
403 14 2
404 14 3319
408 14 3
412 14 1641
414 14 1761
415 14 1314
418 14 2489
420 14 2390
422 14 3243
426 14 2680
427 14 3393
429 14 201
431 14 2926
432 14 1925
434 14 2971
436 14 151
437 14 823
438 14 2467
444 14 93
447 14 3460
449 14 5
451 14 139
453 14 819
455 14 1667
456 14 10
457 14 28
458 14 98
460 14 10
462 14 3951
463 14 25
464 14 2271
465 14 7
471 14 2635
474 14 1302
475 14 98
477 14 7
478 14 2388
480 14 75
481 14 9
482 14 2149
483 14 2392
484 14 2936
487 14 2785
488 14 4038
492 14 1782
494 14 132
495 14 5
496 14 1935
1 15 2531
3 15 5
7 15 8
8 15 59
9 15 261
10 15 1750
13 15 63
14 15 67
19 15 2444
24 15 2375
30 15 3
31 15 1
35 15 2859
36 15 2595
39 15 6618
41 15 3040
42 15 3782
43 15 50
45 15 328
47 15 171
48 15 10
50 15 5
53 15 2884
54 15 3633
57 15 36
59 15 4
63 15 2760
64 15 4166
65 15 125
70 15 192
71 15 3683
72 15 2234
73 15 3546
74 15 2189
78 15 2
79 15 323
80 15 9
83 15 5
85 15 796
88 15 3839
89 15 5
92 15 2066
96 15 10
98 15 102
99 15 2
101 15 308
104 15 2158
107 15 2223
109 15 1809
116 15 4
118 15 4470
119 15 2792
120 15 561
121 15 417
122 15 2160
125 15 4003
126 15 2239
127 15 2213
129 15 85
130 15 4878
132 15 64
134 15 4135
136 15 3128
138 15 4363
140 15 3141
141 15 6
145 15 3544
149 15 2708
150 15 2098
152 15 38
157 15 4697
159 15 3817
160 15 1488
163 15 5476
164 15 10
168 15 19
169 15 2911
170 15 3895
172 15 4443
175 15 78
177 15 4598
179 15 2526
182 15 2837
184 15 2909
185 15 85
187 15 4795
189 15 5190
190 15 45
192 15 3398
193 15 1401
194 15 71
196 15 2188
199 15 3781
200 15 3156
202 15 2634
204 15 2825
205 15 4124
207 15 6
208 15 4066
212 15 4370
213 15 4
215 15 1950
217 15 4308
218 15 3
219 15 2606
223 15 1
228 15 3173
231 15 3006
233 15 4652
234 15 17
236 15 2690
238 15 2820
240 15 5208
242 15 3
243 15 2906
244 15 92
245 15 3062
247 15 3000
248 15 78
249 15 8
250 15 2692
252 15 5242
253 15 2060
255 15 363
258 15 4655
260 15 5577
262 15 10
265 15 6
266 15 10
267 15 2325
270 15 5
273 15 97
274 15 3
275 15 2237
278 15 4303
279 15 3023
280 15 15
281 15 5121
282 15 2019
283 15 23
285 15 3030
286 15 277
288 15 101
289 15 59
290 15 3509
294 15 4451
295 15 1
296 15 70
297 15 3672
299 15 3464
309 15 7
311 15 4
314 15 11
320 15 7
321 15 6
323 15 2
325 15 137
328 15 33
329 15 4
333 15 6
335 15 3
337 15 4921
338 15 566
340 15 3141
342 15 4247
344 15 63
345 15 4
352 15 3511
353 15 2530
354 15 28
355 15 2185
357 15 4096
359 15 48
362 15 4115
366 15 4779
370 15 67
372 15 3369
375 15 2729
376 15 3555
378 15 3500
381 15 3624
383 15 1826
386 15 3289
387 15 3557
389 15 3752
391 15 1303
394 15 4593
399 15 3086
400 15 2918
403 15 4676
405 15 5247
406 15 4318
407 15 4427
408 15 4210
413 15 4896
414 15 3
421 15 2425
422 15 11
427 15 4
429 15 767
430 15 3709
436 15 44
437 15 31
440 15 2985
443 15 3219
444 15 796
446 15 5051
449 15 1
450 15 2938
451 15 123
453 15 48
456 15 1685
457 15 223
458 15 317
460 15 2695
463 15 1249
466 15 3437
467 15 2321
469 15 3204
470 15 2174
472 15 4746
473 15 3058
475 15 475
480 15 194
481 15 2587
494 15 25
495 15 615
497 15 2904
498 15 4334
500 15 2953
1 16 6461
2 16 3427
4 16 2627
5 16 3541
8 16 313
9 16 8
10 16 6867
11 16 3376
12 16 2688
13 16 1649
14 16 463
15 16 2212
16 16 3724
17 16 3307
18 16 1931
19 16 5954
22 16 2483
23 16 1336
24 16 5480
25 16 4163
26 16 2870
29 16 3626
33 16 2053
34 16 3897
35 16 3896
36 16 6365
37 16 2948
39 16 6328
40 16 5526
41 16 3853
42 16 6722
43 16 16
44 16 3946
45 16 4903
46 16 3026
47 16 190
48 16 3020
49 16 2715
52 16 3731
53 16 5563
54 16 5580
57 16 2436
58 16 1303
62 16 3541
63 16 4674
64 16 6288
65 16 163
66 16 6603
67 16 2133
68 16 3466
69 16 2646
70 16 573
71 16 4828
72 16 3322
73 16 5287
74 16 3367
75 16 7415
79 16 2104
84 16 3224
85 16 752
86 16 2857
88 16 4240
90 16 4959
91 16 2650
92 16 5100
93 16 1955
94 16 2459
95 16 3611
96 16 5015
97 16 2230
98 16 4206
100 16 3844
101 16 1847
102 16 4088
103 16 3979
104 16 5021
105 16 5035
107 16 7234
109 16 2770
110 16 4344
111 16 4048
113 16 3188
115 16 1960
117 16 1905
118 16 7465
119 16 4315
120 16 446
121 16 1247
122 16 6077
124 16 2585
125 16 3433
126 16 2619
127 16 3301
129 16 1638
130 16 4266
132 16 35
134 16 6771
135 16 4385
136 16 6291
137 16 4247
138 16 5071
139 16 3143
140 16 5723
143 16 4362
144 16 1842
145 16 6391
146 16 1462
147 16 2799
149 16 6914
150 16 6080
151 16 3978
152 16 35
157 16 5028
158 16 6459
159 16 5392
160 16 5411
163 16 6798
164 16 9
169 16 4312
170 16 5673
171 16 2452
172 16 6709
173 16 3883
174 16 3098
175 16 4365
176 16 1523
177 16 5095
178 16 3617
179 16 3200
180 16 3602
182 16 5565
183 16 3449
184 16 4375
185 16 62
187 16 6332
188 16 1761
189 16 6359
190 16 3896
191 16 2738
192 16 4279
193 16 1353
194 16 2588
195 16 2882
196 16 3390
197 16 2453
198 16 5316
199 16 4889
200 16 6415
201 16 2244
202 16 3937
203 16 2206
204 16 3806
205 16 6013
208 16 3497
210 16 2681
212 16 6264
215 16 2574
216 16 2933
217 16 4808
219 16 3830
220 16 3
223 16 3478
224 16 2267
228 16 4618
229 16 4115
230 16 4197
231 16 4714
232 16 3507
233 16 6948
234 16 5129
236 16 4514
237 16 2691
238 16 5776
240 16 4350
241 16 3719
242 16 3536
243 16 5537
244 16 1023
245 16 5882
247 16 6296
248 16 1779
250 16 4282
252 16 2678
253 16 2528
255 16 4820
256 16 2380
257 16 3765
258 16 3761
259 16 3938
260 16 7201
261 16 3562
262 16 3869
264 16 4759
267 16 4556
268 16 2725
272 16 4853
273 16 901
275 16 3267
276 16 3849
278 16 3121
279 16 6335
281 16 6959
282 16 2863
283 16 83
285 16 6482
286 16 3
288 16 74
289 16 3449
290 16 6790
292 16 3505
294 16 4360
295 16 3
297 16 7566
299 16 4090
300 16 1770
301 16 8477
305 16 2182
306 16 2047
309 16 4270
310 16 3341
316 16 3041
317 16 1891
318 16 1892
319 16 6
322 16 3598
323 16 8
324 16 4831
325 16 2014
327 16 3751
328 16 3814
331 16 2606
333 16 5073
334 16 4188
335 16 5612
336 16 4758
337 16 6528
338 16 484
339 16 2781
340 16 6325
342 16 4990
343 16 5189
344 16 129
346 16 3985
347 16 5055
349 16 3947
350 16 2314
351 16 2589
352 16 5732
353 16 8188
354 16 2422
355 16 3375
356 16 7
357 16 6434
358 16 5
359 16 14
361 16 5
362 16 5629
363 16 3314
366 16 3812
367 16 3506
368 16 2398
369 16 3189
371 16 1420
372 16 2710
373 16 3102
374 16 2394
375 16 6847
376 16 3791
377 16 4822
378 16 3678
380 16 1385
381 16 7565
383 16 5764
384 16 1942
386 16 3708
387 16 6389
388 16 8827
389 16 6295
390 16 3254
391 16 1653
392 16 1212
394 16 5495
397 16 3192
398 16 2347
399 16 5967
400 16 3832
402 16 2793
403 16 5050
405 16 4486
406 16 3539
407 16 4949
408 16 3768
409 16 3910
410 16 2128
411 16 3776
413 16 4182
416 16 3156
417 16 5201
419 16 2465
421 16 7293
422 16 3
423 16 2939
424 16 3141
425 16 4003
427 16 5
428 16 2635
429 16 106
430 16 4384
433 16 2603
435 16 1874
436 16 1631
437 16 10
439 16 1859
440 16 3592
441 16 3994
442 16 5521
443 16 4026
444 16 716
445 16 3801
446 16 3672
447 16 5
448 16 4089
449 16 3565
450 16 3733
451 16 1272
452 16 2457
453 16 7
454 16 4485
455 16 2
456 16 1272
457 16 1376
458 16 4837
459 16 3931
460 16 6409
461 16 4430
463 16 1338
465 16 4023
466 16 4136
467 16 4400
468 16 2651
469 16 4383
470 16 2529
472 16 7055
473 16 3078
475 16 149
476 16 5359
477 16 5793
479 16 3970
480 16 2787
481 16 8185
485 16 2402
486 16 3621
489 16 2242
490 16 2840
491 16 2196
493 16 5045
494 16 1588
495 16 656
497 16 4695
498 16 6305
499 16 4384
500 16 3411
2 17 6203
3 17 7928
4 17 6041
5 17 11362
6 17 7713
7 17 4159
8 17 2156
9 17 180
11 17 6519
12 17 7249
13 17 1127
14 17 8291
15 17 3101
16 17 9967
17 17 11774
18 17 7516
20 17 5200
21 17 15495
22 17 15751
23 17 4318
24 17 2
25 17 8659
26 17 4138
27 17 12451
28 17 5548
29 17 4210
30 17 9780
31 17 12871
32 17 9838
33 17 5048
34 17 7909
37 17 9902
38 17 8462
40 17 9395
43 17 1051
44 17 9284
45 17 6931
46 17 7273
47 17 512
48 17 13746
49 17 5420
50 17 6955
51 17 11005
52 17 9470
55 17 12181
56 17 8247
57 17 4674
58 17 6749
59 17 10738
60 17 7647
61 17 7395
62 17 9829
65 17 133
66 17 18153
67 17 4526
68 17 2627
69 17 7190
70 17 860
75 17 2545
76 17 5070
77 17 11231
78 17 8334
79 17 2234
80 17 7134
81 17 10071
82 17 9062
83 17 5805
84 17 7309
85 17 5043
86 17 8863
87 17 10688
89 17 9198
90 17 6907
91 17 8971
92 17 5
93 17 7276
94 17 9730
95 17 5445
96 17 6093
97 17 3554
98 17 6685
99 17 8044
100 17 5823
101 17 2513
102 17 8684
103 17 8743
105 17 22136
106 17 7655
108 17 9685
109 17 15
110 17 10646
111 17 8418
112 17 6783
113 17 7760
114 17 7810
115 17 4242
116 17 7742
117 17 7762
120 17 2490
121 17 961
123 17 9923
124 17 6740
128 17 9844
129 17 176
131 17 7645
132 17 1670
133 17 10991
135 17 10309
137 17 8473
139 17 9006
141 17 6442
142 17 8935
143 17 4663
144 17 3142
146 17 6375
147 17 8608
148 17 5792
151 17 9947
152 17 2146
153 17 10821
154 17 7644
155 17 5880
156 17 7102
158 17 4902
161 17 6315
162 17 9384
164 17 4637
165 17 4042
166 17 6306
167 17 4609
168 17 3697
171 17 12896
172 17 1
173 17 5283
174 17 4040
175 17 6664
176 17 6942
178 17 5160
179 17 9
180 17 4222
181 17 7938
183 17 8326
185 17 2849
186 17 10321
188 17 11132
190 17 5756
191 17 5685
193 17 33
194 17 3133
195 17 15372
197 17 10861
198 17 7685
201 17 10432
202 17 3
203 17 3273
206 17 5252
207 17 7988
209 17 8316
210 17 5592
211 17 13424
213 17 14927
214 17 5642
216 17 15462
218 17 9827
219 17 2
220 17 10399
221 17 11185
222 17 8590
223 17 12763
224 17 3543
225 17 9622
226 17 9736
227 17 8114
228 17 4
229 17 10075
230 17 6708
232 17 11374
234 17 8739
235 17 8974
237 17 5445
239 17 9652
241 17 7870
242 17 7582
244 17 1978
246 17 8186
248 17 12775
249 17 5495
251 17 8088
254 17 9429
255 17 7131
256 17 9993
257 17 2061
259 17 5117
261 17 4350
262 17 7859
263 17 5858
264 17 9775
265 17 5269
266 17 6544
268 17 5600
269 17 5904
270 17 4314
271 17 6030
272 17 3642
273 17 5060
274 17 5653
276 17 9369
277 17 9314
280 17 5202
283 17 1521
284 17 7402
286 17 181
287 17 5901
288 17 4506
289 17 3256
291 17 5344
292 17 11382
293 17 10227
295 17 5093
296 17 1691
298 17 8011
300 17 12392
301 17 10208
302 17 8057
303 17 7441
304 17 11541
305 17 9338
306 17 7477
307 17 4754
308 17 9590
309 17 6205
310 17 6293
311 17 8125
312 17 8314
313 17 8324
314 17 7018
315 17 9894
316 17 7652
317 17 7775
318 17 5897
319 17 8803
320 17 11677
321 17 9988
322 17 6065
323 17 9142
324 17 4555
325 17 5388
326 17 10034
327 17 4298
328 17 5711
329 17 6496
330 17 8772
331 17 9268
332 17 12026
333 17 10026
334 17 10100
335 17 18860
336 17 4591
338 17 2473
339 17 6152
341 17 10676
343 17 6492
344 17 4820
345 17 5489
346 17 13405
347 17 22420
348 17 11510
349 17 8675
350 17 9769
351 17 4839
353 17 4
354 17 4705
356 17 9182
358 17 7105
359 17 3511
360 17 12595
361 17 7145
363 17 9885
364 17 6804
365 17 9491
367 17 10737
368 17 6404
369 17 6166
370 17 1641
371 17 6872
373 17 9495
374 17 7303
377 17 2935
379 17 6722
380 17 6373
382 17 9965
384 17 2793
385 17 11099
388 17 5744
390 17 7588
391 17 71
392 17 5326
393 17 7477
395 17 13646
396 17 3433
397 17 5091
398 17 7317
401 17 7037
402 17 5272
404 17 15660
409 17 10062
410 17 6248
411 17 3593
412 17 11435
414 17 7780
415 17 7761
416 17 5295
417 17 6561
418 17 5673
419 17 11638
420 17 6802
422 17 8691
423 17 3610
424 17 6350
425 17 13840
426 17 7058
427 17 9143
428 17 6823
429 17 85
431 17 12130
432 17 5575
433 17 12708
434 17 6636
435 17 14215
436 17 1096
437 17 2217
438 17 9500
439 17 7678
441 17 11315
442 17 8603
444 17 5091
445 17 6227
446 17 5
447 17 6997
448 17 6358
449 17 7144
451 17 7562
452 17 6190
453 17 2121
454 17 4719
455 17 4236
456 17 6
457 17 47
458 17 7093
459 17 13021
461 17 24325
462 17 10058
463 17 6
464 17 5219
465 17 4713
468 17 12492
471 17 7444
474 17 7488
475 17 10
476 17 9647
477 17 4911
478 17 9367
479 17 6012
480 17 101
481 17 8
482 17 8612
483 17 9306
484 17 7817
485 17 5702
486 17 3520
487 17 7892
488 17 9928
489 17 5758
490 17 6520
491 17 5101
492 17 8610
493 17 4659
494 17 6605
495 17 20
496 17 6691
499 17 7818
500 17 9
3 18 2238
6 18 4278
7 18 3332
8 18 4
13 18 12
14 18 21
20 18 2112
21 18 3840
27 18 3376
28 18 2980
30 18 3075
31 18 3592
32 18 2191
38 18 3859
43 18 64
50 18 3002
51 18 2195
55 18 3964
56 18 2239
59 18 2297
60 18 5523
61 18 1589
76 18 2559
77 18 2283
78 18 3186
80 18 1157
81 18 3876
82 18 2091
83 18 2224
85 18 9
87 18 3051
89 18 2039
99 18 826
106 18 5508
108 18 3207
112 18 2480
114 18 3756
116 18 1348
120 18 7
123 18 2027
128 18 3138
129 18 5
131 18 3033
132 18 26
133 18 2525
141 18 3092
142 18 2882
148 18 4548
152 18 27
153 18 3033
154 18 2958
155 18 4272
156 18 2639
161 18 3710
162 18 3846
164 18 423
165 18 4716
166 18 2376
167 18 1153
168 18 723
181 18 3330
185 18 39
186 18 2971
193 18 7
206 18 3025
207 18 3319
209 18 2596
211 18 2165
213 18 3428
214 18 3557
218 18 4448
220 18 2777
221 18 4459
222 18 2927
225 18 3703
226 18 3203
227 18 3110
235 18 3021
239 18 1740
244 18 18
246 18 1976
249 18 3943
251 18 3099
254 18 4434
263 18 3819
265 18 3268
266 18 3925
269 18 4300
270 18 3306
271 18 4036
274 18 2732
277 18 2139
280 18 626
283 18 18
284 18 2722
287 18 2572
288 18 9
291 18 2923
293 18 3309
295 18 406
296 18 106
298 18 3052
302 18 3028
303 18 2819
304 18 2367
307 18 1126
308 18 3147
311 18 3470
312 18 2521
313 18 2980
314 18 2929
315 18 2908
319 18 4266
320 18 4031
321 18 2299
323 18 3322
326 18 1704
329 18 3169
330 18 3044
332 18 5091
338 18 2
341 18 3638
345 18 4317
348 18 2345
356 18 2394
358 18 2422
359 18 16
360 18 4727
361 18 3295
364 18 3345
365 18 4357
370 18 77
379 18 1793
382 18 3710
385 18 2221
393 18 2994
395 18 4046
396 18 139
401 18 4407
404 18 3395
412 18 2509
414 18 761
415 18 3284
418 18 3584
420 18 1430
422 18 1798
426 18 4364
427 18 3294
431 18 4036
432 18 3389
434 18 3358
436 18 8
437 18 1
438 18 4447
444 18 8
447 18 3268
453 18 7
455 18 1340
462 18 3104
464 18 3339
471 18 2973
474 18 2814
478 18 4333
480 18 11
482 18 3904
483 18 4526
484 18 2998
487 18 3203
488 18 3073
492 18 1577
496 18 2974
1 19 7976
10 19 8808
13 19 25
19 19 5897
24 19 11285
35 19 8810
36 19 7959
39 19 9761
41 19 5875
42 19 13046
53 19 7106
54 19 7302
63 19 9496
64 19 11445
65 19 5
70 19 8
71 19 6527
72 19 10323
73 19 6066
74 19 9968
79 19 5
88 19 13767
92 19 2331
104 19 3128
107 19 12899
109 19 1485
118 19 9565
119 19 13865
122 19 6377
125 19 4438
126 19 8455
127 19 10064
130 19 9747
134 19 9492
136 19 8374
138 19 11642
140 19 9682
145 19 11300
149 19 14594
150 19 6210
152 19 2
157 19 13491
159 19 10109
160 19 14831
163 19 11768
169 19 6406
170 19 7931
172 19 11807
177 19 13594
179 19 1086
182 19 8276
184 19 11556
187 19 12902
189 19 9222
192 19 12648
196 19 10211
199 19 9827
200 19 7908
202 19 8298
204 19 8946
205 19 11627
208 19 7314
212 19 10802
215 19 5742
217 19 11093
219 19 8515
228 19 984
231 19 8878
233 19 31648
236 19 12175
238 19 9529
240 19 11111
243 19 8020
245 19 9523
247 19 9357
250 19 8133
252 19 11011
253 19 5855
258 19 9302
260 19 11933
267 19 10458
275 19 9083
278 19 21079
279 19 9505
281 19 8757
282 19 15420
285 19 9570
288 19 4
290 19 12123
294 19 8045
297 19 7862
299 19 8721
337 19 20999
340 19 6636
342 19 7868
352 19 8949
353 19 8105
355 19 10130
357 19 7062
362 19 9020
366 19 9308
372 19 26101
375 19 14420
376 19 10076
378 19 13895
381 19 7951
383 19 5617
386 19 10561
387 19 4627
389 19 11283
391 19 337
394 19 9382
399 19 9436
400 19 9293
403 19 16391
405 19 11574
406 19 8249
407 19 16687
408 19 7962
413 19 9964
421 19 6981
429 19 16
430 19 11565
436 19 22
440 19 9481
443 19 5267
446 19 10035
450 19 9306
456 19 143
457 19 15
460 19 10785
463 19 252
466 19 10297
467 19 10691
469 19 9408
470 19 5890
472 19 31911
473 19 4903
480 19 43
481 19 8196
497 19 9322
498 19 16444
500 19 5768
1 20 7455
3 20 9257
6 20 6780
7 20 8681
10 20 9477
19 20 2784
20 20 4449
21 20 4007
24 20 14798
27 20 8099
28 20 4518
30 20 6752
31 20 7946
32 20 3839
35 20 6602
36 20 7408
38 20 5481
39 20 11590
41 20 7880
42 20 7589
50 20 6683
51 20 17620
53 20 9408
54 20 5872
55 20 6961
56 20 4915
59 20 6625
60 20 6264
61 20 5433
63 20 10511
64 20 7756
71 20 6182
72 20 6786
73 20 6119
74 20 6748
76 20 8307
77 20 17382
78 20 5764
80 20 1355
81 20 4149
82 20 7001
83 20 5569
87 20 3469
88 20 5132
89 20 7286
92 20 2
99 20 6492
104 20 19
106 20 6168
107 20 7138
108 20 8166
112 20 10900
114 20 8073
116 20 5384
118 20 9048
119 20 6507
122 20 7844
123 20 494
125 20 95
126 20 4981
127 20 6915
128 20 7046
130 20 5408
131 20 5104
133 20 7755
134 20 6516
136 20 8218
138 20 7058
140 20 6645
141 20 2965
142 20 7974
145 20 2676
148 20 4845
149 20 6463
150 20 7766
153 20 3446
154 20 5014
155 20 8755
156 20 4548
157 20 6060
159 20 4527
160 20 8654
161 20 6650
162 20 3341
163 20 6576
165 20 966
166 20 8477
167 20 42
168 20 45
169 20 3951
170 20 5602
172 20 9128
177 20 5950
181 20 4334
182 20 7722
184 20 7085
186 20 4413
187 20 5637
189 20 5791
192 20 4782
196 20 6733
199 20 4719
200 20 10143
202 20 5997
204 20 6565
205 20 21565
206 20 3869
207 20 6322
208 20 6012
209 20 4885
211 20 7014
212 20 6081
213 20 5610
214 20 6055
215 20 7782
217 20 9825
218 20 8960
219 20 6026
220 20 3995
221 20 7221
222 20 4134
225 20 10670
226 20 3762
227 20 5983
231 20 8674
233 20 11037
235 20 5753
236 20 5765
238 20 11104
239 20 8812
240 20 7076
243 20 5983
245 20 5362
246 20 6007
247 20 7336
249 20 5157
250 20 5394
251 20 5995
252 20 6236
253 20 7690
254 20 8244
258 20 620
260 20 5387
263 20 7663
265 20 6372
266 20 3758
267 20 6024
269 20 8936
270 20 8506
271 20 6106
274 20 5771
275 20 1322
277 20 6998
278 20 8579
279 20 7436
281 20 9413
282 20 7713
284 20 4690
285 20 7473
287 20 4368
290 20 6576
291 20 3819
293 20 3969
294 20 4137
297 20 1723
298 20 8168
299 20 10089
302 20 8529
303 20 4716
304 20 6460
307 20 53
308 20 8056
311 20 6250
312 20 4886
313 20 8597
314 20 6777
315 20 6387
319 20 5375
320 20 5885
321 20 3279
323 20 5559
326 20 2950
329 20 2889
330 20 3342
332 20 7403
337 20 9530
340 20 6933
341 20 6965
342 20 9893
345 20 8327
348 20 6698
352 20 14254
353 20 5025
355 20 6875
356 20 3726
357 20 9625
358 20 5178
360 20 6972
361 20 5020
362 20 8410
364 20 8797
365 20 8262
366 20 649
372 20 4383
375 20 6536
376 20 5787
378 20 7930
379 20 1743
381 20 1740
382 20 7429
383 20 25
385 20 3369
386 20 5256
387 20 1026
389 20 2679
393 20 5376
394 20 8438
395 20 6819
396 20 18
399 20 5465
400 20 5467
401 20 9251
403 20 7413
404 20 6439
405 20 7111
406 20 8422
407 20 7054
408 20 5938
412 20 10060
413 20 5353
414 20 6432
415 20 5816
418 20 6104
420 20 372
421 20 10140
422 20 6655
426 20 9188
427 20 5541
430 20 7647
431 20 7021
432 20 6448
434 20 8953
438 20 8258
440 20 5463
443 20 3
446 20 7264
447 20 5094
450 20 5449
455 20 21
460 20 6833
462 20 7010
464 20 10001
466 20 1709
467 20 5917
469 20 9506
470 20 7854
471 20 16001
472 20 11250
473 20 263
474 20 4788
478 20 8388
481 20 4969
482 20 9390
483 20 8255
484 20 6726
487 20 6661
488 20 7013
492 20 4649
496 20 5020
497 20 5280
498 20 9230
500 20 1745
3 21 2397
6 21 1900
7 21 1786
20 21 337
21 21 1898
27 21 2717
28 21 16
30 21 1264
31 21 2937
32 21 2270
38 21 3337
50 21 1913
51 21 2433
55 21 1833
56 21 1635
59 21 2961
60 21 3329
61 21 478
76 21 1957
77 21 2460
78 21 1581
80 21 4
81 21 2593
82 21 1175
83 21 1448
89 21 1228
99 21 1207
106 21 3253
108 21 1729
112 21 2983
114 21 2608
116 21 468
128 21 1974
131 21 1839
133 21 3579
141 21 4
142 21 2264
148 21 3342
154 21 1768
155 21 2720
156 21 62
161 21 3759
166 21 2593
181 21 1489
186 21 1289
207 21 3797
209 21 2577
211 21 2383
213 21 402
214 21 2654
218 21 1814
220 21 1645
221 21 2299
222 21 758
225 21 2624
226 21 2007
227 21 1384
235 21 2858
239 21 3019
246 21 2937
249 21 2578
251 21 1404
254 21 1912
263 21 2547
265 21 2439
266 21 2246
269 21 2799
270 21 1878
271 21 2465
274 21 2173
277 21 1628
284 21 78
287 21 3403
293 21 1473
298 21 1374
302 21 1422
303 21 80
304 21 4147
308 21 1642
311 21 3879
312 21 1637
313 21 1462
314 21 1934
315 21 2476
319 21 2017
320 21 2414
321 21 10
323 21 2105
326 21 122
329 21 4
330 21 2451
332 21 2068
341 21 2499
345 21 1492
348 21 4169
356 21 1474
358 21 2543
360 21 3619
361 21 1457
364 21 2895
365 21 2003
379 21 8
382 21 2329
385 21 1187
393 21 2703
395 21 2038
401 21 1881
404 21 2536
412 21 952
414 21 1209
415 21 1877
418 21 2521
422 21 2213
426 21 1899
427 21 2170
431 21 1995
432 21 1983
434 21 2904
438 21 1941
447 21 1446
462 21 1994
464 21 1375
471 21 2756
474 21 92
478 21 2012
482 21 2418
483 21 3386
484 21 2641
487 21 2666
488 21 1919
492 21 2650
496 21 1931
3 22 1035
6 22 693
7 22 1509
20 22 341
21 22 1392
27 22 931
28 22 30
30 22 746
31 22 2117
32 22 1090
38 22 802
50 22 1809
51 22 1000
55 22 443
56 22 618
59 22 875
60 22 1112
61 22 609
76 22 1381
77 22 1003
78 22 490
80 22 5
81 22 948
82 22 591
83 22 838
87 22 1
89 22 566
99 22 678
106 22 1105
108 22 1246
112 22 723
114 22 1268
116 22 497
128 22 1306
131 22 495
133 22 1431
142 22 1323
148 22 1887
153 22 4
154 22 442
155 22 729
156 22 26
161 22 1927
166 22 1861
181 22 735
186 22 679
206 22 10
207 22 661
209 22 788
211 22 1222
213 22 128
214 22 1514
218 22 679
220 22 1173
221 22 1954
222 22 314
225 22 1906
226 22 727
227 22 533
235 22 1111
239 22 863
246 22 1128
249 22 1638
251 22 575
254 22 1148
263 22 1286
265 22 1283
266 22 1413
269 22 719
270 22 1462
271 22 623
274 22 903
277 22 401
284 22 65
287 22 2227
291 22 17
293 22 1594
298 22 1071
302 22 1088
303 22 62
304 22 309
308 22 1195
311 22 731
312 22 526
313 22 1074
314 22 1778
315 22 819
319 22 1029
320 22 643
321 22 6
323 22 988
326 22 173
330 22 1873
332 22 761
341 22 2146
345 22 1241
348 22 279
356 22 776
358 22 1566
360 22 1449
361 22 1677
364 22 928
365 22 1165
379 22 4
382 22 936
385 22 986
393 22 1231
395 22 1476
401 22 2036
404 22 1944
412 22 552
414 22 755
415 22 645
418 22 1535
422 22 1863
426 22 2002
427 22 945
431 22 470
432 22 297
434 22 984
438 22 1147
447 22 1739
462 22 1226
464 22 1906
471 22 1460
474 22 62
478 22 1185
482 22 1168
483 22 1062
484 22 1056
487 22 1015
488 22 1320
492 22 1384
496 22 1131
3 23 3088
6 23 2592
7 23 5588
20 23 562
21 23 3467
27 23 3711
28 23 85
30 23 3210
31 23 3704
32 23 2264
38 23 2280
50 23 3376
51 23 2153
55 23 1438
56 23 2867
59 23 3319
60 23 2974
61 23 1208
76 23 2814
77 23 2257
78 23 2355
81 23 3708
82 23 1643
83 23 2967
87 23 7
89 23 1607
99 23 2059
106 23 2954
108 23 2792
112 23 1902
114 23 2305
116 23 643
128 23 2347
131 23 2756
133 23 4372
141 23 5
142 23 3249
148 23 3655
153 23 3
154 23 2687
155 23 2348
156 23 195
161 23 2276
166 23 3621
181 23 3555
186 23 2034
206 23 31
207 23 3553
209 23 2148
211 23 4273
213 23 162
214 23 3343
218 23 5571
220 23 2296
221 23 2540
222 23 2445
225 23 2948
226 23 2054
227 23 5065
235 23 1981
239 23 3239
246 23 3217
249 23 2900
251 23 5285
254 23 3346
263 23 3027
265 23 2493
266 23 3764
269 23 2308
270 23 5531
271 23 3091
274 23 2620
277 23 1153
284 23 33
287 23 3565
291 23 29
293 23 3738
298 23 1607
302 23 1641
303 23 52
304 23 3759
308 23 2811
311 23 3571
312 23 2946
313 23 1670
314 23 3374
315 23 2334
319 23 1953
320 23 2058
321 23 8
323 23 3489
326 23 398
329 23 2
330 23 3563
332 23 3474
341 23 2746
345 23 1918
348 23 3773
356 23 1153
358 23 2830
360 23 2460
361 23 2572
364 23 1760
365 23 3248
379 23 2
382 23 1232
385 23 1316
393 23 3747
395 23 3579
401 23 2917
404 23 3746
412 23 1680
414 23 2110
415 23 2022
418 23 3343
422 23 2293
426 23 3019
427 23 3457
431 23 1452
432 23 1436
434 23 1690
438 23 3258
447 23 2609
462 23 2442
464 23 2846
471 23 4038
474 23 44
478 23 3384
482 23 2997
483 23 2669
484 23 4076
487 23 3948
488 23 2412
492 23 3213
496 23 2948
1 24 781
10 24 1743
19 24 4
24 24 611
35 24 641
36 24 750
39 24 1600
41 24 1585
42 24 1798
53 24 631
54 24 176
63 24 555
64 24 1146
71 24 1633
72 24 1102
73 24 1551
74 24 1089
88 24 1788
107 24 1615
118 24 1235
119 24 2644
122 24 815
126 24 642
127 24 1142
130 24 1994
134 24 1102
136 24 1164
138 24 1888
140 24 1131
145 24 18
149 24 1544
150 24 853
157 24 1280
159 24 57
160 24 1990
163 24 2749
169 24 640
170 24 121
172 24 2701
177 24 1240
182 24 1111
184 24 897
187 24 1804
189 24 868
192 24 443
196 24 1146
199 24 1805
200 24 977
202 24 719
204 24 621
205 24 2936
208 24 1878
212 24 1247
215 24 1387
217 24 2470
219 24 701
231 24 2397
233 24 1718
236 24 1045
238 24 1795
240 24 559
243 24 1672
245 24 1437
247 24 453
250 24 1027
252 24 1017
253 24 1353
260 24 1792
267 24 888
278 24 1516
279 24 448
281 24 3063
282 24 1320
285 24 428
290 24 949
294 24 22
297 24 3
299 24 1153
337 24 1244
340 24 527
342 24 1338
352 24 2023
353 24 1064
355 24 1088
357 24 1996
362 24 1145
372 24 577
375 24 1514
376 24 993
378 24 1138
381 24 6
386 24 192
387 24 7
389 24 17
394 24 1558
399 24 1352
400 24 67
403 24 983
405 24 592
406 24 1825
407 24 751
408 24 2598
413 24 1962
421 24 1748
430 24 2286
440 24 54
446 24 1566
450 24 55
460 24 849
467 24 902
469 24 238
470 24 1354
472 24 1752
481 24 1075
497 24 1293
498 24 1692
1 25 5781
10 25 3873
19 25 9
24 25 4261
35 25 4044
36 25 5872
39 25 5794
41 25 6223
42 25 5193
53 25 3017
54 25 1060
63 25 5312
64 25 6024
71 25 3511
72 25 3242
73 25 3843
74 25 3367
88 25 4290
107 25 6827
118 25 8747
119 25 9095
122 25 4916
126 25 2316
127 25 3274
130 25 6176
134 25 5144
136 25 4582
138 25 7046
140 25 4325
145 25 69
149 25 3846
150 25 4796
157 25 3627
159 25 156
160 25 7468
163 25 8248
169 25 1825
170 25 2361
172 25 7588
177 25 3789
182 25 6632
184 25 5434
187 25 6422
189 25 3459
192 25 750
196 25 3304
199 25 5339
200 25 4394
202 25 4269
204 25 4180
205 25 7967
208 25 5581
212 25 7072
215 25 4639
217 25 7187
219 25 4021
231 25 4684
233 25 8447
236 25 3326
238 25 5911
240 25 5821
243 25 3354
245 25 4028
247 25 3523
250 25 6531
252 25 2333
253 25 4537
260 25 7347
267 25 1859
278 25 6892
279 25 3525
281 25 6587
282 25 3475
285 25 3558
290 25 6927
294 25 42
299 25 2192
337 25 6768
340 25 4230
342 25 5837
352 25 5351
353 25 7041
355 25 3257
357 25 8943
362 25 5357
372 25 3038
375 25 3940
376 25 6046
378 25 5645
386 25 1185
389 25 65
394 25 5409
399 25 4066
400 25 105
403 25 2780
405 25 5724
406 25 5147
407 25 5654
408 25 5216
413 25 6161
421 25 8320
430 25 3943
440 25 111
446 25 4746
450 25 118
460 25 6456
467 25 1962
469 25 3476
470 25 4597
472 25 8645
481 25 7021
497 25 5169
498 25 3839
1 26 4467
10 26 5198
19 26 23
24 26 5865
35 26 6651
36 26 4536
39 26 8682
41 26 5047
42 26 5165
53 26 3042
54 26 1259
63 26 5480
64 26 8433
71 26 3511
72 26 3109
73 26 5865
74 26 3262
88 26 10064
107 26 7318
118 26 9351
119 26 7235
122 26 5803
126 26 4553
127 26 3108
130 26 7139
134 26 5882
136 26 7359
138 26 5544
140 26 3819
145 26 21
149 26 4132
150 26 5839
157 26 5662
159 26 128
160 26 5488
163 26 8280
169 26 3664
170 26 2075
172 26 7360
177 26 5776
182 26 4623
184 26 5765
187 26 5959
189 26 4404
192 26 3518
196 26 3147
199 26 5089
200 26 7231
202 26 3279
204 26 6515
205 26 11740
208 26 3919
212 26 9640
215 26 7866
217 26 6109
219 26 3254
231 26 4601
233 26 8322
236 26 7297
238 26 10427
240 26 5990
243 26 4127
245 26 5023
247 26 3813
250 26 5327
252 26 2064
253 26 7604
260 26 7834
267 26 3211
278 26 7817
279 26 3867
281 26 11060
282 26 5566
285 26 3873
290 26 4723
294 26 11
299 26 3808
337 26 14243
340 26 3630
342 26 5050
352 26 7434
353 26 3360
355 26 3166
357 26 7460
362 26 9044
372 26 4317
375 26 4090
376 26 3821
378 26 7189
386 26 1909
389 26 21
394 26 4862
399 26 5022
400 26 80
403 26 6487
405 26 5966
406 26 4760
407 26 8287
408 26 7614
413 26 7353
421 26 8956
430 26 3985
440 26 93
446 26 6313
450 26 78
460 26 6426
466 26 7
467 26 3151
469 26 5909
470 26 7875
472 26 8278
481 26 3484
497 26 4657
498 26 5025
3 27 4035
6 27 3628
7 27 1628
21 27 3024
27 27 1934
30 27 1725
31 27 5274
32 27 1724
38 27 1516
50 27 3459
51 27 196
55 27 211
56 27 947
59 27 146
60 27 3796
76 27 660
77 27 206
78 27 1382
81 27 3202
83 27 147
99 27 1542
106 27 3784
108 27 2322
112 27 2759
114 27 2056
128 27 3337
131 27 1748
133 27 3021
142 27 3213
148 27 3133
154 27 1682
155 27 5905
161 27 3198
166 27 4102
181 27 3194
186 27 1
207 27 2078
209 27 3539
211 27 1576
214 27 4267
218 27 3230
220 27 61
221 27 2083
222 27 3720
225 27 2233
226 27 1595
227 27 4332
235 27 4964
239 27 2497
246 27 2588
249 27 4331
251 27 4369
254 27 2084
263 27 2647
265 27 2558
266 27 4201
269 27 5822
270 27 1639
271 27 3827
274 27 2506
277 27 18
287 27 2602
293 27 3017
298 27 1587
302 27 1567
304 27 3284
308 27 2335
311 27 2196
312 27 2210
313 27 1526
314 27 3437
315 27 2743
319 27 1420
320 27 1837
323 27 1008
330 27 3164
332 27 3027
341 27 5200
345 27 579
348 27 3247
356 27 5
358 27 6321
360 27 2453
361 27 2944
364 27 2904
365 27 2141
382 27 82
385 27 16
393 27 3087
395 27 1730
401 27 4594
404 27 1611
412 27 13
414 27 1664
415 27 2267
418 27 4066
422 27 2864
426 27 4666
427 27 963
431 27 223
432 27 44
434 27 2952
438 27 2047
447 27 2930
462 27 3377
464 27 2162
471 27 3343
478 27 2209
482 27 2444
483 27 4161
484 27 3018
487 27 2961
488 27 3396
492 27 3885
496 27 2361
3 28 7844
6 28 3608
7 28 3333
21 28 2288
27 28 5468
30 28 1523
31 28 3264
32 28 7518
38 28 72
50 28 3613
51 28 6
55 28 47
56 28 4
60 28 5417
76 28 8
77 28 8
78 28 48
81 28 3642
83 28 2
99 28 4337
106 28 5587
108 28 1373
112 28 3920
114 28 2788
128 28 3147
131 28 3954
133 28 3454
142 28 4118
148 28 4467
154 28 4091
155 28 3102
161 28 2870
166 28 4015
181 28 3336
207 28 2268
209 28 3428
211 28 1232
214 28 3603
218 28 4144
221 28 2491
222 28 4478
225 28 4160
226 28 3903
227 28 3316
235 28 3315
239 28 3807
246 28 404
249 28 6341
251 28 3327
254 28 294
263 28 3939
265 28 1670
266 28 4554
269 28 3090
270 28 3367
271 28 3345
274 28 6039
287 28 3663
293 28 4003
298 28 134
302 28 150
304 28 4111
308 28 1480
311 28 2311
312 28 723
313 28 150
314 28 3497
315 28 4097
319 28 3155
320 28 3126
323 28 4278
330 28 2734
332 28 5383
341 28 4980
345 28 14
348 28 4110
358 28 4017
360 28 2358
361 28 4728
364 28 4088
365 28 316
393 28 3080
395 28 719
401 28 4040
404 28 2873
414 28 4475
415 28 145
418 28 3607
422 28 5077
426 28 4001
427 28 4319
431 28 59
434 28 4052
438 28 327
447 28 4685
462 28 3244
464 28 3158
471 28 2848
478 28 276
482 28 5357
483 28 5593
484 28 5203
487 28 5286
488 28 3196
492 28 2279
496 28 2753
3 29 1511
6 29 159
7 29 92
21 29 98
27 29 816
30 29 5
31 29 72
32 29 545
50 29 569
60 29 1210
81 29 665
99 29 299
106 29 1215
108 29 83
112 29 1340
114 29 70
128 29 649
131 29 458
133 29 1563
142 29 473
148 29 300
154 29 449
155 29 1415
161 29 214
166 29 171
181 29 52
207 29 26
209 29 934
211 29 5
214 29 737
218 29 344
221 29 630
222 29 207
225 29 932
226 29 176
227 29 147
235 29 1621
239 29 583
249 29 1886
251 29 114
254 29 3
263 29 1270
265 29 2
266 29 477
269 29 1307
270 29 101
271 29 1034
274 29 294
287 29 1120
293 29 1706
304 29 740
308 29 89
311 29 30
314 29 588
315 29 453
319 29 939
320 29 536
323 29 142
330 29 301
332 29 330
341 29 1008
348 29 791
358 29 976
360 29 514
361 29 1182
364 29 1122
365 29 6
393 29 1240
395 29 19
401 29 1701
404 29 645
414 29 288
418 29 772
422 29 946
426 29 1702
427 29 143
434 29 1133
438 29 8
447 29 1066
462 29 694
464 29 676
471 29 1379
478 29 3
482 29 732
483 29 456
484 29 199
487 29 214
488 29 640
492 29 1801
496 29 726
3 30 208
6 30 482
7 30 19
21 30 9
27 30 265
32 30 836
50 30 756
60 30 99
81 30 614
99 30 44
106 30 96
108 30 2
112 30 126
128 30 646
131 30 27
133 30 191
142 30 748
148 30 502
154 30 32
155 30 929
161 30 171
166 30 1644
181 30 2
209 30 759
214 30 24
218 30 223
221 30 254
222 30 199
225 30 214
226 30 67
227 30 372
235 30 213
239 30 676
249 30 452
251 30 376
263 30 1119
266 30 499
269 30 933
270 30 15
271 30 347
274 30 278
287 30 1035
293 30 332
304 30 529
308 30 3
314 30 724
315 30 8
319 30 679
320 30 311
323 30 97
330 30 187
332 30 774
341 30 409
348 30 520
358 30 727
360 30 410
361 30 1053
364 30 235
393 30 1480
401 30 1299
404 30 77
414 30 43
418 30 20
422 30 1505
426 30 1331
427 30 103
434 30 245
447 30 1185
462 30 606
464 30 924
471 30 691
482 30 405
483 30 1194
484 30 53
487 30 45
488 30 616
492 30 1058
496 30 1010
3 31 845
6 31 413
27 31 626
32 31 280
50 31 258
60 31 21
81 31 1466
106 31 19
128 31 729
131 31 9
133 31 142
142 31 405
148 31 320
154 31 11
155 31 632
161 31 104
166 31 1250
209 31 439
218 31 774
221 31 1080
222 31 927
225 31 23
227 31 181
235 31 683
239 31 313
249 31 224
251 31 190
263 31 233
266 31 427
269 31 627
271 31 371
274 31 120
287 31 657
293 31 846
304 31 87
314 31 270
319 31 419
320 31 269
330 31 513
332 31 361
341 31 77
348 31 81
358 31 959
360 31 81
361 31 205
364 31 5
393 31 1074
401 31 833
404 31 4
422 31 353
426 31 795
434 31 2
447 31 223
462 31 719
464 31 555
471 31 139
482 31 868
483 31 467
488 31 808
492 31 557
496 31 983
1 32 2154
10 32 2656
24 32 2781
35 32 509
36 32 2128
39 32 2511
41 32 1862
42 32 2738
53 32 1196
63 32 3955
64 32 3063
71 32 1986
72 32 90
73 32 3134
74 32 92
88 32 3081
107 32 4225
118 32 3897
119 32 3149
122 32 1760
126 32 1013
127 32 104
130 32 2987
134 32 3593
136 32 2939
138 32 3613
140 32 2099
149 32 74
150 32 1747
157 32 2652
160 32 4184
163 32 3856
169 32 1944
172 32 3037
177 32 2543
182 32 3880
184 32 2919
187 32 3695
189 32 2829
196 32 100
199 32 2127
200 32 1773
202 32 1306
204 32 533
205 32 3376
208 32 1652
212 32 3689
215 32 2445
217 32 1761
219 32 1252
231 32 1519
233 32 3531
236 32 4307
238 32 2529
240 32 520
243 32 16
245 32 1795
247 32 2191
250 32 4723
253 32 2397
260 32 2402
278 32 2978
279 32 2189
281 32 5131
282 32 3749
285 32 2060
290 32 3197
299 32 417
337 32 1413
340 32 3140
342 32 2740
352 32 2557
353 32 644
355 32 120
357 32 4194
362 32 2017
372 32 174
375 32 57
376 32 3136
378 32 4022
394 32 2847
399 32 1856
403 32 1589
405 32 521
406 32 2983
407 32 1842
408 32 3665
413 32 2989
421 32 2922
430 32 1792
446 32 3036
460 32 3836
469 32 2535
470 32 2433
472 32 3652
481 32 671
497 32 3125
498 32 4044
1 33 24
10 33 662
24 33 1570
35 33 4
36 33 28
39 33 1835
41 33 1215
42 33 1152
53 33 1939
63 33 1801
64 33 1725
71 33 50
72 33 5
73 33 1597
74 33 3
88 33 311
107 33 2917
118 33 3006
119 33 964
122 33 362
126 33 43
127 33 4
130 33 1388
134 33 1170
136 33 1813
138 33 2760
140 33 429
150 33 377
157 33 113
160 33 2476
163 33 2570
169 33 2222
172 33 1626
177 33 112
182 33 1667
184 33 1952
187 33 2046
189 33 1112
196 33 4
199 33 50
200 33 933
202 33 6
204 33 5
205 33 2600
208 33 1929
212 33 1438
215 33 217
217 33 2388
219 33 9
231 33 178
233 33 1603
236 33 3115
238 33 1329
240 33 993
245 33 748
247 33 87
250 33 914
253 33 238
260 33 1556
278 33 1045
279 33 66
281 33 3143
282 33 633
285 33 63
290 33 1793
299 33 7
337 33 910
340 33 490
342 33 1765
352 33 2050
353 33 68
355 33 3
357 33 1076
362 33 2729
376 33 2350
378 33 5458
394 33 1380
399 33 679
403 33 2085
405 33 943
406 33 158
407 33 1402
408 33 1852
413 33 1434
421 33 2402
430 33 1478
446 33 2030
460 33 831
469 33 2823
470 33 239
472 33 1672
481 33 56
497 33 1997
498 33 1112
1 34 4
10 34 59
24 34 70
35 34 27
36 34 3
39 34 89
41 34 62
42 34 468
53 34 197
63 34 94
64 34 142
71 34 18
73 34 90
88 34 1090
107 34 31
118 34 90
119 34 55
122 34 102
126 34 45
130 34 58
134 34 314
136 34 628
138 34 57
140 34 66
150 34 79
157 34 69
160 34 76
163 34 116
169 34 52
172 34 37
177 34 74
182 34 119
184 34 128
187 34 94
189 34 129
199 34 6
200 34 280
202 34 3
204 34 31
205 34 125
208 34 69
212 34 146
215 34 74
217 34 177
219 34 4
231 34 175
233 34 58
236 34 55
238 34 68
240 34 87
245 34 759
247 34 113
250 34 159
253 34 78
260 34 111
278 34 108
279 34 103
281 34 205
282 34 319
285 34 103
290 34 622
337 34 64
340 34 126
342 34 164
352 34 223
353 34 33
357 34 143
362 34 115
376 34 65
378 34 94
394 34 132
399 34 745
403 34 204
405 34 96
406 34 149
407 34 282
408 34 248
413 34 58
421 34 162
430 34 403
446 34 62
460 34 349
469 34 46
470 34 83
472 34 90
481 34 42
497 34 50
498 34 67
10 35 1004
24 35 324
39 35 904
41 35 664
42 35 131
53 35 478
63 35 1137
64 35 780
73 35 727
88 35 73
107 35 1029
118 35 508
119 35 1038
122 35 322
130 35 357
134 35 572
136 35 178
138 35 932
140 35 14
150 35 316
160 35 607
163 35 246
169 35 1907
172 35 1126
182 35 334
184 35 51
187 35 553
189 35 1214
205 35 683
208 35 133
212 35 194
215 35 10
217 35 826
231 35 746
233 35 647
236 35 695
238 35 990
240 35 592
245 35 56
247 35 27
250 35 2426
253 35 9
260 35 380
278 35 427
279 35 16
281 35 2099
282 35 9
285 35 23
290 35 146
337 35 212
340 35 547
342 35 791
352 35 658
357 35 2468
362 35 1848
376 35 1370
378 35 864
394 35 304
399 35 65
403 35 842
405 35 559
407 35 1177
408 35 146
413 35 352
421 35 691
430 35 72
446 35 668
469 35 612
470 35 10
472 35 717
497 35 529
498 35 693
1 36 2600
2 36 2052
3 36 2409
4 36 2213
5 36 2002
6 36 2182
7 36 3544
8 36 3477
9 36 3181
10 36 6247
11 36 2960
12 36 2379
13 36 3428
14 36 3636
15 36 1332
16 36 2254
17 36 1396
18 36 1688
19 36 4004
20 36 2482
21 36 2215
22 36 1413
23 36 1051
24 36 2101
25 36 3214
26 36 2724
27 36 4083
28 36 3059
29 36 1046
30 36 2508
31 36 3535
32 36 4036
33 36 1501
34 36 1541
35 36 3916
36 36 2638
37 36 2258
38 36 3879
39 36 4086
40 36 4257
41 36 3566
42 36 3241
43 36 2093
44 36 3778
45 36 3527
46 36 3329
47 36 3627
48 36 1810
49 36 1054
50 36 4309
51 36 4163
52 36 3746
53 36 2860
54 36 2163
55 36 4111
56 36 4244
57 36 2365
58 36 2000
59 36 4877
60 36 3555
61 36 3196
62 36 4950
63 36 2212
64 36 4998
65 36 3811
66 36 1753
67 36 1063
68 36 3310
69 36 3456
70 36 4489
71 36 2023
72 36 3601
73 36 4569
74 36 3563
75 36 1236
76 36 3270
77 36 4206
78 36 3105
79 36 3052
80 36 1974
81 36 3102
82 36 2959
83 36 2540
84 36 1775
85 36 3111
86 36 3927
87 36 3436
88 36 3288
89 36 3005
90 36 2177
91 36 1484
92 36 3407
93 36 1649
94 36 1445
95 36 2215
96 36 1880
97 36 1095
98 36 3409
99 36 3556
100 36 2439
101 36 3483
102 36 3665
103 36 1494
104 36 4630
105 36 994
106 36 3641
107 36 1728
108 36 4574
109 36 3380
110 36 1736
111 36 3300
112 36 2206
113 36 2908
114 36 5648
115 36 1748
116 36 3580
117 36 1312
118 36 4500
119 36 3593
120 36 2954
121 36 3492
122 36 4387
123 36 2533
124 36 1709
125 36 3695
126 36 3493
127 36 3410
128 36 4263
129 36 2939
130 36 6592
131 36 3635
132 36 4018
133 36 3509
134 36 3861
135 36 4314
136 36 4136
137 36 3275
138 36 5424
139 36 2488
140 36 2960
141 36 2684
142 36 3909
143 36 1411
144 36 1733
145 36 3465
146 36 1392
147 36 3358
148 36 2895
149 36 3971
150 36 4493
151 36 4006
152 36 3748
153 36 3346
154 36 3734
155 36 3294
156 36 3744
157 36 4956
158 36 3733
159 36 4301
160 36 3232
161 36 4209
162 36 2761
163 36 4964
164 36 2767
165 36 2739
166 36 3186
167 36 2241
168 36 3146
169 36 4064
170 36 2195
171 36 2492
172 36 4702
173 36 2650
174 36 1737
175 36 3430
176 36 2406
177 36 4775
178 36 2647
179 36 2279
180 36 1075
181 36 4244
182 36 4429
183 36 4010
184 36 3559
185 36 2153
186 36 2507
187 36 2741
188 36 1746
189 36 3002
190 36 1919
191 36 1613
192 36 3690
193 36 3769
194 36 3564
195 36 1938
196 36 3501
197 36 1271
198 36 2119
199 36 4312
200 36 3502
201 36 1442
202 36 3618
203 36 1514
204 36 3951
205 36 4089
206 36 3281
207 36 3383
208 36 3666
209 36 4145
210 36 1492
211 36 2774
212 36 3689
213 36 3222
214 36 3764
215 36 2640
216 36 1886
217 36 3121
218 36 4197
219 36 3710
220 36 4961
221 36 2504
222 36 6099
223 36 1833
224 36 1012
225 36 3569
226 36 3563
227 36 4136
228 36 2660
229 36 1749
230 36 2277
231 36 4048
232 36 4385
233 36 5852
234 36 3209
235 36 3675
236 36 5136
237 36 2105
238 36 2740
239 36 3087
240 36 2490
241 36 1584
242 36 1881
243 36 4156
244 36 2621
245 36 4659
246 36 3170
247 36 4766
248 36 4252
249 36 3182
250 36 4412
251 36 4198
252 36 3359
253 36 2615
254 36 2540
255 36 3582
256 36 1441
257 36 895
258 36 2920
259 36 2731
260 36 2602
261 36 1839
262 36 1960
263 36 3301
264 36 1613
265 36 2624
266 36 3664
267 36 3754
268 36 3779
269 36 3206
270 36 3458
271 36 2448
272 36 2378
273 36 2018
274 36 4004
275 36 3262
276 36 2866
277 36 2715
278 36 4245
279 36 4834
280 36 4483
281 36 6419
282 36 3808
283 36 2896
284 36 2873
285 36 4774
286 36 3390
287 36 2360
288 36 3255
289 36 2392
290 36 3955
291 36 3207
292 36 4408
293 36 1622
294 36 5068
295 36 3040
296 36 3767
297 36 2952
298 36 5084
299 36 3992
300 36 1212
301 36 2856
302 36 5166
303 36 2988
304 36 3478
305 36 1741
306 36 1669
307 36 2242
308 36 4735
309 36 1078
310 36 4448
311 36 3372
312 36 2012
313 36 5217
314 36 4375
315 36 2885
316 36 1346
317 36 1239
318 36 2821
319 36 2005
320 36 2161
321 36 2855
322 36 2649
323 36 2618
324 36 2107
325 36 3878
326 36 1823
327 36 980
328 36 1897
329 36 2743
330 36 3007
331 36 2871
332 36 2991
333 36 3252
334 36 1917
335 36 2098
336 36 2173
337 36 3251
338 36 3013
339 36 3110
340 36 3118
341 36 5759
342 36 2530
343 36 2070
344 36 2496
345 36 3921
346 36 1688
347 36 1040
348 36 3387
349 36 1480
350 36 2450
351 36 1533
352 36 3864
353 36 3623
354 36 2349
355 36 3514
356 36 2153
357 36 3795
358 36 3650
359 36 2928
360 36 4202
361 36 3990
362 36 5383
363 36 1383
364 36 3909
365 36 2595
366 36 2889
367 36 1692
368 36 1489
369 36 2432
370 36 3893
371 36 2062
372 36 2850
373 36 2530
374 36 1195
375 36 4015
376 36 6353
377 36 2037
378 36 4681
379 36 1811
380 36 1380
381 36 2810
382 36 2692
383 36 2384
384 36 1461
385 36 2078
386 36 2386
387 36 2593
388 36 1943
389 36 3485
390 36 2859
391 36 2974
392 36 2696
393 36 4182
394 36 5318
395 36 4279
396 36 1505
397 36 2266
398 36 1233
399 36 4717
400 36 4127
401 36 2648
402 36 4352
403 36 2541
404 36 3168
405 36 2509
406 36 4698
407 36 6079
408 36 3166
409 36 1664
410 36 1598
411 36 2114
412 36 1862
413 36 6566
414 36 3695
415 36 3215
416 36 2027
417 36 2070
418 36 3887
419 36 1677
420 36 2595
421 36 6379
422 36 2219
423 36 2443
424 36 1634
425 36 1697
426 36 2720
427 36 2713
428 36 2441
429 36 3793
430 36 2840
431 36 4282
432 36 3938
433 36 2143
434 36 3838
435 36 2481
436 36 3367
437 36 3459
438 36 2519
439 36 1193
440 36 4156
441 36 2241
442 36 1556
443 36 3432
444 36 3208
445 36 1816
446 36 4234
447 36 4094
448 36 2592
449 36 1900
450 36 4269
451 36 2760
452 36 2258
453 36 3380
454 36 1443
455 36 2110
456 36 3915
457 36 4434
458 36 3551
459 36 1378
460 36 3205
461 36 1751
462 36 4193
463 36 4150
464 36 4032
465 36 3149
466 36 3197
467 36 3812
468 36 2988
469 36 2829
470 36 2795
471 36 5515
472 36 5903
473 36 3970
474 36 2924
475 36 2861
476 36 640
477 36 2277
478 36 2480
479 36 2668
480 36 2055
481 36 3685
482 36 3732
483 36 5281
484 36 4553
485 36 1094
486 36 2696
487 36 4317
488 36 4216
489 36 1412
490 36 2181
491 36 985
492 36 3053
493 36 3002
494 36 3841
495 36 2746
496 36 4576
497 36 4640
498 36 6039
499 36 1678
500 36 2969
1 37 4166
2 37 2481
3 37 650
4 37 751
5 37 1713
6 37 2789
7 37 1924
8 37 1116
9 37 963
10 37 2530
11 37 1285
12 37 1407
13 37 2093
14 37 1537
15 37 611
16 37 878
17 37 1457
18 37 975
19 37 2075
20 37 1357
21 37 1195
22 37 1779
23 37 916
24 37 2828
25 37 2531
26 37 1120
27 37 715
28 37 2473
29 37 1226
30 37 2304
31 37 2067
32 37 2713
33 37 890
34 37 1174
35 37 2030
36 37 4098
37 37 1849
38 37 1723
39 37 2763
40 37 2030
41 37 1358
42 37 1816
43 37 1769
44 37 1523
45 37 1859
46 37 1863
47 37 1671
48 37 1502
49 37 757
50 37 1938
51 37 2246
52 37 1491
53 37 3030
54 37 2167
55 37 1143
56 37 1829
57 37 1866
58 37 2117
59 37 2518
60 37 1415
61 37 683
62 37 2285
63 37 3591
64 37 2726
65 37 2221
66 37 1637
67 37 607
68 37 1228
69 37 2082
70 37 804
71 37 1379
72 37 2231
73 37 2918
74 37 2231
75 37 824
76 37 1011
77 37 2234
78 37 2395
79 37 1718
80 37 1527
81 37 2611
82 37 1392
83 37 1663
84 37 1903
85 37 1951
86 37 1955
87 37 2077
88 37 1570
89 37 1425
90 37 1751
91 37 789
92 37 1860
93 37 727
94 37 1445
95 37 1490
96 37 2309
97 37 1007
98 37 2310
99 37 3313
100 37 1283
101 37 1986
102 37 2202
103 37 1098
104 37 1479
105 37 1377
106 37 1406
107 37 1200
108 37 1792
109 37 960
110 37 1319
111 37 2444
112 37 2145
113 37 2343
114 37 2398
115 37 1232
116 37 2404
117 37 1074
118 37 2918
119 37 1903
120 37 2313
121 37 1718
122 37 1642
123 37 1243
124 37 1564
125 37 1541
126 37 1035
127 37 2322
128 37 1839
129 37 1838
130 37 3597
131 37 2291
132 37 1796
133 37 2427
134 37 2261
135 37 1982
136 37 4218
137 37 2402
138 37 3246
139 37 2094
140 37 2101
141 37 1434
142 37 2424
143 37 1711
144 37 1689
145 37 2404
146 37 728
147 37 1515
148 37 1766
149 37 2983
150 37 1754
151 37 994
152 37 1576
153 37 2112
154 37 2271
155 37 1513
156 37 1496
157 37 3746
158 37 2396
159 37 3554
160 37 3734
161 37 2997
162 37 2666
163 37 3219
164 37 1622
165 37 1305
166 37 1462
167 37 1899
168 37 2405
169 37 4310
170 37 1303
171 37 1820
172 37 1942
173 37 1881
174 37 1419
175 37 2392
176 37 1035
177 37 3634
178 37 2343
179 37 2263
180 37 1150
181 37 992
182 37 2559
183 37 2157
184 37 3605
185 37 2148
186 37 2304
187 37 2449
188 37 1231
189 37 2064
190 37 1190
191 37 1857
192 37 2887
193 37 2009
194 37 1434
195 37 1019
196 37 2233
197 37 543
198 37 996
199 37 3102
200 37 1942
201 37 1005
202 37 1620
203 37 721
204 37 2036
205 37 4291
206 37 1142
207 37 2570
208 37 2597
209 37 1857
210 37 1776
211 37 1820
212 37 3010
213 37 2263
214 37 1441
215 37 1885
216 37 1083
217 37 2096
218 37 996
219 37 1596
220 37 2027
221 37 2593
222 37 815
223 37 1764
224 37 1034
225 37 2718
226 37 2267
227 37 1271
228 37 1595
229 37 1302
230 37 1118
231 37 1713
232 37 1598
233 37 3534
234 37 2290
235 37 2980
236 37 2413
237 37 1031
238 37 2140
239 37 1771
240 37 2648
241 37 1091
242 37 1267
243 37 2689
244 37 701
245 37 1445
246 37 2536
247 37 3511
248 37 1920
249 37 1883
250 37 3442
251 37 1289
252 37 1404
253 37 1948
254 37 2519
255 37 1842
256 37 1444
257 37 915
258 37 2917
259 37 1902
260 37 837
261 37 1487
262 37 2154
263 37 1825
264 37 1893
265 37 1788
266 37 2222
267 37 2896
268 37 1544
269 37 1539
270 37 1961
271 37 2958
272 37 1983
273 37 1296
274 37 3052
275 37 2474
276 37 1836
277 37 1092
278 37 4203
279 37 3521
280 37 1595
281 37 3217
282 37 458
283 37 2052
284 37 1237
285 37 3644
286 37 989
287 37 1828
288 37 2707
289 37 1555
290 37 3613
291 37 1208
292 37 1561
293 37 2880
294 37 2715
295 37 1233
296 37 902
297 37 1989
298 37 2090
299 37 1651
300 37 918
301 37 892
302 37 2054
303 37 1265
304 37 3906
305 37 1359
306 37 1007
307 37 1961
308 37 1769
309 37 1939
310 37 1633
311 37 2523
312 37 3004
313 37 2043
314 37 1940
315 37 1599
316 37 1749
317 37 1051
318 37 882
319 37 2233
320 37 818
321 37 1667
322 37 1419
323 37 1261
324 37 1223
325 37 1707
326 37 2017
327 37 1267
328 37 1241
329 37 1453
330 37 2661
331 37 1793
332 37 2473
333 37 1526
334 37 2030
335 37 2430
336 37 1321
337 37 4180
338 37 2307
339 37 1302
340 37 4753
341 37 2824
342 37 2441
343 37 1492
344 37 2168
345 37 2542
346 37 1163
347 37 1429
348 37 4041
349 37 1110
350 37 1378
351 37 987
352 37 889
353 37 2281
354 37 1799
355 37 2291
356 37 2249
357 37 3650
358 37 2954
359 37 1758
360 37 2408
361 37 1753
362 37 3036
363 37 682
364 37 2229
365 37 2480
366 37 2877
367 37 558
368 37 1617
369 37 1473
370 37 949
371 37 2155
372 37 804
373 37 1014
374 37 899
375 37 2904
376 37 2306
377 37 954
378 37 3212
379 37 2341
380 37 782
381 37 1968
382 37 2368
383 37 1214
384 37 511
385 37 2340
386 37 2374
387 37 2263
388 37 832
389 37 2283
390 37 2554
391 37 2594
392 37 1294
393 37 2112
394 37 2207
395 37 2933
396 37 2389
397 37 1412
398 37 852
399 37 1440
400 37 841
401 37 1776
402 37 1445
403 37 1074
404 37 1957
405 37 2650
406 37 2563
407 37 2184
408 37 2179
409 37 1446
410 37 1255
411 37 737
412 37 2325
413 37 3656
414 37 3316
415 37 1634
416 37 1595
417 37 1802
418 37 1383
419 37 1388
420 37 1185
421 37 5519
422 37 2308
423 37 1166
424 37 816
425 37 1128
426 37 1819
427 37 1130
428 37 881
429 37 2434
430 37 3143
431 37 1139
432 37 2301
433 37 1825
434 37 2247
435 37 2482
436 37 2143
437 37 1551
438 37 2543
439 37 1586
440 37 835
441 37 1472
442 37 1201
443 37 1231
444 37 2040
445 37 911
446 37 1233
447 37 1731
448 37 2010
449 37 1490
450 37 830
451 37 1226
452 37 1567
453 37 1569
454 37 1734
455 37 2962
456 37 2484
457 37 1261
458 37 1874
459 37 1060
460 37 2511
461 37 1365
462 37 1896
463 37 3173
464 37 2914
465 37 1599
466 37 2175
467 37 2948
468 37 2708
469 37 2554
470 37 1993
471 37 1460
472 37 3555
473 37 1765
474 37 1248
475 37 1687
476 37 921
477 37 1766
478 37 2439
479 37 764
480 37 2054
481 37 2409
482 37 3782
483 37 2501
484 37 2429
485 37 478
486 37 1200
487 37 2423
488 37 1851
489 37 793
490 37 969
491 37 596
492 37 2474
493 37 1242
494 37 1894
495 37 2620
496 37 2503
497 37 4056
498 37 2697
499 37 1363
500 37 1549
1 38 3616
2 38 2713
3 38 2949
4 38 1253
5 38 1755
6 38 2086
7 38 1797
8 38 1921
9 38 2485
10 38 3123
11 38 2513
12 38 2847
13 38 2664
14 38 1804
15 38 1018
16 38 1217
17 38 1553
18 38 1436
19 38 2241
20 38 2641
21 38 2833
22 38 1158
23 38 718
24 38 2100
25 38 927
26 38 1732
27 38 2441
28 38 2505
29 38 790
30 38 1629
31 38 2258
32 38 2201
33 38 1376
34 38 1585
35 38 3170
36 38 3715
37 38 1401
38 38 2132
39 38 2216
40 38 1335
41 38 3371
42 38 1838
43 38 2104
44 38 2176
45 38 2518
46 38 1770
47 38 777
48 38 2626
49 38 1047
50 38 2615
51 38 1683
52 38 2543
53 38 4869
54 38 2976
55 38 2025
56 38 2443
57 38 1539
58 38 1379
59 38 2728
60 38 1757
61 38 1514
62 38 2030
63 38 4000
64 38 1860
65 38 2138
66 38 1091
67 38 1117
68 38 898
69 38 1315
70 38 1611
71 38 2338
72 38 2339
73 38 2378
74 38 2327
75 38 1096
76 38 1035
77 38 1644
78 38 3292
79 38 1867
80 38 2352
81 38 2183
82 38 3211
83 38 1685
84 38 460
85 38 2066
86 38 1424
87 38 1394
88 38 2225
89 38 3244
90 38 2638
91 38 1798
92 38 2528
93 38 1577
94 38 1016
95 38 1143
96 38 2204
97 38 710
98 38 1368
99 38 2597
100 38 2666
101 38 2457
102 38 1800
103 38 801
104 38 3161
105 38 1003
106 38 1774
107 38 4242
108 38 2713
109 38 1721
110 38 1020
111 38 918
112 38 2561
113 38 2382
114 38 2840
115 38 1865
116 38 1588
117 38 1187
118 38 3140
119 38 2662
120 38 2441
121 38 2083
122 38 1931
123 38 1439
124 38 1667
125 38 2610
126 38 2015
127 38 2327
128 38 2720
129 38 1265
130 38 2563
131 38 3309
132 38 1583
133 38 2869
134 38 3510
135 38 3143
136 38 3554
137 38 967
138 38 3023
139 38 1811
140 38 2454
141 38 2550
142 38 2431
143 38 2761
144 38 2268
145 38 1789
146 38 1647
147 38 1732
148 38 1687
149 38 2950
150 38 1943
151 38 1288
152 38 1940
153 38 1385
154 38 3501
155 38 2110
156 38 1946
157 38 4102
158 38 2726
159 38 1963
160 38 3558
161 38 2736
162 38 1544
163 38 3060
164 38 1781
165 38 2270
166 38 1252
167 38 1710
168 38 2102
169 38 2851
170 38 2045
171 38 1593
172 38 1560
173 38 1794
174 38 717
175 38 1377
176 38 1280
177 38 4204
178 38 1510
179 38 2995
180 38 803
181 38 3121
182 38 2880
183 38 1582
184 38 2614
185 38 976
186 38 1963
187 38 1566
188 38 884
189 38 2005
190 38 2199
191 38 1445
192 38 1631
193 38 1887
194 38 1660
195 38 1449
196 38 2372
197 38 2363
198 38 1203
199 38 2449
200 38 2408
201 38 1303
202 38 3072
203 38 937
204 38 3104
205 38 3988
206 38 984
207 38 1178
208 38 2609
209 38 1810
210 38 1497
211 38 1750
212 38 2755
213 38 2436
214 38 2640
215 38 2064
216 38 1447
217 38 2346
218 38 2459
219 38 3142
220 38 2006
221 38 3073
222 38 2473
223 38 2500
224 38 685
225 38 3743
226 38 1430
227 38 2072
228 38 1777
229 38 1026
230 38 1123
231 38 3145
232 38 2380
233 38 3275
234 38 2245
235 38 2474
236 38 2000
237 38 1823
238 38 2278
239 38 2962
240 38 3207
241 38 1603
242 38 1400
243 38 1630
244 38 2885
245 38 1967
246 38 3717
247 38 3762
248 38 2190
249 38 2141
250 38 2033
251 38 1944
252 38 3144
253 38 2069
254 38 4019
255 38 2495
256 38 1029
257 38 1150
258 38 1429
259 38 1834
260 38 4542
261 38 1564
262 38 1761
263 38 2494
264 38 1429
265 38 2573
266 38 1724
267 38 2684
268 38 2056
269 38 2183
270 38 1854
271 38 2985
272 38 1544
273 38 1987
274 38 2449
275 38 1400
276 38 2626
277 38 2310
278 38 3893
279 38 3889
280 38 3080
281 38 3369
282 38 2694
283 38 2333
284 38 2270
285 38 3900
286 38 2519
287 38 4273
288 38 2441
289 38 1170
290 38 2477
291 38 1056
292 38 2309
293 38 1973
294 38 2047
295 38 2448
296 38 1574
297 38 1830
298 38 3027
299 38 3326
300 38 1119
301 38 1976
302 38 3126
303 38 2495
304 38 2124
305 38 1468
306 38 1393
307 38 1848
308 38 2740
309 38 1892
310 38 2815
311 38 1171
312 38 4624
313 38 3048
314 38 2634
315 38 2536
316 38 1867
317 38 1231
318 38 1614
319 38 1576
320 38 550
321 38 2124
322 38 2338
323 38 2889
324 38 816
325 38 2804
326 38 1808
327 38 729
328 38 2228
329 38 2443
330 38 1418
331 38 1723
332 38 4677
333 38 1685
334 38 2852
335 38 2106
336 38 867
337 38 3873
338 38 2483
339 38 892
340 38 2183
341 38 2128
342 38 2858
343 38 1671
344 38 1264
345 38 3739
346 38 1160
347 38 963
348 38 2125
349 38 801
350 38 1747
351 38 989
352 38 2888
353 38 3333
354 38 1510
355 38 2266
356 38 2137
357 38 3201
358 38 1600
359 38 1533
360 38 2673
361 38 1440
362 38 2585
363 38 1787
364 38 4124
365 38 4069
366 38 1436
367 38 782
368 38 1823
369 38 1571
370 38 1634
371 38 1306
372 38 1492
373 38 1275
374 38 898
375 38 2861
376 38 3943
377 38 1545
378 38 1976
379 38 1223
380 38 1601
381 38 1805
382 38 2509
383 38 1604
384 38 786
385 38 1939
386 38 3091
387 38 1676
388 38 1667
389 38 1735
390 38 2487
391 38 3541
392 38 1965
393 38 2197
394 38 2099
395 38 1829
396 38 1438
397 38 2445
398 38 916
399 38 1989
400 38 2725
401 38 2335
402 38 1800
403 38 2602
404 38 2044
405 38 3307
406 38 1193
407 38 3341
408 38 1643
409 38 1423
410 38 1265
411 38 1412
412 38 1748
413 38 2617
414 38 2634
415 38 2182
416 38 1384
417 38 2753
418 38 2591
419 38 963
420 38 1613
421 38 4522
422 38 1547
423 38 1073
424 38 1162
425 38 1211
426 38 2327
427 38 2855
428 38 1451
429 38 2501
430 38 3819
431 38 2011
432 38 2553
433 38 1262
434 38 4052
435 38 1946
436 38 2713
437 38 1969
438 38 4137
439 38 1120
440 38 2669
441 38 739
442 38 1304
443 38 3366
444 38 2196
445 38 1527
446 38 3558
447 38 1498
448 38 3084
449 38 1505
450 38 2690
451 38 1999
452 38 1562
453 38 1909
454 38 2818
455 38 1714
456 38 2467
457 38 1712
458 38 2591
459 38 978
460 38 2289
461 38 1810
462 38 2735
463 38 2406
464 38 2889
465 38 2696
466 38 2470
467 38 2664
468 38 1519
469 38 2904
470 38 2152
471 38 2324
472 38 3338
473 38 3578
474 38 2481
475 38 1592
476 38 907
477 38 1404
478 38 4088
479 38 1794
480 38 2237
481 38 3390
482 38 1404
483 38 3210
484 38 2366
485 38 2106
486 38 1755
487 38 2327
488 38 2816
489 38 786
490 38 1521
491 38 798
492 38 3360
493 38 1368
494 38 2429
495 38 2234
496 38 3687
497 38 2273
498 38 1809
499 38 2073
500 38 1740
1 39 1357
2 39 828
3 39 1715
4 39 1353
5 39 1874
6 39 1659
7 39 817
8 39 1452
9 39 1097
10 39 2195
11 39 816
12 39 714
13 39 1795
14 39 1058
15 39 352
16 39 1072
17 39 750
18 39 595
19 39 1200
20 39 2261
21 39 1365
22 39 793
23 39 638
24 39 1400
25 39 752
26 39 663
27 39 1073
28 39 1097
29 39 621
30 39 1715
31 39 1249
32 39 1303
33 39 860
34 39 867
35 39 1404
36 39 1348
37 39 717
38 39 1430
39 39 1843
40 39 1206
41 39 2358
42 39 2108
43 39 479
44 39 1193
45 39 1574
46 39 972
47 39 1918
48 39 811
49 39 437
50 39 1605
51 39 1169
52 39 1458
53 39 1779
54 39 1698
55 39 815
56 39 1209
57 39 1249
58 39 1189
59 39 853
60 39 2173
61 39 1117
62 39 1185
63 39 1332
64 39 1371
65 39 1441
66 39 1375
67 39 535
68 39 798
69 39 1473
70 39 648
71 39 1057
72 39 371
73 39 795
74 39 419
75 39 337
76 39 824
77 39 1154
78 39 1276
79 39 1515
80 39 842
81 39 1794
82 39 1052
83 39 1948
84 39 708
85 39 1140
86 39 889
87 39 1071
88 39 1350
89 39 1127
90 39 1130
91 39 1265
92 39 1697
93 39 855
94 39 798
95 39 657
96 39 1277
97 39 1126
98 39 994
99 39 1756
100 39 1543
101 39 1990
102 39 1783
103 39 1018
104 39 1581
105 39 1007
106 39 2180
107 39 567
108 39 1259
109 39 1660
110 39 741
111 39 683
112 39 2063
113 39 911
114 39 1152
115 39 979
116 39 1539
117 39 560
118 39 1868
119 39 2189
120 39 2054
121 39 1305
122 39 2138
123 39 1160
124 39 1141
125 39 1388
126 39 1318
127 39 384
128 39 968
129 39 1704
130 39 1643
131 39 1417
132 39 2723
133 39 1724
134 39 1961
135 39 1448
136 39 2284
137 39 740
138 39 2418
139 39 775
140 39 950
141 39 947
142 39 578
143 39 1129
144 39 1057
145 39 1090
146 39 980
147 39 552
148 39 2792
149 39 401
150 39 2134
151 39 1795
152 39 1223
153 39 1092
154 39 1409
155 39 1318
156 39 2439
157 39 930
158 39 1737
159 39 3048
160 39 1962
161 39 1579
162 39 1919
163 39 2000
164 39 1510
165 39 1775
166 39 2383
167 39 1783
168 39 1450
169 39 1237
170 39 2904
171 39 1532
172 39 2879
173 39 1825
174 39 267
175 39 973
176 39 819
177 39 951
178 39 1202
179 39 1765
180 39 622
181 39 1253
182 39 1907
183 39 842
184 39 2683
185 39 1301
186 39 717
187 39 861
188 39 1142
189 39 1669
190 39 1844
191 39 1010
192 39 2070
193 39 1388
194 39 2147
195 39 1155
196 39 396
197 39 714
198 39 688
199 39 1031
200 39 2554
201 39 603
202 39 1184
203 39 949
204 39 1445
205 39 2100
206 39 926
207 39 1714
208 39 1724
209 39 1825
210 39 989
211 39 1025
212 39 1266
213 39 983
214 39 1166
215 39 1351
216 39 1149
217 39 2418
218 39 1623
219 39 1208
220 39 1353
221 39 2676
222 39 1139
223 39 955
224 39 1066
225 39 1882
226 39 1363
227 39 2136
228 39 1073
229 39 950
230 39 721
231 39 1211
232 39 244
233 39 2283
234 39 895
235 39 2059
236 39 1996
237 39 1020
238 39 1261
239 39 1976
240 39 1782
241 39 823
242 39 1054
243 39 135
244 39 2123
245 39 1443
246 39 304
247 39 682
248 39 2421
249 39 1870
250 39 1105
251 39 1983
252 39 2078
253 39 1363
254 39 2227
255 39 1525
256 39 785
257 39 1336
258 39 1543
259 39 1892
260 39 2460
261 39 299
262 39 655
263 39 2563
264 39 2151
265 39 948
266 39 1737
267 39 2516
268 39 924
269 39 1230
270 39 792
271 39 2242
272 39 860
273 39 914
274 39 1664
275 39 1949
276 39 1513
277 39 1363
278 39 2205
279 39 752
280 39 1628
281 39 882
282 39 1069
283 39 1124
284 39 874
285 39 750
286 39 1025
287 39 1498
288 39 1261
289 39 1759
290 39 1777
291 39 912
292 39 275
293 39 1692
294 39 1446
295 39 1223
296 39 882
297 39 879
298 39 574
299 39 1985
300 39 567
301 39 395
302 39 575
303 39 892
304 39 2098
305 39 1245
306 39 594
307 39 1765
308 39 1292
309 39 1124
310 39 819
311 39 1804
312 39 1131
313 39 572
314 39 1610
315 39 1334
316 39 1303
317 39 532
318 39 373
319 39 1976
320 39 2196
321 39 1571
322 39 712
323 39 1456
324 39 1391
325 39 1340
326 39 1514
327 39 586
328 39 1818
329 39 966
330 39 985
331 39 1542
332 39 1259
333 39 1383
334 39 1236
335 39 1146
336 39 1297
337 39 1492
338 39 1918
339 39 661
340 39 2113
341 39 1191
342 39 1237
343 39 1742
344 39 1904
345 39 745
346 39 753
347 39 961
348 39 2008
349 39 1016
350 39 1318
351 39 401
352 39 3211
353 39 1652
354 39 1289
355 39 403
356 39 1272
357 39 1163
358 39 1753
359 39 1029
360 39 783
361 39 869
362 39 1421
363 39 1746
364 39 1753
365 39 2228
366 39 1585
367 39 679
368 39 1485
369 39 882
370 39 874
371 39 1179
372 39 1131
373 39 1013
374 39 510
375 39 414
376 39 1911
377 39 685
378 39 1916
379 39 1798
380 39 963
381 39 849
382 39 1096
383 39 1858
384 39 541
385 39 2021
386 39 1582
387 39 1616
388 39 961
389 39 1145
390 39 950
391 39 1815
392 39 1118
393 39 2785
394 39 1734
395 39 710
396 39 882
397 39 1818
398 39 509
399 39 1426
400 39 1166
401 39 741
402 39 1358
403 39 1670
404 39 1682
405 39 1759
406 39 2826
407 39 1887
408 39 2682
409 39 612
410 39 1483
411 39 477
412 39 947
413 39 1735
414 39 1697
415 39 1697
416 39 921
417 39 894
418 39 1227
419 39 663
420 39 1866
421 39 1620
422 39 2020
423 39 315
424 39 926
425 39 843
426 39 743
427 39 1584
428 39 1445
429 39 1244
430 39 1782
431 39 839
432 39 1552
433 39 1432
434 39 1790
435 39 1452
436 39 1822
437 39 1348
438 39 2200
439 39 478
440 39 1158
441 39 1522
442 39 1099
443 39 1490
444 39 1171
445 39 1848
446 39 1386
447 39 901
448 39 1943
449 39 1178
450 39 1104
451 39 980
452 39 1197
453 39 1369
454 39 1120
455 39 1483
456 39 927
457 39 1856
458 39 1566
459 39 1300
460 39 794
461 39 720
462 39 947
463 39 1301
464 39 1800
465 39 866
466 39 754
467 39 2483
468 39 971
469 39 739
470 39 1421
471 39 1808
472 39 2325
473 39 1444
474 39 855
475 39 2278
476 39 780
477 39 1679
478 39 2228
479 39 1016
480 39 1754
481 39 1787
482 39 1009
483 39 969
484 39 1112
485 39 952
486 39 1134
487 39 1046
488 39 996
489 39 1125
490 39 974
491 39 442
492 39 1366
493 39 1026
494 39 649
495 39 1760
496 39 2240
497 39 410
498 39 1016
499 39 1282
500 39 1460
1 40 2506
2 40 2434
3 40 2997
4 40 2062
5 40 2147
6 40 2233
7 40 2417
8 40 2961
9 40 1557
10 40 2994
11 40 1965
12 40 1339
13 40 2016
14 40 3258
15 40 1036
16 40 1824
17 40 1675
18 40 1765
19 40 3396
20 40 2455
21 40 3723
22 40 1511
23 40 937
24 40 3137
25 40 2292
26 40 3969
27 40 4017
28 40 3329
29 40 1612
30 40 2947
31 40 3296
32 40 3008
33 40 1169
34 40 2292
35 40 3106
36 40 2541
37 40 1758
38 40 3150
39 40 3591
40 40 1929
41 40 5072
42 40 2730
43 40 4346
44 40 2051
45 40 3038
46 40 1960
47 40 2898
48 40 1996
49 40 1322
50 40 1831
51 40 2431
52 40 2444
53 40 1958
54 40 1553
55 40 2610
56 40 1686
57 40 2073
58 40 1304
59 40 2025
60 40 2490
61 40 1619
62 40 1667
63 40 2002
64 40 2923
65 40 2776
66 40 2133
67 40 769
68 40 1457
69 40 1902
70 40 1825
71 40 2849
72 40 3190
73 40 1830
74 40 3273
75 40 787
76 40 4274
77 40 2400
78 40 981
79 40 3401
80 40 2221
81 40 1828
82 40 2571
83 40 4570
84 40 1690
85 40 2822
86 40 3590
87 40 2512
88 40 2111
89 40 2485
90 40 1669
91 40 2318
92 40 2814
93 40 972
94 40 2331
95 40 1478
96 40 1621
97 40 1501
98 40 2222
99 40 1826
100 40 1958
101 40 2532
102 40 3598
103 40 3335
104 40 2381
105 40 1426
106 40 2478
107 40 3519
108 40 1532
109 40 1918
110 40 1747
111 40 2208
112 40 1427
113 40 3969
114 40 2337
115 40 1673
116 40 1896
117 40 1828
118 40 5435
119 40 1986
120 40 2367
121 40 2062
122 40 1849
123 40 1867
124 40 2282
125 40 2098
126 40 2823
127 40 3232
128 40 1886
129 40 3328
130 40 2877
131 40 2846
132 40 3615
133 40 2102
134 40 3860
135 40 2020
136 40 4522
137 40 2231
138 40 3064
139 40 3680
140 40 3191
141 40 2307
142 40 1288
143 40 1231
144 40 1701
145 40 2101
146 40 1299
147 40 1582
148 40 2376
149 40 2862
150 40 1883
151 40 3716
152 40 4107
153 40 2533
154 40 2777
155 40 3137
156 40 3497
157 40 3541
158 40 3203
159 40 1138
160 40 3654
161 40 3668
162 40 2760
163 40 4502
164 40 1470
165 40 2748
166 40 3723
167 40 4010
168 40 3362
169 40 2363
170 40 1610
171 40 2399
172 40 3466
173 40 2423
174 40 755
175 40 2214
176 40 1536
177 40 3544
178 40 2377
179 40 1699
180 40 1588
181 40 2020
182 40 3655
183 40 2129
184 40 4625
185 40 3156
186 40 2956
187 40 5738
188 40 1459
189 40 2563
190 40 2088
191 40 2485
192 40 3460
193 40 2330
194 40 2119
195 40 1793
196 40 3197
197 40 939
198 40 1519
199 40 2382
200 40 2811
201 40 1154
202 40 2617
203 40 1136
204 40 3068
205 40 3523
206 40 1679
207 40 3688
208 40 3953
209 40 2450
210 40 2377
211 40 1701
212 40 3439
213 40 2327
214 40 3086
215 40 3405
216 40 1793
217 40 2944
218 40 3127
219 40 2641
220 40 2434
221 40 1726
222 40 2089
223 40 2215
224 40 1561
225 40 4807
226 40 4048
227 40 3898
228 40 2212
229 40 1744
230 40 2219
231 40 1221
232 40 2805
233 40 4624
234 40 3755
235 40 2193
236 40 3440
237 40 2037
238 40 3244
239 40 4144
240 40 4866
241 40 2199
242 40 2867
243 40 2774
244 40 3008
245 40 3293
246 40 3883
247 40 2510
248 40 2725
249 40 3784
250 40 2614
251 40 3782
252 40 2477
253 40 3394
254 40 2623
255 40 2983
256 40 2294
257 40 1193
258 40 1054
259 40 2508
260 40 2858
261 40 1375
262 40 3967
263 40 3259
264 40 1500
265 40 3510
266 40 2570
267 40 2157
268 40 1117
269 40 3189
270 40 2410
271 40 2244
272 40 1923
273 40 2310
274 40 2501
275 40 2688
276 40 2764
277 40 2354
278 40 3969
279 40 2504
280 40 3651
281 40 4192
282 40 2353
283 40 1935
284 40 1523
285 40 2395
286 40 1658
287 40 3716
288 40 2360
289 40 2471
290 40 1352
291 40 1653
292 40 2816
293 40 2739
294 40 1503
295 40 2366
296 40 2486
297 40 3261
298 40 2656
299 40 3950
300 40 1129
301 40 2500
302 40 2655
303 40 1462
304 40 3263
305 40 1466
306 40 1701
307 40 4035
308 40 1507
309 40 1909
310 40 2282
311 40 3598
312 40 4148
313 40 2726
314 40 1856
315 40 2470
316 40 3519
317 40 1811
318 40 2081
319 40 2881
320 40 3279
321 40 3153
322 40 388
323 40 3265
324 40 1306
325 40 2942
326 40 2169
327 40 1688
328 40 2061
329 40 2203
330 40 3226
331 40 1943
332 40 2978
333 40 3311
334 40 1644
335 40 2187
336 40 1306
337 40 2579
338 40 2341
339 40 1213
340 40 3227
341 40 865
342 40 2107
343 40 1207
344 40 3148
345 40 3755
346 40 1275
347 40 1407
348 40 3268
349 40 3301
350 40 2756
351 40 878
352 40 4224
353 40 3514
354 40 2053
355 40 3140
356 40 2523
357 40 4524
358 40 3266
359 40 3310
360 40 5634
361 40 3010
362 40 4043
363 40 1362
364 40 2205
365 40 2674
366 40 1097
367 40 1871
368 40 3483
369 40 1409
370 40 2497
371 40 1360
372 40 2928
373 40 1402
374 40 2970
375 40 2809
376 40 3281
377 40 1200
378 40 4669
379 40 2580
380 40 1422
381 40 3224
382 40 1942
383 40 3328
384 40 609
385 40 2794
386 40 2393
387 40 1693
388 40 2753
389 40 2029
390 40 3843
391 40 3031
392 40 1822
393 40 2758
394 40 2486
395 40 3126
396 40 1851
397 40 2723
398 40 3036
399 40 3297
400 40 4020
401 40 2154
402 40 2771
403 40 2344
404 40 5746
405 40 4922
406 40 2857
407 40 3280
408 40 3309
409 40 1806
410 40 2601
411 40 1627
412 40 2824
413 40 2844
414 40 1878
415 40 2056
416 40 1893
417 40 2423
418 40 3109
419 40 1313
420 40 2086
421 40 3368
422 40 2182
423 40 1289
424 40 1168
425 40 1277
426 40 2146
427 40 3200
428 40 1823
429 40 3423
430 40 3516
431 40 2721
432 40 1778
433 40 2380
434 40 2181
435 40 1648
436 40 1938
437 40 2158
438 40 2556
439 40 1774
440 40 4024
441 40 2558
442 40 2606
443 40 2144
444 40 2696
445 40 1502
446 40 2569
447 40 3085
448 40 2204
449 40 1923
450 40 4067
451 40 2057
452 40 2668
453 40 2080
454 40 1282
455 40 1864
456 40 3584
457 40 2683
458 40 2943
459 40 1297
460 40 1724
461 40 2038
462 40 1906
463 40 2068
464 40 2359
465 40 4209
466 40 2602
467 40 2220
468 40 1640
469 40 3201
470 40 3463
471 40 3158
472 40 4661
473 40 2852
474 40 1475
475 40 1216
476 40 1766
477 40 1385
478 40 2661
479 40 3102
480 40 1873
481 40 3515
482 40 4648
483 40 4395
484 40 3068
485 40 1658
486 40 2063
487 40 3142
488 40 1799
489 40 1961
490 40 1151
491 40 735
492 40 4071
493 40 2010
494 40 2304
495 40 2495
496 40 1954
497 40 3332
498 40 4766
499 40 2887
500 40 2880
1 41 6
3 41 24
4 41 6
6 41 30
7 41 23
10 41 1
11 41 4
12 41 33
14 41 26
15 41 4
17 41 5
18 41 3
20 41 2
21 41 18
22 41 6
24 41 5
26 41 3
27 41 8
29 41 1
30 41 35
31 41 4
32 41 9
33 41 10
34 41 16
36 41 11
37 41 4
38 41 5
40 41 3
41 41 14
42 41 4
45 41 25
46 41 22
47 41 6
48 41 8
49 41 7
50 41 17
52 41 1
53 41 6
54 41 4
55 41 9
56 41 6
57 41 26
58 41 15
60 41 14
61 41 9
63 41 2
64 41 3
65 41 7
66 41 5
67 41 6
69 41 13
70 41 3
71 41 18
73 41 5
76 41 16
78 41 4
79 41 2
80 41 4
81 41 22
82 41 5
84 41 28
87 41 2
89 41 7
90 41 1
91 41 6
92 41 15
93 41 4
96 41 6
97 41 2
98 41 20
99 41 4
100 41 9
102 41 5
103 41 3
104 41 13
105 41 5
106 41 13
108 41 15
109 41 2
110 41 4
112 41 8
114 41 4
116 41 5
117 41 1
119 41 14
120 41 7
122 41 7
123 41 4
124 41 13
125 41 7
126 41 5
128 41 6
131 41 22
133 41 32
134 41 11
136 41 17
138 41 6
139 41 7
140 41 10
141 41 15
142 41 11
143 41 5
145 41 5
146 41 6
147 41 5
148 41 18
150 41 3
151 41 11
152 41 2
153 41 5
154 41 23
155 41 8
156 41 3
157 41 2
159 41 2
160 41 7
161 41 3
162 41 2
163 41 7
166 41 12
169 41 3
170 41 9
171 41 4
172 41 29
174 41 9
175 41 16
176 41 1
177 41 9
178 41 9
179 41 10
180 41 3
181 41 19
182 41 10
183 41 2
184 41 7
187 41 31
188 41 2
189 41 10
190 41 1
191 41 5
192 41 13
197 41 10
198 41 1
199 41 4
200 41 23
201 41 2
202 41 5
205 41 4
208 41 2
210 41 3
211 41 5
214 41 3
215 41 8
217 41 13
218 41 2
219 41 2
220 41 7
221 41 5
222 41 12
224 41 2
227 41 3
228 41 6
229 41 1
230 41 4
231 41 11
232 41 6
234 41 1
236 41 2
237 41 23
238 41 30
239 41 15
241 41 11
242 41 5
243 41 6
244 41 5
245 41 29
246 41 4
247 41 4
248 41 6
249 41 12
251 41 7
253 41 4
254 41 11
255 41 14
258 41 6
262 41 3
263 41 3
264 41 9
265 41 3
266 41 6
267 41 3
268 41 1
269 41 9
270 41 28
271 41 7
273 41 2
274 41 9
275 41 9
276 41 5
277 41 54
278 41 66
279 41 12
280 41 2
281 41 7
282 41 7
283 41 8
284 41 3
285 41 7
288 41 2
289 41 6
290 41 26
292 41 7
294 41 23
295 41 5
296 41 22
298 41 9
300 41 2
301 41 11
302 41 5
303 41 6
306 41 1
308 41 23
309 41 10
310 41 5
313 41 4
314 41 17
315 41 12
316 41 5
317 41 1
319 41 5
320 41 9
321 41 2
323 41 15
324 41 16
326 41 4
327 41 1
328 41 2
329 41 22
331 41 13
332 41 24
334 41 5
335 41 3
336 41 15
337 41 5
338 41 3
339 41 8
340 41 17
341 41 7
342 41 7
344 41 5
345 41 2
346 41 7
347 41 7
349 41 5
351 41 4
352 41 18
353 41 3
354 41 32
357 41 4
358 41 4
359 41 6
360 41 4
361 41 23
362 41 7
364 41 6
365 41 10
366 41 3
367 41 2
370 41 24
371 41 16
372 41 8
374 41 2
376 41 6
377 41 4
378 41 6
380 41 9
383 41 2
384 41 2
386 41 3
388 41 5
389 41 4
391 41 15
393 41 10
394 41 2
395 41 2
396 41 3
397 41 3
398 41 3
399 41 31
400 41 13
402 41 6
403 41 8
406 41 4
407 41 5
408 41 11
409 41 4
412 41 12
414 41 7
415 41 5
416 41 10
418 41 1
419 41 2
420 41 12
422 41 11
424 41 3
425 41 8
427 41 28
428 41 5
431 41 6
432 41 12
433 41 10
434 41 14
437 41 8
438 41 9
440 41 15
441 41 2
442 41 3
445 41 4
446 41 5
447 41 31
448 41 5
449 41 14
450 41 8
451 41 11
453 41 12
454 41 4
455 41 1
456 41 14
457 41 4
458 41 13
459 41 4
460 41 10
462 41 10
463 41 5
465 41 31
467 41 4
468 41 11
470 41 7
471 41 9
473 41 7
474 41 2
475 41 4
476 41 2
477 41 2
478 41 15
479 41 2
480 41 5
481 41 4
482 41 15
485 41 10
488 41 2
489 41 2
490 41 6
492 41 8
493 41 8
494 41 7
495 41 4
497 41 7
498 41 6
499 41 30
500 41 18
1 42 3754
2 42 2853
3 42 2520
4 42 1007
5 42 2487
6 42 2269
7 42 1453
8 42 2553
9 42 2315
10 42 2513
11 42 2885
12 42 1784
13 42 3593
14 42 2453
15 42 12
17 42 1460
18 42 910
19 42 3695
20 42 2043
21 42 2170
22 42 1620
24 42 2507
25 42 2221
26 42 2108
27 42 4608
28 42 2433
30 42 3006
31 42 3285
32 42 2818
33 42 710
34 42 1969
35 42 2462
36 42 3816
37 42 1974
38 42 1672
39 42 2826
40 42 2704
41 42 1886
42 42 2735
43 42 2108
44 42 809
45 42 2046
46 42 2341
47 42 2261
48 42 2527
49 42 972
50 42 3371
51 42 2705
52 42 2530
53 42 3706
54 42 3604
55 42 2588
56 42 2022
57 42 843
58 42 2192
59 42 2549
60 42 2650
61 42 2719
62 42 2550
63 42 2742
64 42 4161
65 42 3229
66 42 1480
67 42 2
68 42 1364
69 42 2121
70 42 3517
71 42 2309
72 42 4174
73 42 3054
74 42 4365
76 42 2173
77 42 2681
78 42 2591
79 42 2155
80 42 2111
81 42 4802
82 42 2354
83 42 2075
84 42 1619
85 42 2572
86 42 2826
87 42 2388
88 42 3529
89 42 2419
90 42 1898
91 42 1796
92 42 2913
93 42 1624
94 42 919
95 42 2032
96 42 4058
97 42 999
98 42 2891
99 42 3394
100 42 2566
101 42 2941
102 42 3035
103 42 1669
104 42 2556
105 42 1464
106 42 2678
107 42 2712
108 42 3101
109 42 2514
110 42 1556
111 42 2108
112 42 1975
113 42 2800
114 42 2360
115 42 1869
116 42 1898
117 42 490
118 42 3946
119 42 2550
120 42 2973
121 42 2035
122 42 3137
123 42 1499
124 42 2627
125 42 3376
126 42 2230
127 42 4221
128 42 1467
129 42 2648
130 42 6559
131 42 2385
132 42 2831
133 42 2192
134 42 2599
135 42 2329
136 42 2923
137 42 2162
138 42 6409
139 42 1768
140 42 2343
141 42 1513
142 42 2280
143 42 2572
144 42 1127
145 42 1796
146 42 945
147 42 1573
148 42 2231
149 42 4028
150 42 3199
151 42 2463
152 42 2474
153 42 2383
154 42 2379
155 42 3126
156 42 1533
157 42 4624
158 42 2403
159 42 3639
160 42 3355
161 42 2559
162 42 1623
163 42 3124
164 42 1949
165 42 2669
166 42 2442
167 42 1903
168 42 2508
169 42 3755
170 42 2555
171 42 2221
172 42 3013
173 42 1727
175 42 2896
177 42 4626
178 42 3145
179 42 3384
181 42 2944
182 42 4780
183 42 1825
184 42 2911
185 42 1978
186 42 1478
187 42 2922
188 42 1588
189 42 2779
190 42 2202
191 42 1729
192 42 3566
193 42 2394
194 42 2059
195 42 548
196 42 4349
197 42 1832
198 42 1666
199 42 4207
200 42 2759
201 42 1071
202 42 3641
204 42 2452
205 42 5132
206 42 1734
207 42 2109
208 42 2664
209 42 3037
210 42 1844
211 42 1988
212 42 4193
213 42 3034
214 42 3123
215 42 2371
216 42 537
217 42 2774
218 42 3718
219 42 3611
220 42 1831
221 42 1592
222 42 2112
223 42 1878
224 42 979
225 42 2636
226 42 3396
227 42 4092
228 42 2335
229 42 1392
230 42 1796
231 42 3332
232 42 1603
233 42 4200
234 42 2977
235 42 2758
236 42 3335
237 42 1745
238 42 2741
239 42 3437
240 42 2629
241 42 1922
242 42 1183
243 42 2143
244 42 1839
245 42 1729
246 42 2944
247 42 2398
248 42 1450
249 42 1441
250 42 3288
251 42 4072
252 42 2009
253 42 2274
254 42 2377
255 42 2024
256 42 999
258 42 3681
259 42 1777
260 42 4229
261 42 1257
262 42 2242
263 42 4117
264 42 1729
265 42 2306
266 42 4285
267 42 3162
268 42 2745
269 42 3006
270 42 1403
271 42 3452
272 42 1965
273 42 3125
274 42 2754
275 42 3330
276 42 1607
277 42 1904
278 42 2569
279 42 2328
280 42 1541
281 42 4827
282 42 2725
283 42 3524
284 42 400
285 42 2311
286 42 2364
287 42 2989
288 42 3542
289 42 1869
290 42 2530
291 42 1734
292 42 1740
293 42 2928
294 42 1806
295 42 2604
296 42 2119
297 42 2875
298 42 3557
299 42 2603
300 42 1283
301 42 1472
302 42 3545
303 42 431
304 42 3719
305 42 1676
306 42 917
307 42 1840
308 42 3135
309 42 2798
310 42 2036
311 42 2166
312 42 3514
313 42 3497
314 42 3281
315 42 2039
316 42 1215
317 42 544
318 42 1162
319 42 2742
320 42 3432
321 42 2105
322 42 1643
323 42 2921
324 42 1767
325 42 3134
326 42 1112
328 42 2261
329 42 1539
330 42 2452
331 42 4202
332 42 3628
333 42 2321
334 42 2334
335 42 2659
336 42 1796
337 42 2762
338 42 2922
339 42 1531
340 42 4404
341 42 3898
342 42 3112
343 42 2213
344 42 2343
345 42 1404
347 42 1480
348 42 3844
349 42 1649
350 42 1882
352 42 4133
353 42 2819
354 42 895
355 42 4340
356 42 2093
357 42 3499
358 42 2719
359 42 2696
360 42 2396
361 42 3775
362 42 4194
363 42 1510
364 42 3937
365 42 2330
366 42 3660
368 42 2826
370 42 2006
371 42 2202
372 42 1545
373 42 1915
374 42 419
375 42 3975
376 42 3619
377 42 1396
378 42 3433
379 42 1806
380 42 925
381 42 2805
382 42 3166
383 42 4192
385 42 2894
386 42 2070
387 42 3830
388 42 1260
389 42 1747
390 42 2797
391 42 2751
392 42 1949
393 42 4366
394 42 4000
395 42 2594
396 42 2363
397 42 2146
398 42 431
399 42 1707
400 42 4454
401 42 3482
402 42 1686
403 42 1900
404 42 2860
405 42 2564
406 42 1679
407 42 5349
408 42 4393
409 42 1627
410 42 1164
411 42 927
412 42 1963
413 42 6535
414 42 3378
415 42 4002
416 42 2107
417 42 2028
418 42 3073
419 42 1
420 42 1572
421 42 3850
422 42 2603
423 42 1958
424 42 1451
426 42 3565
427 42 2972
428 42 973
429 42 1908
430 42 5452
431 42 2570
432 42 2240
433 42 2981
434 42 3938
435 42 1961
436 42 3702
437 42 1906
438 42 2379
439 42 626
440 42 4310
441 42 1467
442 42 1557
443 42 1997
444 42 2481
445 42 2363
446 42 3496
447 42 3774
448 42 1903
449 42 2471
450 42 4229
451 42 2125
452 42 3528
453 42 1882
454 42 2556
455 42 1464
456 42 2678
457 42 2812
458 42 2040
459 42 1427
460 42 3043
461 42 909
462 42 1510
463 42 2926
464 42 2032
465 42 1756
466 42 3510
467 42 3279
468 42 1955
469 42 5209
470 42 2366
471 42 2925
472 42 4273
473 42 3345
474 42 430
475 42 2823
476 42 1581
477 42 2585
478 42 2358
479 42 1992
480 42 3053
481 42 2804
482 42 3409
483 42 3114
484 42 1911
485 42 1274
486 42 1925
487 42 1921
488 42 1565
489 42 1313
490 42 1515
492 42 2370
493 42 3100
494 42 2269
495 42 2125
496 42 1717
497 42 5195
498 42 3215
499 42 1891
500 42 2671
1 43 2770
2 43 1422
3 43 1488
4 43 700
5 43 3116
6 43 2552
7 43 2665
8 43 888
9 43 2874
10 43 2394
11 43 2015
12 43 1695
13 43 1818
14 43 1773
15 43 25
16 43 10
17 43 1875
18 43 1786
19 43 2710
20 43 1435
21 43 2256
22 43 1303
24 43 3045
25 43 1253
26 43 1445
27 43 2030
28 43 2591
30 43 1794
31 43 1594
32 43 3469
33 43 933
34 43 1059
35 43 3157
36 43 2684
37 43 666
38 43 1786
39 43 2859
40 43 1546
41 43 2966
42 43 2633
43 43 1580
44 43 1373
45 43 2443
46 43 1504
47 43 1663
48 43 1754
49 43 1137
50 43 1972
51 43 1609
52 43 1086
53 43 2033
54 43 2253
55 43 1948
56 43 2254
57 43 1490
58 43 1279
59 43 1699
60 43 3799
61 43 2504
62 43 2036
63 43 3002
64 43 2280
65 43 1629
66 43 2693
67 43 6
68 43 527
69 43 2564
70 43 1922
71 43 656
72 43 1783
73 43 2204
74 43 1829
76 43 3023
77 43 1694
78 43 2350
79 43 1404
80 43 1615
81 43 2436
82 43 2676
83 43 3958
84 43 909
85 43 3710
86 43 2448
87 43 3128
88 43 2340
89 43 2691
90 43 1508
91 43 1874
92 43 1660
93 43 552
94 43 1423
95 43 2416
96 43 2423
97 43 930
98 43 2250
99 43 1579
100 43 2640
101 43 1865
102 43 2349
103 43 1355
104 43 1660
105 43 553
106 43 3893
107 43 3046
108 43 2618
109 43 1699
110 43 1111
111 43 1242
112 43 1630
113 43 1884
114 43 969
115 43 860
116 43 1900
117 43 241
118 43 4393
119 43 3624
120 43 2265
121 43 1457
122 43 2926
123 43 983
124 43 2182
125 43 2558
126 43 908
127 43 1827
128 43 3152
129 43 1576
130 43 5408
131 43 3403
132 43 1697
133 43 1392
134 43 3211
135 43 1128
136 43 4071
137 43 1286
138 43 3139
139 43 1400
140 43 1646
141 43 1017
142 43 2205
143 43 2451
144 43 1036
145 43 1032
146 43 637
147 43 1522
148 43 1021
149 43 3072
150 43 3040
151 43 3137
152 43 1932
153 43 2966
154 43 3417
155 43 3170
156 43 2171
157 43 2319
158 43 2168
159 43 1959
160 43 3407
161 43 2261
162 43 1149
163 43 2685
164 43 1368
165 43 2244
166 43 1816
167 43 1482
168 43 2876
169 43 4070
170 43 1321
171 43 1323
172 43 3126
173 43 1679
175 43 2273
177 43 2341
178 43 1324
179 43 1781
181 43 1679
182 43 2996
183 43 2387
184 43 1841
185 43 2158
186 43 1728
187 43 1645
188 43 1143
189 43 2933
190 43 1791
191 43 1127
192 43 2136
193 43 1416
194 43 2810
195 43 291
196 43 1782
197 43 1124
198 43 1437
199 43 3275
200 43 3040
201 43 1438
202 43 3279
204 43 3241
205 43 4605
206 43 2181
207 43 1498
208 43 1876
209 43 939
210 43 1192
211 43 2381
212 43 4326
213 43 2349
214 43 2217
215 43 2685
216 43 324
217 43 2273
218 43 2882
219 43 3422
220 43 1987
221 43 2181
222 43 2530
223 43 1352
224 43 946
225 43 3108
226 43 1891
227 43 1155
228 43 2550
229 43 688
230 43 2188
231 43 2318
232 43 1667
233 43 2055
234 43 1364
235 43 4327
236 43 2526
237 43 2754
238 43 2254
239 43 1799
240 43 2500
241 43 1084
242 43 1372
243 43 1859
244 43 1862
245 43 3297
246 43 1078
247 43 1610
248 43 2142
249 43 2427
250 43 3960
251 43 1222
252 43 2640
253 43 2682
254 43 2336
255 43 2476
256 43 1429
258 43 861
259 43 1713
260 43 3137
261 43 1541
262 43 1300
263 43 3004
264 43 1660
265 43 2570
266 43 3299
267 43 2351
268 43 1566
269 43 3214
270 43 2597
271 43 1049
272 43 1987
273 43 1849
274 43 1357
275 43 2049
276 43 1279
277 43 1791
278 43 3116
279 43 1670
280 43 1449
281 43 5221
282 43 2486
283 43 2773
284 43 1290
285 43 1598
286 43 2952
287 43 1913
288 43 1539
289 43 1019
290 43 3306
291 43 2114
292 43 1523
293 43 2235
294 43 1222
295 43 2035
296 43 2599
297 43 1764
298 43 2942
299 43 2182
300 43 655
301 43 1897
302 43 2952
303 43 1265
304 43 2388
305 43 1233
306 43 1891
307 43 1522
308 43 2603
309 43 1363
310 43 1262
311 43 1496
312 43 1511
313 43 2915
314 43 1979
315 43 1296
316 43 693
317 43 241
318 43 1825
319 43 1321
320 43 1877
321 43 1431
322 43 1274
323 43 1824
324 43 1368
325 43 2480
326 43 1602
328 43 1690
329 43 1018
330 43 1864
331 43 1810
332 43 1208
333 43 2308
334 43 2260
335 43 2071
336 43 1369
337 43 2426
338 43 2300
339 43 1053
340 43 2309
341 43 2896
342 43 2234
343 43 2998
344 43 1590
345 43 1995
347 43 586
348 43 2507
349 43 1382
350 43 1784
352 43 2562
353 43 1346
354 43 1485
355 43 1774
356 43 3203
357 43 2812
358 43 1657
359 43 1284
360 43 894
361 43 1690
362 43 3375
363 43 934
364 43 930
365 43 2252
366 43 886
368 43 2217
369 43 12
370 43 2540
371 43 1214
372 43 2108
373 43 1582
374 43 576
375 43 2993
376 43 3956
377 43 901
378 43 3527
379 43 1006
380 43 667
381 43 1741
382 43 2942
383 43 1381
385 43 1857
386 43 1953
387 43 2889
388 43 1433
389 43 1041
390 43 1969
391 43 2490
392 43 766
393 43 2419
394 43 3449
395 43 1475
396 43 2663
397 43 780
398 43 520
399 43 3402
400 43 1994
401 43 2313
402 43 2517
403 43 2954
404 43 1394
405 43 2539
406 43 2978
407 43 4993
408 43 3577
409 43 1653
410 43 662
411 43 1560
412 43 2467
413 43 5472
414 43 1512
415 43 1945
416 43 1240
417 43 1447
418 43 2205
419 43 8
420 43 1194
421 43 3610
422 43 3442
423 43 710
424 43 1497
426 43 2275
427 43 1801
428 43 1988
429 43 2723
430 43 1672
431 43 1987
432 43 2617
433 43 2338
434 43 912
435 43 1962
436 43 1861
437 43 2066
438 43 2343
439 43 248
440 43 2058
441 43 1981
442 43 1105
443 43 918
444 43 3678
445 43 1276
446 43 2498
447 43 1660
448 43 3203
449 43 1368
450 43 2128
451 43 3258
452 43 1028
453 43 2105
454 43 2508
455 43 528
456 43 2538
457 43 1761
458 43 2487
459 43 1967
460 43 2078
461 43 1811
462 43 3081
463 43 2256
464 43 2529
465 43 1891
466 43 1804
467 43 2262
468 43 1731
469 43 3251
470 43 2642
471 43 2742
472 43 2148
473 43 1312
474 43 1345
475 43 3601
476 43 674
477 43 2550
478 43 2324
479 43 1823
480 43 2445
481 43 1363
482 43 3722
483 43 1824
484 43 2814
485 43 726
486 43 861
487 43 2704
488 43 3148
489 43 1538
490 43 2232
492 43 2716
493 43 1133
494 43 1572
495 43 1278
496 43 2253
497 43 1613
498 43 3538
499 43 1513
500 43 4513
1 44 5411
2 44 3731
3 44 4647
4 44 3965
5 44 2705
6 44 4689
7 44 4059
8 44 4311
9 44 6346
10 44 5813
11 44 8281
12 44 2188
13 44 11224
14 44 3933
15 44 2
17 44 3948
18 44 3410
19 44 7477
20 44 5233
21 44 4637
22 44 2452
24 44 6735
25 44 5153
26 44 3412
27 44 6891
28 44 5568
30 44 3245
31 44 11201
32 44 4117
33 44 1300
34 44 5658
35 44 5107
36 44 5430
37 44 3292
38 44 3227
39 44 3976
40 44 4466
41 44 3319
42 44 3018
43 44 2948
44 44 4533
45 44 7649
46 44 5598
47 44 3675
48 44 2921
49 44 1195
50 44 3626
51 44 3605
52 44 3602
53 44 5646
54 44 6973
55 44 5969
56 44 9303
57 44 3622
58 44 2443
59 44 5701
60 44 6147
61 44 3624
62 44 3916
63 44 2354
64 44 8286
65 44 4751
66 44 4650
68 44 2300
69 44 4272
70 44 2248
71 44 4610
72 44 6667
73 44 5104
74 44 6812
76 44 7274
77 44 3683
78 44 3910
79 44 7668
80 44 3031
81 44 5063
82 44 6766
83 44 5270
84 44 9006
85 44 3184
86 44 3832
87 44 4806
88 44 4498
89 44 6750
90 44 3314
91 44 2416
92 44 4687
93 44 1433
94 44 4832
95 44 3159
96 44 5363
97 44 3022
98 44 6042
99 44 8577
100 44 2235
101 44 5378
102 44 4915
103 44 2108
104 44 3906
105 44 2949
106 44 6118
107 44 5140
108 44 5396
109 44 3219
110 44 1273
111 44 5051
112 44 4326
113 44 2408
114 44 3428
115 44 3547
116 44 6043
117 44 63
118 44 4625
119 44 4617
120 44 5143
121 44 4329
122 44 5707
123 44 3051
124 44 4085
125 44 3762
126 44 3860
127 44 6786
128 44 5289
129 44 4250
130 44 8817
131 44 5714
132 44 3540
133 44 4773
134 44 3895
135 44 3244
136 44 5634
137 44 5134
138 44 9394
139 44 3928
140 44 6760
141 44 6681
142 44 4229
143 44 4243
144 44 1885
145 44 6365
146 44 2517
147 44 1986
148 44 4864
149 44 6339
150 44 5639
151 44 3961
152 44 3698
153 44 4902
154 44 5758
155 44 3654
156 44 5986
157 44 4950
158 44 6492
159 44 6448
160 44 4846
161 44 4719
162 44 4361
163 44 3025
164 44 4952
165 44 7266
166 44 5688
167 44 7751
168 44 3066
169 44 4376
170 44 5356
171 44 4921
172 44 10450
173 44 3445
175 44 6082
177 44 4934
178 44 3387
179 44 3132
181 44 3971
182 44 7782
183 44 8270
184 44 5338
185 44 4890
186 44 3700
187 44 6006
188 44 1010
189 44 7188
190 44 5810
191 44 4480
192 44 5449
193 44 3684
194 44 5757
195 44 407
196 44 6601
197 44 1637
198 44 1142
199 44 6202
200 44 6717
201 44 4037
202 44 5715
204 44 5067
205 44 8572
206 44 5229
207 44 5034
208 44 4932
209 44 6417
210 44 4613
211 44 3294
212 44 8262
213 44 6879
214 44 5068
215 44 3547
216 44 447
217 44 3250
218 44 3627
219 44 5682
220 44 4527
221 44 3896
222 44 6367
223 44 2269
224 44 3002
225 44 5051
226 44 4712
227 44 6160
228 44 5121
229 44 6051
230 44 5058
231 44 5842
232 44 4135
233 44 6502
234 44 4788
235 44 7682
236 44 9851
237 44 5049
238 44 8721
239 44 4812
240 44 6236
241 44 5677
242 44 3300
243 44 6984
244 44 3622
245 44 6460
246 44 6377
247 44 6117
248 44 3767
249 44 8041
250 44 6285
251 44 6070
252 44 6316
253 44 3593
254 44 6672
255 44 7760
256 44 5001
258 44 3023
259 44 3552
260 44 4400
261 44 3808
262 44 3777
263 44 4398
264 44 4361
265 44 6342
266 44 6822
267 44 4460
268 44 3693
269 44 3659
270 44 4101
271 44 7713
272 44 2468
273 44 3624
274 44 4851
275 44 4684
276 44 4409
277 44 5925
278 44 6432
279 44 6117
280 44 2380
281 44 9725
282 44 4843
283 44 4828
284 44 6605
285 44 6110
286 44 6285
287 44 3925
288 44 6141
289 44 5709
290 44 3248
291 44 5253
292 44 4095
293 44 3860
294 44 3130
295 44 3408
296 44 3742
297 44 10741
298 44 4430
299 44 5295
300 44 1201
301 44 4236
302 44 4480
303 44 6634
304 44 4259
305 44 3729
306 44 3415
307 44 7679
308 44 5520
309 44 7903
310 44 4222
311 44 5102
312 44 3400
313 44 4438
314 44 3676
315 44 4125
316 44 1439
317 44 79
318 44 4740
319 44 3120
320 44 4962
321 44 5123
322 44 5810
323 44 5288
324 44 2009
325 44 3620
326 44 4624
328 44 5787
329 44 6713
330 44 8382
331 44 2988
332 44 6346
333 44 4098
334 44 5913
335 44 4433
336 44 1931
337 44 6860
338 44 5039
339 44 2513
340 44 3689
341 44 6177
342 44 3567
343 44 3194
344 44 3564
345 44 4240
347 44 2973
348 44 4236
349 44 2171
350 44 3926
352 44 2693
353 44 5870
354 44 3545
355 44 6734
356 44 3508
357 44 7130
358 44 4405
359 44 3394
360 44 4727
361 44 5694
362 44 5479
363 44 1461
364 44 3255
365 44 6645
366 44 3023
368 44 4139
369 44 3
370 44 3737
371 44 2412
372 44 4956
373 44 3504
374 44 476
375 44 6436
376 44 7838
377 44 1256
378 44 4766
379 44 2688
380 44 2563
381 44 10932
382 44 4598
383 44 4768
385 44 4208
386 44 8169
387 44 6190
388 44 3740
389 44 6431
390 44 2484
391 44 5430
392 44 3438
393 44 2507
394 44 7435
395 44 8549
396 44 4366
397 44 6566
398 44 529
399 44 6269
400 44 4783
401 44 4277
402 44 3676
403 44 4509
404 44 8196
405 44 6295
406 44 4842
407 44 6454
408 44 5120
409 44 6638
410 44 5674
411 44 8689
412 44 3718
413 44 8542
414 44 8309
415 44 7590
416 44 4222
417 44 4274
418 44 5107
420 44 3882
421 44 7355
422 44 5547
423 44 2185
424 44 2687
426 44 4214
427 44 5156
428 44 3160
429 44 4519
430 44 10614
431 44 5894
432 44 5005
433 44 4915
434 44 3408
435 44 1952
436 44 11753
437 44 3922
438 44 6629
439 44 1197
440 44 4875
441 44 2816
442 44 3009
443 44 5969
444 44 3054
445 44 3073
446 44 7286
447 44 5699
448 44 3925
449 44 4936
450 44 4984
451 44 6285
452 44 3718
453 44 3977
454 44 4140
455 44 5894
456 44 3834
457 44 6085
458 44 7796
459 44 4022
460 44 4230
461 44 3493
462 44 5281
463 44 5766
464 44 5251
465 44 4045
466 44 5153
467 44 4490
468 44 5491
469 44 5390
470 44 3497
471 44 6079
472 44 6450
473 44 5648
474 44 6678
475 44 9131
476 44 4830
477 44 3545
478 44 6687
479 44 5239
480 44 5890
481 44 5883
482 44 6655
483 44 5996
484 44 6921
485 44 763
486 44 1641
487 44 6946
488 44 5228
489 44 1525
490 44 5445
492 44 5279
493 44 2486
494 44 3928
495 44 8831
496 44 2404
497 44 4621
498 44 7879
499 44 1743
500 44 3623
1 45 5
3 45 4790
6 45 3779
7 45 2201
10 45 3144
21 45 2812
24 45 3433
27 45 2948
30 45 5024
31 45 2310
32 45 3593
35 45 5
36 45 11
38 45 1889
39 45 3314
41 45 3335
42 45 3305
50 45 3177
51 45 1090
53 45 3602
55 45 1431
56 45 624
59 45 8
60 45 4509
63 45 3427
64 45 3132
71 45 8
73 45 2987
76 45 348
77 45 1136
78 45 2457
81 45 3210
83 45 10
88 45 1660
99 45 3754
106 45 4489
107 45 2483
108 45 5084
112 45 4945
114 45 4556
118 45 7796
119 45 4623
122 45 3822
126 45 18
128 45 4332
130 45 3221
131 45 3965
133 45 5751
134 45 4488
136 45 2709
138 45 3894
140 45 432
142 45 4043
148 45 3542
150 45 3671
154 45 4049
155 45 3651
157 45 172
160 45 3700
161 45 3860
163 45 5408
166 45 4784
169 45 3312
172 45 3444
177 45 155
181 45 3886
182 45 4029
184 45 2161
187 45 4492
189 45 2729
199 45 14
200 45 191
204 45 4
205 45 3268
207 45 2364
208 45 2890
209 45 4011
211 45 1723
212 45 4208
214 45 3622
215 45 1099
217 45 2846
218 45 4002
221 45 3396
222 45 4521
225 45 3918
226 45 4461
227 45 4835
231 45 2978
233 45 3538
235 45 4506
236 45 4743
238 45 2922
239 45 2708
240 45 3331
245 45 2232
246 45 2395
247 45 66
249 45 6659
250 45 2899
251 45 4841
253 45 1105
254 45 3226
260 45 3283
263 45 3887
265 45 3942
266 45 3818
269 45 3710
270 45 2257
271 45 4907
274 45 4595
278 45 3568
279 45 70
281 45 4743
282 45 1328
285 45 72
287 45 3037
290 45 2542
293 45 5253
298 45 1709
302 45 1698
304 45 3599
308 45 4942
311 45 2410
312 45 2479
313 45 1822
314 45 3218
315 45 4021
319 45 3426
320 45 4795
323 45 2714
330 45 5236
332 45 3174
337 45 5101
340 45 3323
341 45 4573
342 45 4015
345 45 754
348 45 3489
352 45 6785
353 45 14
357 45 3891
358 45 4815
360 45 2900
361 45 2065
362 45 4082
364 45 6163
365 45 3057
376 45 3957
378 45 5072
393 45 3848
394 45 2512
395 45 4278
399 45 2224
401 45 3902
403 45 4830
404 45 4215
405 45 3378
406 45 893
407 45 2914
408 45 4342
413 45 3424
414 45 3690
415 45 2150
418 45 3535
421 45 4776
422 45 3861
426 45 3788
427 45 2750
430 45 2912
431 45 1423
432 45 6
434 45 6281
438 45 3190
446 45 4885
447 45 2061
460 45 808
462 45 4406
464 45 3877
469 45 3263
470 45 1095
471 45 4164
472 45 3560
478 45 3079
481 45 21
482 45 3185
483 45 3879
484 45 4371
487 45 4366
488 45 4377
492 45 2131
496 45 3918
497 45 1200
498 45 3841
1 46 10
2 46 20
4 46 23553
5 46 10208
8 46 4
9 46 3
10 46 23
11 46 14
12 46 189
13 46 7
15 46 11543
16 46 17111
17 46 21079
18 46 24180
22 46 11166
23 46 16854
24 46 2
25 46 2
26 46 11478
28 46 6
29 46 7589
33 46 18304
34 46 10308
35 46 7
36 46 4
37 46 23356
40 46 3
41 46 3
42 46 3
43 46 4
44 46 27
45 46 14
46 46 8
47 46 27
48 46 1
49 46 10820
51 46 3
52 46 5
53 46 11
54 46 9
55 46 6
57 46 20
58 46 11530
59 46 4
61 46 3
62 46 492
63 46 14
66 46 2414
67 46 8163
68 46 19981
69 46 131
70 46 3
73 46 17
75 46 21418
77 46 8
79 46 6
82 46 1
83 46 8
84 46 33155
85 46 2
86 46 2717
89 46 7
90 46 15362
91 46 13851
93 46 13348
94 46 10782
95 46 6
96 46 11
97 46 19890
99 46 7
100 46 31
101 46 2
102 46 127
103 46 18414
104 46 9
105 46 22914
108 46 2
109 46 7
110 46 16547
111 46 4
113 46 12
114 46 3
115 46 16836
116 46 5
117 46 18818
119 46 9
120 46 6
123 46 6
124 46 5
129 46 5
130 46 12
135 46 1169
136 46 8
137 46 7
139 46 3
141 46 7
144 46 5747
146 46 28819
147 46 3071
149 46 8
151 46 35
152 46 6
155 46 5
156 46 21
157 46 5
158 46 26
159 46 4
163 46 4
165 46 2
169 46 11
170 46 4
171 46 67
173 46 6892
174 46 12386
176 46 30678
177 46 5
179 46 18
180 46 7491
182 46 4
183 46 19
184 46 11
185 46 4
186 46 6
188 46 18524
191 46 538
195 46 22913
197 46 25299
198 46 14331
199 46 2
201 46 33247
203 46 24207
204 46 7
205 46 7
206 46 5
207 46 8
210 46 521
213 46 4
215 46 16
216 46 22983
220 46 2
223 46 2
224 46 20109
227 46 3
229 46 17371
230 46 3
231 46 6
232 46 4
234 46 4
238 46 4
240 46 3
241 46 10167
242 46 26
244 46 4
245 46 19
248 46 4
250 46 9
251 46 8
252 46 7
253 46 25
255 46 16
256 46 10742
257 46 15672
258 46 7
259 46 6836
260 46 7
261 46 18484
264 46 359
267 46 7
268 46 9758
269 46 3
272 46 5
273 46 8
276 46 4
286 46 1
290 46 6
291 46 1
292 46 2
294 46 6
296 46 6
297 46 2
300 46 21303
301 46 214
305 46 14049
306 46 24341
308 46 2
309 46 4
311 46 5
316 46 18845
317 46 18523
318 46 23322
321 46 12
322 46 2
324 46 16441
325 46 5
327 46 7681
329 46 7
333 46 1
334 46 47
335 46 20
336 46 16351
338 46 8
339 46 15905
342 46 8
345 46 15
346 46 6994
347 46 22998
349 46 18596
350 46 8
351 46 16404
353 46 7
354 46 23
359 46 18
362 46 4
363 46 20589
366 46 3
367 46 11395
368 46 10
369 46 17169
370 46 8
371 46 11604
373 46 5
374 46 17422
375 46 7
377 46 26073
379 46 9
380 46 28752
381 46 5
384 46 17224
385 46 5
388 46 16239
390 46 5
391 46 11
392 46 8598
397 46 28
398 46 17414
399 46 25
405 46 7
406 46 6
407 46 5
408 46 11
409 46 7311
410 46 16656
411 46 22003
413 46 8
414 46 2
415 46 4
416 46 18
417 46 8
419 46 15507
421 46 14
423 46 22904
424 46 12231
425 46 7187
428 46 23376
431 46 4
432 46 4
433 46 10
436 46 9
437 46 20
439 46 33831
441 46 18078
442 46 20295
444 46 5
445 46 7825
448 46 17
449 46 7
451 46 6
452 46 3064
453 46 14
458 46 22
459 46 16166
461 46 15476
463 46 12
466 46 12
467 46 4
468 46 889
470 46 15
475 46 8
476 46 15654
477 46 5
479 46 4
480 46 9
481 46 6
485 46 24434
486 46 24508
489 46 10239
491 46 13961
492 46 6
494 46 4
495 46 4
498 46 7
499 46 16
3 47 2383
6 47 3578
7 47 2352
21 47 2265
27 47 3528
30 47 1271
31 47 4874
32 47 2807
38 47 65
50 47 1914
51 47 18
55 47 5
60 47 1848
77 47 18
78 47 39
79 47 1
81 47 2401
99 47 2891
106 47 1847
108 47 1009
112 47 1620
114 47 1495
128 47 1988
131 47 3814
133 47 2956
142 47 3378
148 47 2992
154 47 3787
155 47 3239
161 47 1755
166 47 3277
181 47 1005
207 47 2002
209 47 2658
211 47 1617
214 47 1993
218 47 3242
221 47 2468
222 47 2243
225 47 1950
226 47 1702
227 47 3890
235 47 2656
239 47 3303
246 47 176
249 47 3666
251 47 3997
254 47 314
257 47 3
263 47 4390
265 47 2165
266 47 2446
269 47 3261
270 47 2365
271 47 2955
274 47 3236
287 47 2346
293 47 3214
298 47 268
302 47 251
304 47 1785
308 47 1046
311 47 2049
312 47 1135
313 47 274
314 47 1959
315 47 2102
319 47 2649
320 47 3109
323 47 2018
330 47 2785
332 47 2676
341 47 3192
345 47 17
348 47 1807
358 47 3211
360 47 2305
361 47 3474
364 47 3214
365 47 343
393 47 1895
395 47 1480
401 47 2772
404 47 2694
414 47 2810
415 47 294
418 47 1966
422 47 2944
426 47 2774
427 47 2056
431 47 5
434 47 3233
438 47 328
447 47 3408
462 47 1960
464 47 3601
471 47 2239
478 47 312
482 47 2938
483 47 3953
484 47 1965
487 47 1955
488 47 1989
492 47 4431
496 47 4074
1 48 7806
2 48 3693
3 48 6057
5 48 14
6 48 7265
7 48 10661
8 48 9554
9 48 7183
10 48 6150
11 48 5272
12 48 2728
13 48 6622
14 48 6227
19 48 4795
20 48 8873
21 48 7075
22 48 7
24 48 4785
25 48 6552
27 48 3342
28 48 5173
30 48 7662
31 48 6468
32 48 5642
34 48 26
35 48 6153
36 48 7789
37 48 2
38 48 2263
39 48 6215
40 48 3382
41 48 5912
42 48 8772
43 48 3768
44 48 4105
45 48 7350
46 48 3292
47 48 6153
48 48 4057
50 48 5344
51 48 3981
52 48 2662
53 48 7211
54 48 6082
55 48 3581
56 48 5193
57 48 4208
59 48 6865
60 48 4808
61 48 4416
62 48 4176
63 48 8405
64 48 9430
65 48 7524
66 48 328
69 48 1505
70 48 6941
71 48 6495
72 48 8033
73 48 5894
74 48 8272
76 48 10583
77 48 4013
78 48 5233
79 48 5188
80 48 5729
81 48 8003
82 48 3602
83 48 7078
84 48 2
85 48 9568
86 48 1240
87 48 3699
88 48 5002
89 48 3549
92 48 6482
94 48 20
95 48 5889
96 48 5853
98 48 4147
99 48 6444
100 48 2811
101 48 3702
102 48 2274
104 48 8757
106 48 4776
107 48 8760
108 48 4898
109 48 7929
111 48 6564
112 48 7918
113 48 4246
114 48 5074
116 48 8195
118 48 5794
119 48 7527
120 48 3642
121 48 12184
122 48 6482
123 48 4826
124 48 8286
125 48 4952
126 48 10158
127 48 8180
128 48 4335
129 48 7774
130 48 4999
131 48 5027
132 48 5230
133 48 7511
134 48 9190
135 48 2320
136 48 5674
137 48 6571
138 48 6416
139 48 3561
140 48 3050
141 48 3906
142 48 5510
143 48 6687
145 48 5719
147 48 75
148 48 6596
149 48 5507
150 48 6535
151 48 8367
152 48 6569
153 48 3785
154 48 5259
155 48 5401
156 48 4806
157 48 10008
158 48 5174
159 48 6374
160 48 3868
161 48 4857
162 48 3387
163 48 6953
164 48 4373
165 48 7450
166 48 7345
167 48 3858
168 48 5694
169 48 7095
170 48 7707
171 48 4552
172 48 9783
173 48 9
175 48 4231
177 48 9794
178 48 2815
179 48 5011
181 48 4264
182 48 4943
183 48 6238
184 48 3296
185 48 4309
186 48 4132
187 48 8140
189 48 4672
190 48 4405
191 48 1271
192 48 5943
193 48 4718
194 48 3979
196 48 8143
199 48 5853
200 48 6551
202 48 7090
204 48 6284
205 48 8145
206 48 17317
207 48 5260
208 48 4757
209 48 4803
210 48 1349
211 48 6636
212 48 6820
213 48 5182
214 48 6069
215 48 6393
217 48 3163
218 48 6272
219 48 7295
220 48 5664
221 48 2701
222 48 4885
223 48 3673
225 48 6489
226 48 7565
227 48 7078
228 48 4398
230 48 2694
231 48 4747
232 48 7439
233 48 6596
234 48 12806
235 48 7326
236 48 8317
237 48 4096
238 48 6794
239 48 5399
240 48 4188
241 48 34
242 48 5551
243 48 3484
244 48 5271
245 48 6415
246 48 5533
247 48 5694
248 48 3089
249 48 5419
250 48 6252
251 48 7360
252 48 4489
253 48 6282
254 48 4052
255 48 7362
256 48 18
258 48 8059
259 48 9
260 48 9453
262 48 3701
263 48 6766
264 48 2367
265 48 3874
266 48 5949
267 48 4910
268 48 90
269 48 5168
270 48 10884
271 48 7541
272 48 3128
273 48 7440
274 48 6163
275 48 4337
276 48 5076
277 48 4845
278 48 7160
279 48 5615
280 48 5413
281 48 9074
282 48 8820
283 48 5815
284 48 6619
285 48 5508
286 48 7316
287 48 5176
288 48 4495
289 48 2878
290 48 6121
291 48 17383
292 48 7531
293 48 4937
294 48 4556
295 48 6996
296 48 4835
297 48 3799
298 48 4566
299 48 4838
301 48 1684
302 48 4534
303 48 6701
304 48 7651
307 48 3792
308 48 4976
309 48 6803
310 48 3861
311 48 5261
312 48 7472
313 48 4673
314 48 5126
315 48 5078
319 48 7083
320 48 9018
321 48 4749
322 48 4281
323 48 8530
325 48 5457
326 48 4003
328 48 4532
329 48 3976
330 48 7700
331 48 4452
332 48 5206
333 48 4133
334 48 3263
335 48 4775
337 48 7691
338 48 3540
340 48 5433
341 48 6970
342 48 7113
343 48 3782
344 48 7394
345 48 4554
348 48 7822
350 48 6058
352 48 8391
353 48 4940
354 48 4123
355 48 8203
356 48 6137
357 48 8833
358 48 6770
359 48 6704
360 48 7020
361 48 7694
362 48 6195
364 48 8110
365 48 3993
366 48 7929
368 48 5082
370 48 4753
372 48 4101
373 48 5545
375 48 5473
376 48 5335
378 48 8651
379 48 5648
381 48 3905
382 48 5422
383 48 5987
385 48 6936
386 48 4732
387 48 4585
389 48 5688
390 48 4278
391 48 3497
393 48 6873
394 48 6067
395 48 3706
396 48 5572
397 48 5730
399 48 6540
400 48 5858
401 48 4663
402 48 5041
403 48 5810
404 48 4589
405 48 4358
406 48 6099
407 48 6929
408 48 6239
409 48 26
412 48 4338
413 48 5127
414 48 6496
415 48 4412
416 48 2990
417 48 4053
418 48 6040
420 48 6656
421 48 7144
422 48 4604
424 48 203
426 48 4738
427 48 8625
428 48 1
429 48 4851
430 48 4689
431 48 3676
432 48 3909
433 48 5066
434 48 8151
435 48 4761
436 48 6592
437 48 4220
438 48 4080
440 48 5815
443 48 4666
444 48 9469
445 48 105
446 48 6929
447 48 7462
448 48 3795
449 48 4043
450 48 5958
451 48 5237
452 48 449
453 48 4229
454 48 6753
455 48 4260
456 48 4652
457 48 5608
458 48 7315
459 48 1
460 48 6677
462 48 4324
463 48 4068
464 48 5913
465 48 3334
466 48 6939
467 48 5115
468 48 2085
469 48 5040
470 48 6465
471 48 4493
472 48 6769
473 48 5043
474 48 6705
475 48 4986
477 48 5271
478 48 3996
479 48 3068
480 48 4960
481 48 5031
482 48 4801
483 48 5658
484 48 5297
487 48 5147
488 48 4330
490 48 2527
492 48 4197
493 48 4716
494 48 3149
495 48 6424
496 48 4819
497 48 8068
498 48 6381
499 48 3575
500 48 4877
3 49 8414
6 49 5463
7 49 2423
21 49 3358
27 49 4558
30 49 6317
31 49 5353
32 49 4973
38 49 3102
50 49 7243
51 49 1576
55 49 1739
56 49 871
59 49 9
60 49 7484
76 49 1633
77 49 1585
78 49 4577
81 49 5037
83 49 9
99 49 3437
106 49 7727
108 49 5591
112 49 6012
114 49 6675
128 49 4845
131 49 4555
133 49 5339
142 49 5959
148 49 7562
154 49 4589
155 49 5617
161 49 4622
166 49 5241
181 49 3389
207 49 5980
209 49 7011
211 49 8520
214 49 6132
218 49 7397
221 49 3991
222 49 4566
225 49 8135
226 49 8973
227 49 5830
235 49 5087
239 49 3767
246 49 3679
249 49 3929
251 49 5909
254 49 4537
263 49 5202
265 49 4574
266 49 4169
269 49 5536
270 49 2389
271 49 7809
274 49 4927
287 49 6097
293 49 6273
298 49 2383
302 49 2355
304 49 5923
308 49 5703
311 49 6102
312 49 3932
313 49 2416
314 49 7268
315 49 6316
319 49 6240
320 49 7533
323 49 5574
330 49 3630
332 49 5415
341 49 6944
345 49 1209
348 49 5967
358 49 3882
360 49 8005
361 49 7532
364 49 6245
365 49 4640
387 49 4
393 49 5007
395 49 5873
401 49 4643
404 49 4951
414 49 3501
415 49 4790
418 49 5913
422 49 5908
426 49 4684
427 49 5602
431 49 1648
432 49 36
434 49 6387
438 49 4652
447 49 7667
462 49 4810
464 49 3094
471 49 5664
478 49 4810
482 49 4303
483 49 3832
484 49 6481
487 49 6728
488 49 4758
492 49 6982
496 49 4881
1 50 8161
2 50 7259
4 50 13567
5 50 12014
6 50 11
7 50 6
8 50 13740
9 50 14067
10 50 14933
11 50 9838
12 50 16371
13 50 10489
14 50 8353
15 50 19302
16 50 13950
17 50 9298
18 50 11305
19 50 8806
20 50 18761
21 50 2
22 50 10170
23 50 8005
24 50 13813
25 50 7688
26 50 7979
27 50 2
28 50 13408
29 50 13453
30 50 554
31 50 36
32 50 1
33 50 18657
34 50 17611
35 50 13828
36 50 8192
37 50 18016
38 50 5068
39 50 21674
40 50 11983
41 50 9624
42 50 9757
43 50 18852
44 50 16004
45 50 9427
46 50 9442
47 50 13049
48 50 24506
49 50 13576
50 50 6
51 50 6511
52 50 36851
53 50 8859
54 50 13902
55 50 9954
56 50 24800
57 50 23727
58 50 23277
59 50 23691
60 50 6
61 50 9349
62 50 8962
63 50 6598
64 50 7948
65 50 14135
66 50 20090
67 50 7499
68 50 8899
69 50 8795
70 50 18585
71 50 12098
72 50 16744
73 50 18252
74 50 16753
75 50 12137
76 50 16846
77 50 6324
78 50 4270
79 50 27939
80 50 18599
81 50 4
82 50 8527
83 50 9845
84 50 7543
85 50 15517
86 50 20471
87 50 8336
88 50 13817
89 50 8349
90 50 9134
91 50 7023
92 50 18033
93 50 12008
94 50 12776
95 50 8383
96 50 8838
97 50 15982
98 50 18486
99 50 23
100 50 13756
101 50 12741
102 50 10525
103 50 9240
104 50 20564
105 50 6445
106 50 9
107 50 13514
108 50 84
109 50 15979
110 50 10592
111 50 7867
112 50 10
113 50 6732
114 50 50
115 50 22741
116 50 12295
117 50 10086
118 50 11679
119 50 16912
120 50 18560
121 50 13132
122 50 10570
123 50 11008
124 50 13990
125 50 15258
126 50 10172
127 50 16601
128 50 6
129 50 11013
130 50 14250
131 50 9
132 50 11240
133 50 3
134 50 11381
135 50 17180
136 50 9032
137 50 7611
138 50 12340
139 50 12190
140 50 8668
141 50 9565
142 50 7
143 50 11105
144 50 20963
145 50 12167
146 50 23563
147 50 21535
149 50 15414
150 50 10491
151 50 7051
152 50 6407
153 50 8239
154 50 7
156 50 9230
157 50 13537
158 50 18140
159 50 11131
160 50 10515
161 50 34
162 50 11088
163 50 15315
164 50 21815
165 50 14595
167 50 24996
168 50 26753
169 50 15799
170 50 13144
171 50 10710
172 50 13435
173 50 15171
174 50 5558
175 50 18654
176 50 8341
177 50 13582
178 50 10159
179 50 16575
180 50 13575
181 50 267
182 50 6713
183 50 34285
184 50 6388
185 50 14910
186 50 28394
187 50 10595
188 50 9685
189 50 11947
190 50 14401
191 50 10925
192 50 16513
193 50 15240
194 50 8530
195 50 16624
196 50 16967
197 50 5596
198 50 19440
199 50 12006
200 50 9282
201 50 9250
202 50 11163
203 50 17932
204 50 13934
205 50 10658
206 50 15628
207 50 232
208 50 24646
209 50 5
210 50 10901
211 50 453
212 50 16745
213 50 16229
214 50 11
215 50 9105
216 50 16354
217 50 41176
219 50 11072
220 50 20816
221 50 14
222 50 3
223 50 5447
224 50 16000
225 50 6
226 50 5
227 50 4
228 50 21424
229 50 18211
230 50 10264
231 50 24777
232 50 21237
233 50 7714
234 50 8961
235 50 7
236 50 8022
237 50 24579
238 50 11094
239 50 4
240 50 9886
241 50 17506
242 50 16247
243 50 10664
244 50 22158
245 50 8156
246 50 2198
247 50 11327
248 50 10015
249 50 8
250 50 13721
251 50 6
252 50 13965
253 50 8982
254 50 2410
255 50 9599
256 50 13134
257 50 4755
258 50 9812
259 50 14852
260 50 15050
261 50 5991
262 50 24357
263 50 2
264 50 14940
265 50 191
267 50 9893
268 50 7105
270 50 5
271 50 4
272 50 7306
273 50 7113
274 50 5
275 50 21737
276 50 21862
277 50 23612
278 50 18212
279 50 11162
280 50 16383
281 50 18640
282 50 12248
283 50 12820
284 50 9740
285 50 11309
286 50 13933
287 50 20
288 50 11908
289 50 8749
290 50 9314
291 50 15931
292 50 21212
293 50 8
294 50 15391
295 50 11949
296 50 12915
297 50 16821
298 50 3748
299 50 13861
300 50 7818
301 50 15035
302 50 3778
303 50 9972
305 50 4800
306 50 11217
307 50 24917
308 50 82
309 50 13111
310 50 14879
311 50 213
312 50 1200
313 50 3771
314 50 2
315 50 17
316 50 8414
317 50 10280
318 50 14950
319 50 11
320 50 20
321 50 14482
322 50 15982
323 50 8
324 50 2916
325 50 7914
326 50 12909
327 50 13548
328 50 14352
329 50 9541
330 50 6
331 50 16267
332 50 8
333 50 16317
334 50 13666
335 50 4521
336 50 2975
337 50 10167
338 50 18922
339 50 6837
340 50 9726
341 50 8
342 50 13365
343 50 11928
344 50 19164
345 50 22957
346 50 16940
347 50 6364
349 50 9272
350 50 14552
351 50 20208
352 50 7886
353 50 7158
354 50 24199
355 50 17125
356 50 25706
357 50 16423
358 50 2
359 50 11354
360 50 78
361 50 6
362 50 24232
363 50 10440
364 50 27
365 50 2426
366 50 9741
367 50 10645
368 50 8588
369 50 6880
370 50 13216
371 50 23421
372 50 10773
373 50 19688
374 50 9644
375 50 15713
376 50 19868
377 50 13491
378 50 9610
379 50 15240
380 50 24400
381 50 16818
382 50 11114
383 50 11877
384 50 22541
385 50 13526
386 50 9165
387 50 6720
388 50 7483
389 50 12179
390 50 6808
391 50 12767
392 50 31461
394 50 20001
395 50 1263
396 50 16216
397 50 11632
398 50 9373
399 50 8221
400 50 8525
401 50 4
402 50 8002
403 50 19999
404 50 1
405 50 10031
406 50 10785
407 50 10858
408 50 19282
409 50 26738
410 50 8546
411 50 15749
412 50 10958
413 50 14200
414 50 18
415 50 6224
416 50 19483
417 50 13439
418 50 7
419 50 11147
420 50 12853
421 50 14905
422 50 8
423 50 18105
424 50 14580
425 50 17706
426 50 2
427 50 5
428 50 5752
429 50 15278
430 50 8736
431 50 9900
432 50 11477
433 50 28250
434 50 35
435 50 8136
436 50 10629
437 50 10523
438 50 2506
439 50 13881
440 50 8392
441 50 5373
442 50 13918
443 50 13385
444 50 15581
445 50 7117
446 50 10515
447 50 8
448 50 6525
449 50 31319
450 50 8523
451 50 18535
452 50 19290
453 50 10543
454 50 11235
455 50 8187
456 50 9639
457 50 8550
458 50 9547
459 50 6612
460 50 17283
461 50 8015
462 50 5
463 50 6843
464 50 40
465 50 17563
466 50 11283
467 50 9797
468 50 8089
469 50 11563
470 50 8972
471 50 15
472 50 8124
473 50 15893
474 50 9825
475 50 14760
476 50 16970
477 50 16088
478 50 2363
479 50 6129
480 50 17235
481 50 7082
482 50 3
483 50 24
484 50 6
485 50 12006
486 50 16661
487 50 7
488 50 8
489 50 7901
490 50 10917
491 50 9487
492 50 6
493 50 11391
494 50 9555
495 50 7363
497 50 11169
498 50 14021
499 50 13324
500 50 19639
1 51 4877
2 51 3583
3 51 8
4 51 10713
5 51 7501
6 51 14
8 51 4287
9 51 3622
10 51 7464
11 51 7166
12 51 2703
13 51 4388
14 51 6645
15 51 6238
16 51 7540
17 51 10623
18 51 6548
19 51 4218
20 51 1
22 51 7928
23 51 5827
24 51 8455
25 51 3934
26 51 8339
28 51 16
29 51 3264
30 51 3
32 51 20
33 51 8302
34 51 2076
35 51 9497
36 51 4964
37 51 4474
38 51 10
39 51 5754
40 51 5154
41 51 8514
42 51 5788
43 51 1644
44 51 6528
45 51 10141
46 51 5248
47 51 6776
48 51 6371
49 51 6907
50 51 9
51 51 26
52 51 4066
53 51 8294
54 51 9148
55 51 5
57 51 3846
58 51 3993
59 51 20
62 51 7646
63 51 3886
64 51 5487
65 51 4231
66 51 5703
67 51 6209
68 51 3197
69 51 6995
70 51 3927
71 51 7169
72 51 7092
73 51 6702
74 51 6934
75 51 3794
76 51 3
77 51 26
78 51 24
79 51 8030
80 51 8
81 51 4
82 51 9
83 51 23
84 51 5189
85 51 8696
86 51 7684
88 51 8250
89 51 8
90 51 4748
91 51 4712
92 51 6994
93 51 4576
94 51 3179
95 51 6817
96 51 5033
97 51 2527
98 51 5027
99 51 14
100 51 8530
101 51 5686
102 51 8024
103 51 3466
104 51 6609
105 51 5400
107 51 9351
109 51 7006
110 51 7032
111 51 3973
112 51 7
113 51 6807
114 51 6
115 51 4723
116 51 7
117 51 6565
118 51 12524
119 51 10938
120 51 6529
121 51 4349
122 51 9155
123 51 11
124 51 7185
125 51 11322
126 51 8622
127 51 7080
128 51 12
129 51 6788
130 51 7127
132 51 1913
133 51 3
134 51 7444
135 51 3405
136 51 9631
137 51 4039
138 51 10197
139 51 5045
140 51 5637
141 51 4
143 51 6842
144 51 19946
145 51 5845
146 51 3321
147 51 4016
149 51 7964
150 51 9209
151 51 5715
152 51 3784
157 51 6119
158 51 6602
159 51 9732
160 51 6560
161 51 6
162 51 7
163 51 5053
164 51 16
165 51 28
168 51 47
169 51 7535
170 51 5461
171 51 5455
172 51 8241
173 51 6249
174 51 3790
175 51 5074
176 51 1718
177 51 6298
178 51 4539
179 51 4543
180 51 3277
181 51 12
182 51 6231
183 51 5428
184 51 5677
185 51 2217
186 51 21
187 51 6434
188 51 6123
189 51 5590
190 51 9761
191 51 4532
192 51 6607
193 51 5571
194 51 4259
195 51 4043
196 51 6960
197 51 7519
198 51 3986
199 51 6328
200 51 7003
201 51 6833
202 51 6912
203 51 5466
204 51 9343
205 51 10138
206 51 11
207 51 4
208 51 6430
209 51 5
210 51 4638
211 51 5
212 51 7799
215 51 7094
216 51 4178
217 51 5749
218 51 5
219 51 6952
223 51 7460
224 51 2634
225 51 6
227 51 3
228 51 8601
229 51 3920
230 51 6870
231 51 4623
232 51 4839
233 51 8434
234 51 6558
236 51 5204
237 51 3886
238 51 5536
240 51 9274
241 51 2098
242 51 4067
243 51 5719
244 51 3847
245 51 6690
246 51 7
247 51 10126
248 51 6055
249 51 5
250 51 6849
251 51 6
252 51 4398
253 51 7108
254 51 6
255 51 10156
256 51 3164
257 51 3204
258 51 5522
259 51 6526
260 51 9388
261 51 2713
262 51 4097
264 51 4922
267 51 7840
268 51 4022
271 51 4
272 51 5416
273 51 6330
274 51 30
275 51 5304
276 51 6568
277 51 5
278 51 8661
279 51 10285
280 51 64
281 51 9403
282 51 7067
283 51 1812
284 51 3
285 51 10220
286 51 3454
288 51 1949
289 51 5531
290 51 6841
291 51 18
292 51 4777
294 51 10009
295 51 86
296 51 852
297 51 5673
299 51 9764
300 51 10625
301 51 5670
303 51 1
304 51 12
305 51 4033
306 51 6554
309 51 3732
310 51 4297
311 51 4
312 51 1
314 51 5
315 51 13
316 51 6799
317 51 6597
318 51 4604
319 51 7
320 51 9
321 51 16
322 51 5123
323 51 4
324 51 6668
325 51 9787
326 51 16
327 51 3293
328 51 10091
329 51 2
331 51 5778
333 51 5962
334 51 7204
335 51 3581
336 51 6761
337 51 6229
338 51 6535
339 51 6389
340 51 4376
341 51 3
342 51 9314
343 51 4567
344 51 5746
345 51 2
346 51 5166
347 51 5417
348 51 12
349 51 3406
350 51 4144
351 51 5602
352 51 11171
353 51 8243
354 51 3828
355 51 6900
357 51 5712
358 51 20
359 51 2881
360 51 10
362 51 9573
363 51 7852
364 51 8
365 51 7
366 51 5440
367 51 4562
368 51 5763
369 51 9057
370 51 763
371 51 4115
372 51 6529
373 51 6820
374 51 2700
375 51 7993
376 51 8387
377 51 5138
378 51 9506
380 51 3285
381 51 5749
382 51 5
383 51 7807
384 51 12795
386 51 9333
387 51 5589
388 51 4262
389 51 5865
390 51 6823
391 51 4351
392 51 6727
393 51 8
394 51 6610
395 51 8
396 51 47
397 51 8586
398 51 2638
399 51 6691
400 51 4993
401 51 5
402 51 7588
403 51 5283
405 51 9278
406 51 7920
407 51 9162
408 51 5075
409 51 3858
410 51 5167
411 51 1961
412 51 3
413 51 7186
414 51 8
415 51 2
416 51 5744
417 51 8387
419 51 3747
420 51 12
421 51 12025
422 51 6
423 51 2743
424 51 4332
425 51 5402
426 51 7
427 51 5
428 51 7087
429 51 4266
430 51 6834
431 51 9
433 51 10840
434 51 6
435 51 4384
436 51 4408
437 51 1235
438 51 4
439 51 7101
440 51 4838
441 51 6526
442 51 2440
443 51 5086
444 51 8787
445 51 5055
446 51 5694
448 51 4803
449 51 5032
450 51 4841
451 51 7431
452 51 4921
453 51 1373
454 51 6671
455 51 3
456 51 5691
457 51 5385
458 51 10571
459 51 4217
460 51 6498
461 51 7362
462 51 10
463 51 6486
465 51 8019
466 51 7066
467 51 7844
468 51 4587
469 51 8257
470 51 7108
471 51 8
472 51 8527
473 51 7872
474 51 5
475 51 4834
476 51 4408
477 51 5789
478 51 5
479 51 5974
480 51 7092
481 51 8248
482 51 4
483 51 4
485 51 12637
486 51 3738
488 51 11
489 51 9801
490 51 7969
491 51 8678
493 51 12451
494 51 2849
495 51 3812
496 51 11
497 51 4796
498 51 6251
499 51 3497
500 51 4693
3 52 3623
6 52 4466
7 52 2948
8 52 190
9 52 1070
13 52 68
14 52 144
20 52 1840
21 52 2011
27 52 3484
28 52 3554
30 52 2857
31 52 2692
32 52 3219
38 52 3677
43 52 2869
47 52 162
50 52 2872
51 52 2548
55 52 3324
56 52 3679
59 52 2911
60 52 4242
61 52 3513
65 52 384
66 52 2
70 52 96
76 52 4844
77 52 2540
78 52 1736
79 52 10
80 52 2398
81 52 4160
82 52 2622
83 52 2964
85 52 159
87 52 2155
89 52 2673
92 52 7
99 52 2074
101 52 29
106 52 4359
108 52 4680
109 52 6
112 52 2693
114 52 2716
116 52 2488
120 52 54
121 52 78
123 52 4143
128 52 3280
129 52 66
131 52 2728
132 52 1178
133 52 3874
141 52 3848
142 52 2490
148 52 4668
152 52 1131
153 52 2100
154 52 2625
155 52 3244
156 52 2255
161 52 3193
162 52 1876
164 52 2476
165 52 2218
166 52 2005
167 52 2469
168 52 2501
179 52 22
181 52 2256
185 52 749
186 52 3782
190 52 1
193 52 119
194 52 5
206 52 2034
207 52 1966
209 52 3309
211 52 4020
213 52 1815
214 52 4518
218 52 3604
220 52 4369
221 52 2702
222 52 3381
225 52 3208
226 52 3270
227 52 2913
228 52 1
235 52 3261
239 52 1652
244 52 143
246 52 3043
248 52 3
249 52 2987
251 52 2891
254 52 2457
263 52 2618
264 52 3
265 52 3772
266 52 2736
269 52 3333
270 52 2904
271 52 1614
273 52 79
274 52 2490
277 52 2440
280 52 1926
283 52 1967
284 52 3386
286 52 1046
287 52 3263
288 52 681
291 52 2022
293 52 4195
295 52 1648
296 52 1729
298 52 2658
302 52 2647
303 52 3438
304 52 3222
307 52 2460
308 52 4754
311 52 1973
312 52 1870
313 52 2675
314 52 2809
315 52 2124
319 52 3739
320 52 2990
321 52 2414
323 52 2282
325 52 9
326 52 3106
328 52 6
329 52 3789
330 52 2516
332 52 2997
338 52 58
341 52 3394
344 52 253
345 52 2224
348 52 3124
356 52 2621
358 52 3865
359 52 1507
360 52 3410
361 52 4074
364 52 3596
365 52 2446
370 52 1732
379 52 1828
382 52 2981
385 52 2647
391 52 80
393 52 3299
395 52 1860
396 52 1160
401 52 4274
404 52 3351
412 52 3407
414 52 2094
415 52 2470
418 52 4441
420 52 2305
422 52 4039
426 52 4506
427 52 2417
429 52 133
431 52 3373
432 52 2404
434 52 3588
436 52 48
437 52 1292
438 52 2368
444 52 186
447 52 4047
451 52 74
453 52 1237
455 52 2459
456 52 27
457 52 98
462 52 3349
463 52 35
464 52 3463
469 52 4
471 52 2358
474 52 3420
475 52 419
478 52 2402
480 52 46
482 52 3800
483 52 2533
484 52 2950
487 52 3036
488 52 3423
491 52 1
492 52 4403
494 52 57
495 52 95
496 52 3886
497 52 4
1 53 5
3 53 3146
6 53 1995
7 53 1999
8 53 852
9 53 1452
10 53 28
13 53 470
14 53 780
19 53 7
20 53 1852
21 53 2480
27 53 3567
28 53 3604
30 53 1419
31 53 2471
32 53 2292
36 53 3
38 53 2073
40 53 3
43 53 1621
45 53 55
47 53 786
48 53 26
50 53 2687
51 53 1932
55 53 1264
56 53 1807
57 53 180
59 53 1463
60 53 1666
61 53 1388
63 53 48
64 53 28
65 53 584
70 53 334
72 53 4
74 53 8
76 53 3273
77 53 2080
78 53 2243
79 53 478
80 53 2054
81 53 3282
82 53 2013
83 53 2185
85 53 324
87 53 2268
89 53 1986
92 53 12
96 53 2
98 53 37
99 53 2410
101 53 170
104 53 43
106 53 1714
108 53 1737
109 53 101
112 53 2688
113 53 16
114 53 1636
116 53 1498
118 53 6
120 53 932
121 53 806
123 53 2257
124 53 4
125 53 5
126 53 6
127 53 5
128 53 3119
129 53 1106
130 53 105
131 53 2136
132 53 1012
133 53 2389
136 53 10
140 53 5
141 53 1339
142 53 2867
148 53 3064
152 53 1609
153 53 2148
154 53 2191
155 53 1818
156 53 1849
159 53 5
161 53 1977
162 53 2125
164 53 1487
165 53 1678
166 53 2831
167 53 1534
168 53 1886
175 53 36
179 53 264
181 53 2436
184 53 5
185 53 1990
186 53 2561
190 53 77
193 53 1162
194 53 169
195 53 1
196 53 7
200 53 20
206 53 1650
207 53 2157
208 53 10
209 53 3744
211 53 1537
213 53 1386
214 53 2290
215 53 1
216 53 4
218 53 2540
220 53 2611
221 53 3475
222 53 2632
225 53 2277
226 53 2948
227 53 2961
228 53 201
234 53 25
235 53 2333
238 53 12
239 53 1956
244 53 241
246 53 2258
248 53 207
249 53 4081
250 53 14
251 53 2955
253 53 3
254 53 2740
255 53 56
258 53 53
262 53 2
263 53 3695
265 53 3004
266 53 2680
269 53 1817
270 53 1984
271 53 1459
273 53 346
274 53 1751
275 53 7
277 53 1483
280 53 2040
281 53 17
283 53 1355
284 53 1563
286 53 1556
287 53 2103
288 53 1106
289 53 6
290 53 24
291 53 1653
293 53 3401
295 53 1521
296 53 1700
297 53 42
298 53 2935
302 53 3001
303 53 1538
304 53 2117
307 53 1491
308 53 1769
309 53 3
311 53 2195
312 53 2647
313 53 2939
314 53 2724
315 53 1626
319 53 3784
320 53 2557
321 53 2721
323 53 4339
325 53 59
326 53 3496
328 53 82
329 53 1341
330 53 1677
332 53 2506
333 53 6
335 53 4
338 53 953
340 53 8
341 53 2605
344 53 665
345 53 3126
348 53 2243
352 53 6
353 53 3
354 53 162
355 53 4
356 53 2946
358 53 2479
359 53 1759
360 53 2641
361 53 1877
364 53 1249
365 53 2790
366 53 49
370 53 1659
376 53 12
378 53 8
379 53 1419
381 53 48
382 53 4325
383 53 29
385 53 1745
387 53 14
390 53 20
391 53 685
393 53 2056
395 53 2070
396 53 1695
400 53 4
401 53 2388
404 53 3057
408 53 43
412 53 2020
413 53 101
414 53 2399
415 53 2040
418 53 2225
420 53 1140
421 53 4
422 53 1648
426 53 2330
427 53 4282
429 53 528
431 53 1178
432 53 2189
434 53 1162
436 53 492
437 53 1900
438 53 2728
440 53 2
443 53 72
444 53 307
447 53 1837
450 53 8
451 53 662
453 53 1920
455 53 2018
456 53 510
457 53 590
458 53 47
460 53 22
462 53 3099
463 53 712
464 53 3640
465 53 3
466 53 25
470 53 4
471 53 4015
473 53 12
474 53 1544
475 53 1288
478 53 2599
480 53 161
481 53 5
482 53 3691
483 53 2515
484 53 3160
487 53 3122
488 53 3124
492 53 2667
494 53 664
495 53 732
496 53 2871
500 53 49
1 54 5652
10 54 5128
24 54 7115
35 54 4853
36 54 5609
39 54 8124
41 54 7511
42 54 7276
53 54 8102
63 54 7426
64 54 9782
71 54 3912
72 54 2425
73 54 5958
74 54 2468
88 54 7723
107 54 7736
118 54 9932
119 54 10661
122 54 14198
126 54 4434
127 54 2392
130 54 9794
134 54 7151
136 54 7648
138 54 11043
140 54 5028
149 54 294
150 54 14285
157 54 6341
160 54 11695
163 54 5902
169 54 5421
170 54 3
172 54 9055
177 54 6158
182 54 6787
184 54 6618
187 54 5939
189 54 8503
192 54 20
196 54 2442
199 54 3920
200 54 7405
202 54 2839
204 54 4830
205 54 6668
208 54 9581
212 54 6209
215 54 7526
217 54 8214
219 54 2968
231 54 5707
233 54 8026
236 54 7269
238 54 8220
240 54 6834
243 54 1140
245 54 7586
247 54 3093
250 54 11549
252 54 41
253 54 7519
260 54 9688
267 54 6
278 54 7573
279 54 3158
281 54 9949
282 54 7099
285 54 3215
290 54 6012
299 54 1005
337 54 8367
340 54 8682
342 54 10339
352 54 9347
353 54 5034
355 54 2470
357 54 8928
362 54 8779
372 54 917
375 54 344
376 54 13324
378 54 6795
394 54 5776
399 54 7766
403 54 9096
405 54 6877
406 54 7413
407 54 10443
408 54 9119
413 54 9883
421 54 10256
430 54 7066
446 54 6903
460 54 6500
467 54 12
469 54 9173
470 54 7509
472 54 8274
481 54 4949
497 54 5954
498 54 8473
1 55 34
2 55 11195
3 55 14698
4 55 11125
5 55 18261
6 55 9304
7 55 9611
8 55 10240
9 55 8801
10 55 11
11 55 12664
12 55 12350
13 55 13447
14 55 11857
15 55 6882
16 55 15827
17 55 9797
18 55 10003
19 55 37995
20 55 14144
21 55 12429
22 55 23334
23 55 19213
24 55 12
25 55 16529
26 55 7816
27 55 10822
28 55 11104
29 55 14801
30 55 15118
31 55 18116
32 55 9373
33 55 17514
34 55 14987
35 55 59
36 55 41
37 55 10770
38 55 21290
39 55 40
40 55 13772
41 55 9
43 55 8574
44 55 15032
45 55 7685
46 55 8344
47 55 9492
48 55 12594
49 55 16443
50 55 8722
51 55 14333
52 55 15756
53 55 5
54 55 5039
55 55 15056
56 55 19230
57 55 6638
58 55 9244
59 55 12983
60 55 10183
61 55 15433
62 55 10790
63 55 23
64 55 7
65 55 8765
66 55 14012
67 55 6674
68 55 20621
69 55 18810
70 55 10302
71 55 71
72 55 218
73 55 12
74 55 248
75 55 10168
76 55 14081
77 55 14313
78 55 14664
79 55 8289
80 55 7012
81 55 12590
82 55 17916
83 55 10997
84 55 21502
85 55 19732
86 55 15084
87 55 25018
88 55 4
89 55 17927
90 55 6655
91 55 17284
92 55 8113
93 55 14601
94 55 19446
95 55 18207
96 55 5181
97 55 24677
98 55 11387
99 55 12664
100 55 20912
101 55 9666
102 55 8764
103 55 18025
104 55 16861
105 55 9298
106 55 10210
107 55 55
108 55 26360
109 55 22244
110 55 11245
111 55 16341
112 55 10947
113 55 29228
114 55 12992
115 55 10985
116 55 8935
117 55 26160
118 55 35
119 55 20
120 55 15749
121 55 13164
122 55 9
123 55 13459
124 55 20481
125 55 17550
126 55 68
127 55 188
128 55 15880
129 55 11564
130 55 11
131 55 14835
132 55 13373
133 55 18976
134 55 1
135 55 8586
136 55 5
137 55 16429
138 55 25
139 55 20645
140 55 59
141 55 41324
142 55 12198
143 55 9065
144 55 14067
145 55 10085
146 55 20117
147 55 8593
148 55 9973
149 55 156
150 55 15
151 55 11921
152 55 22634
153 55 25366
154 55 15008
155 55 15835
156 55 16893
157 55 9
158 55 7160
159 55 7248
161 55 11331
162 55 27448
164 55 16411
165 55 12685
166 55 12401
167 55 11696
168 55 11570
169 55 26
170 55 3832
171 55 25486
173 55 10737
174 55 9168
175 55 11222
176 55 16506
177 55 10
178 55 15041
179 55 10061
180 55 14924
181 55 12766
182 55 10
183 55 7831
185 55 9373
186 55 9179
187 55 8
188 55 15075
190 55 18675
191 55 18791
192 55 720
193 55 20585
194 55 12097
195 55 5058
196 55 191
197 55 8390
198 55 8301
199 55 31
200 55 25
201 55 16606
202 55 9
203 55 16319
204 55 63
205 55 3
206 55 18984
207 55 15595
208 55 15
209 55 14198
210 55 19069
211 55 9947
212 55 4
213 55 9154
214 55 20105
215 55 23
216 55 4947
217 55 30
218 55 12807
219 55 8
220 55 11338
221 55 25236
222 55 22279
223 55 12825
224 55 24727
225 55 9583
226 55 8257
227 55 10483
228 55 8595
229 55 10657
230 55 25473
231 55 13
232 55 10877
233 55 13
234 55 10981
235 55 13151
236 55 15
237 55 13946
239 55 15197
240 55 10
241 55 15196
242 55 11251
243 55 329
244 55 14457
245 55 30
246 55 10138
247 55 4
248 55 13487
249 55 6648
250 55 22
251 55 10668
252 55 1932
253 55 26
254 55 8566
255 55 7768
256 55 19323
257 55 11661
258 55 12827
259 55 10690
260 55 15
261 55 8941
262 55 9460
263 55 16025
264 55 11151
265 55 17907
266 55 12003
267 55 1479
268 55 11261
269 55 16019
270 55 9653
271 55 15649
272 55 20249
273 55 14021
274 55 21348
275 55 13005
276 55 9160
277 55 13375
278 55 16
279 55 3
280 55 15871
281 55 1
282 55 13
283 55 10441
284 55 31944
285 55 5
286 55 8947
287 55 12912
288 55 12319
289 55 31921
290 55 11
291 55 18978
292 55 10845
293 55 23826
294 55 12742
295 55 22049
296 55 11439
297 55 12763
298 55 14021
299 55 74
300 55 16310
301 55 12970
302 55 14080
303 55 32261
304 55 15704
305 55 20605
306 55 10111
307 55 11665
308 55 26173
309 55 27391
310 55 27871
311 55 15577
312 55 15574
313 55 14018
314 55 8801
315 55 22072
316 55 18474
317 55 26208
318 55 14412
319 55 10453
320 55 16852
321 55 11277
322 55 26442
323 55 9212
324 55 16661
325 55 9966
326 55 13211
327 55 15365
328 55 18709
329 55 41904
330 55 7551
331 55 6926
332 55 7138
333 55 10416
334 55 18638
335 55 11033
336 55 16445
337 55 6
338 55 15738
339 55 12238
340 55 59
341 55 12130
342 55 19
343 55 12931
344 55 10859
345 55 9241
346 55 13514
347 55 9356
348 55 15540
349 55 17965
350 55 8424
351 55 19075
352 55 5
353 55 51
354 55 6586
355 55 209
356 55 8134
357 55 12
358 55 9397
359 55 11690
360 55 12143
361 55 29354
362 55 7
363 55 6215
364 55 10887
365 55 8762
366 55 13142
367 55 7227
368 55 12735
369 55 7931
370 55 11387
371 55 9244
372 55 153
373 55 8171
374 55 14555
375 55 175
376 55 12
377 55 9603
378 55 1
379 55 6087
380 55 20039
381 55 12931
382 55 12874
383 55 10922
384 55 9825
385 55 13027
386 55 2684
387 55 16134
388 55 25973
389 55 10137
390 55 29181
391 55 7227
392 55 22677
393 55 14410
395 55 12532
396 55 30371
397 55 8560
398 55 14573
399 55 17
400 55 7942
401 55 8778
402 55 23267
403 55 41
404 55 8545
405 55 9
406 55 7
407 55 16
408 55 7
409 55 14076
410 55 29719
411 55 17696
412 55 18924
413 55 10
414 55 12732
415 55 13337
416 55 27196
417 55 13080
418 55 20277
419 55 17481
420 55 9571
421 55 49
422 55 32349
423 55 22979
424 55 9753
425 55 13816
426 55 8857
427 55 9077
428 55 10484
429 55 19960
430 55 5
431 55 15031
432 55 7896
433 55 10428
434 55 11022
435 55 12772
436 55 13415
437 55 9751
438 55 9006
439 55 13415
440 55 8159
441 55 13606
442 55 7567
443 55 14274
444 55 20211
445 55 4430
446 55 14
447 55 29355
448 55 11750
449 55 11714
450 55 8129
451 55 18663
452 55 12248
453 55 9443
454 55 9010
455 55 18244
456 55 11297
457 55 14683
458 55 7813
459 55 15472
460 55 38
461 55 17362
462 55 15499
463 55 9251
464 55 7549
465 55 12345
466 55 12288
467 55 1430
468 55 7168
469 55 6
470 55 41
471 55 13639
472 55 13
473 55 18348
474 55 32741
475 55 7735
476 55 19101
477 55 23219
478 55 8749
479 55 20200
480 55 9060
481 55 54
482 55 9893
483 55 13110
484 55 8455
485 55 13647
486 55 16691
487 55 8682
488 55 15819
489 55 9546
490 55 26243
491 55 8741
492 55 11842
493 55 13292
494 55 41217
495 55 10234
496 55 16080
497 55 30
498 55 8
499 55 32952
500 55 12605
1 56 1323
2 56 1854
3 56 7478
4 56 1292
5 56 2498
6 56 5781
7 56 3923
8 56 2539
9 56 4475
10 56 191
11 56 1029
12 56 1567
13 56 3464
14 56 4097
15 56 715
16 56 686
17 56 1075
18 56 1020
19 56 5901
20 56 8998
21 56 10058
22 56 1035
23 56 817
24 56 293
25 56 1366
26 56 1027
27 56 6227
28 56 4972
29 56 559
30 56 4923
31 56 5813
32 56 5987
33 56 1173
34 56 1418
35 56 757
36 56 1342
37 56 960
38 56 4415
39 56 177
40 56 2726
41 56 193
42 56 126
43 56 6306
44 56 2058
45 56 3196
46 56 739
47 56 5664
48 56 2800
49 56 979
50 56 4380
51 56 4506
52 56 1108
53 56 295
54 56 4472
55 56 5885
56 56 3391
57 56 4593
58 56 888
59 56 5472
60 56 3478
61 56 4801
62 56 340
63 56 261
64 56 113
65 56 3899
66 56 1006
67 56 855
68 56 718
69 56 2182
70 56 3261
71 56 380
72 56 1061
73 56 160
74 56 1049
75 56 866
76 56 5730
77 56 4714
78 56 6160
79 56 4008
80 56 3084
81 56 5670
82 56 5858
83 56 3550
84 56 1069
85 56 4431
86 56 1317
87 56 6146
88 56 464
89 56 5811
90 56 1066
91 56 770
92 56 3342
93 56 1118
94 56 958
95 56 1652
96 56 1926
97 56 1077
98 56 5228
99 56 6974
100 56 1844
101 56 4934
102 56 1548
103 56 1188
104 56 6219
105 56 797
106 56 3552
107 56 181
108 56 4808
109 56 3835
110 56 963
111 56 1339
112 56 4405
113 56 2075
114 56 7100
115 56 428
116 56 3505
117 56 797
118 56 338
119 56 558
120 56 3347
121 56 3643
122 56 152
123 56 2487
124 56 2073
125 56 5136
126 56 2041
127 56 1094
128 56 4495
129 56 8282
130 56 351
131 56 6933
132 56 5957
133 56 3763
134 56 351
135 56 1744
136 56 316
137 56 1335
138 56 204
139 56 1240
140 56 904
141 56 4147
142 56 5744
143 56 1297
144 56 628
145 56 5951
146 56 1735
147 56 1064
148 56 6473
149 56 2396
150 56 165
151 56 2458
152 56 2812
153 56 6238
154 56 6887
155 56 3713
156 56 9695
157 56 268
158 56 1897
159 56 4120
160 56 195
161 56 4577
162 56 4696
163 56 335
164 56 3367
165 56 3566
166 56 9178
167 56 6455
168 56 4306
169 56 537
170 56 3046
171 56 1844
172 56 150
173 56 1387
174 56 764
175 56 5122
176 56 867
177 56 260
178 56 1701
179 56 3199
180 56 556
181 56 5205
182 56 827
183 56 1593
184 56 303
185 56 5246
186 56 5341
187 56 74
188 56 727
189 56 194
190 56 4648
191 56 1946
192 56 3065
193 56 3522
194 56 3714
195 56 612
196 56 1043
197 56 1227
198 56 954
199 56 2069
200 56 243
201 56 1202
202 56 1781
203 56 926
204 56 854
205 56 393
206 56 3962
207 56 5170
208 56 145
209 56 4641
210 56 1944
211 56 6352
212 56 207
213 56 8512
214 56 3696
215 56 767
216 56 644
217 56 316
218 56 6217
219 56 1773
220 56 7007
221 56 7322
222 56 4249
223 56 1967
224 56 1085
225 56 6567
226 56 5319
227 56 6082
228 56 4291
229 56 716
230 56 1593
231 56 837
232 56 1721
233 56 111
234 56 2064
235 56 5031
236 56 257
237 56 1161
238 56 132
239 56 5080
240 56 582
241 56 1419
242 56 1614
243 56 962
244 56 2918
245 56 619
246 56 10982
247 56 196
248 56 4048
249 56 3813
250 56 143
251 56 5988
252 56 4255
253 56 731
254 56 5283
255 56 3247
256 56 1046
257 56 893
258 56 10071
259 56 1354
260 56 280
261 56 970
262 56 2106
263 56 4869
264 56 2543
265 56 6427
266 56 4666
267 56 4223
268 56 1060
269 56 3882
270 56 3869
271 56 5850
272 56 1114
273 56 5128
274 56 3236
275 56 4781
276 56 1601
277 56 3820
278 56 71
279 56 184
280 56 4985
281 56 526
282 56 887
283 56 6678
284 56 3311
285 56 189
286 56 4348
287 56 5291
288 56 2606
289 56 2650
290 56 836
291 56 3900
292 56 1745
293 56 4135
294 56 5002
295 56 8589
296 56 3932
297 56 5078
298 56 4608
299 56 2023
300 56 711
301 56 2016
302 56 4599
303 56 3452
304 56 5133
305 56 908
306 56 1108
307 56 6445
308 56 4772
309 56 1423
310 56 2269
311 56 5195
312 56 10062
313 56 4608
314 56 4470
315 56 5207
316 56 958
317 56 812
318 56 951
319 56 8026
320 56 7689
321 56 3966
322 56 1500
323 56 4184
324 56 1298
325 56 2487
326 56 2049
327 56 578
328 56 4553
329 56 4139
330 56 7121
331 56 1198
332 56 5531
333 56 3055
334 56 1807
335 56 1446
336 56 1303
337 56 310
338 56 3292
339 56 1352
340 56 845
341 56 5292
342 56 546
343 56 2209
344 56 5998
345 56 4769
346 56 654
347 56 847
348 56 5197
349 56 1180
350 56 1062
351 56 1209
352 56 194
353 56 172
354 56 4706
355 56 1006
356 56 3718
357 56 367
358 56 5039
359 56 3371
360 56 4372
361 56 5574
362 56 106
363 56 867
364 56 3977
365 56 5343
366 56 10012
367 56 640
368 56 1649
369 56 875
370 56 3987
371 56 926
372 56 1544
373 56 1161
374 56 1382
375 56 2263
376 56 352
377 56 987
378 56 340
379 56 5571
380 56 1755
381 56 5140
382 56 5432
383 56 4605
384 56 1054
385 56 5532
386 56 3841
387 56 3966
388 56 1113
389 56 6142
390 56 2099
391 56 4262
392 56 1246
393 56 6616
394 56 458
395 56 5119
396 56 2033
397 56 1266
398 56 1419
399 56 649
400 56 5170
401 56 7791
402 56 1330
403 56 361
404 56 8159
405 56 550
406 56 106
407 56 1827
408 56 314
409 56 1262
410 56 1256
411 56 722
412 56 5161
413 56 386
414 56 6990
415 56 2798
416 56 1645
417 56 1361
418 56 3586
419 56 646
420 56 3400
421 56 207
422 56 7174
423 56 681
424 56 1610
425 56 714
426 56 7624
427 56 4116
428 56 1240
429 56 5812
430 56 310
431 56 5982
432 56 5851
433 56 1001
434 56 3902
435 56 1781
436 56 3434
437 56 3980
438 56 5265
439 56 1117
440 56 5152
441 56 1466
442 56 1772
443 56 3932
444 56 4295
445 56 907
446 56 170
447 56 5632
448 56 2810
449 56 1534
450 56 5191
451 56 4173
452 56 1211
453 56 3948
454 56 1255
455 56 2594
456 56 3672
457 56 3978
458 56 3340
459 56 2001
460 56 184
461 56 1053
462 56 4665
463 56 5637
464 56 8004
465 56 1584
466 56 5506
467 56 4236
468 56 509
469 56 263
470 56 780
471 56 5972
472 56 92
473 56 5036
474 56 3441
475 56 6432
476 56 1211
477 56 1577
478 56 5193
479 56 1295
480 56 3814
481 56 156
482 56 5060
483 56 7239
484 56 3337
485 56 1041
486 56 1388
487 56 3412
488 56 4664
489 56 846
490 56 1636
491 56 905
492 56 4453
493 56 2723
494 56 3095
495 56 4834
496 56 7403
497 56 206
498 56 393
499 56 1136
500 56 3261
1 57 2062
10 57 1142
19 57 560
24 57 2310
35 57 1749
36 57 2063
39 57 1291
41 57 3221
42 57 1194
53 57 1620
54 57 893
63 57 2647
64 57 883
71 57 1904
72 57 1061
73 57 1810
74 57 1055
88 57 1582
104 57 79
107 57 2240
118 57 1751
119 57 2218
122 57 2289
125 57 519
126 57 714
127 57 998
130 57 2516
134 57 2463
136 57 2639
138 57 3412
140 57 1163
145 57 1261
149 57 1397
150 57 2279
157 57 1595
159 57 1637
160 57 2166
163 57 2055
169 57 1632
170 57 751
172 57 1578
177 57 1611
182 57 2463
184 57 1497
187 57 2128
189 57 2441
192 57 1734
196 57 1016
199 57 2030
200 57 2478
202 57 1470
204 57 1695
205 57 709
208 57 1612
212 57 1989
215 57 1979
217 57 718
219 57 1479
231 57 1701
233 57 1634
236 57 2291
238 57 3090
240 57 3505
243 57 1215
245 57 1856
247 57 1061
250 57 3315
252 57 1855
253 57 1920
258 57 1351
260 57 1097
267 57 2643
275 57 672
278 57 1156
279 57 1054
281 57 2448
282 57 1336
285 57 1137
290 57 1874
294 57 1003
297 57 1368
299 57 1674
337 57 2888
340 57 1840
342 57 2006
352 57 2912
353 57 1139
355 57 1043
357 57 1822
362 57 1478
366 57 1250
372 57 976
375 57 1404
376 57 1900
378 57 915
381 57 1413
383 57 44
386 57 2284
387 57 858
389 57 1322
394 57 1555
399 57 1959
400 57 1745
403 57 814
405 57 3590
406 57 2284
407 57 2409
408 57 1489
413 57 2479
421 57 2320
430 57 1189
440 57 1687
443 57 31
446 57 2921
450 57 1775
460 57 1537
466 57 909
467 57 2776
469 57 1622
470 57 1876
472 57 1614
473 57 1055
481 57 1102
497 57 1023
498 57 1957
500 57 2224
1 58 3426
10 58 4369
19 58 2177
24 58 5521
35 58 2278
36 58 3473
39 58 4427
41 58 4115
42 58 4547
53 58 2747
54 58 2516
63 58 4913
64 58 2798
71 58 4503
72 58 2474
73 58 3090
74 58 2519
88 58 4854
104 58 5
107 58 3690
118 58 3763
119 58 6766
122 58 2498
125 58 93
126 58 2877
127 58 2380
130 58 3887
134 58 3144
136 58 2875
138 58 5671
140 58 4213
145 58 2153
149 58 3291
150 58 2448
157 58 3507
159 58 2256
160 58 2805
163 58 3473
169 58 2392
170 58 3557
172 58 4914
177 58 3576
182 58 4314
184 58 5713
187 58 2998
189 58 2596
192 58 2932
196 58 2436
199 58 3550
200 58 2756
202 58 4564
204 58 2306
205 58 4740
208 58 3808
212 58 3073
215 58 3152
217 58 2609
219 58 4631
228 58 13
231 58 3896
233 58 2644
236 58 5543
238 58 5049
240 58 5232
243 58 2340
245 58 4951
247 58 3989
250 58 2716
252 58 3646
253 58 3107
258 58 324
260 58 3380
267 58 4048
268 58 4
275 58 781
278 58 4307
279 58 4024
281 58 6785
282 58 2930
285 58 3961
290 58 2852
294 58 1994
297 58 762
299 58 2134
323 58 5
337 58 3256
340 58 3202
342 58 4229
352 58 4190
353 58 3721
355 58 2415
357 58 3019
362 58 3774
366 58 314
372 58 2866
375 58 3446
376 58 3329
378 58 2352
381 58 783
386 58 2340
387 58 721
389 58 2105
394 58 3093
399 58 4843
400 58 1364
403 58 4496
405 58 5176
406 58 2960
407 58 4009
408 58 2781
413 58 4109
421 58 5085
427 58 4
430 58 4826
440 58 1320
443 58 10
446 58 3918
450 58 1400
460 58 2967
463 58 4
466 58 697
467 58 3916
469 58 3595
470 58 3228
472 58 2758
473 58 118
481 58 3849
497 58 3472
498 58 4367
500 58 1179
1 59 2068
2 59 1345
3 59 2230
5 59 996
6 59 1175
7 59 1049
8 59 979
9 59 5042
10 59 2633
11 59 4344
12 59 1640
13 59 2653
14 59 2349
18 59 24
19 59 2638
20 59 1354
21 59 1240
22 59 4
24 59 1075
25 59 2509
27 59 1602
28 59 1901
30 59 2537
31 59 3510
32 59 1560
34 59 522
35 59 3246
36 59 2096
37 59 1095
38 59 2848
39 59 3871
40 59 1691
41 59 2289
42 59 287
43 59 1404
44 59 1809
45 59 2686
46 59 2389
47 59 2243
48 59 2160
50 59 2736
51 59 1644
52 59 1100
53 59 2447
54 59 2665
55 59 2182
56 59 2179
57 59 426
59 59 2431
60 59 3277
61 59 1573
62 59 1920
63 59 1038
64 59 2775
65 59 1196
66 59 2144
69 59 2144
70 59 2289
71 59 1622
72 59 1171
73 59 350
74 59 1130
76 59 2598
77 59 1654
78 59 2647
79 59 1352
80 59 981
81 59 1498
82 59 730
83 59 2628
84 59 1513
85 59 2611
86 59 284
87 59 1929
88 59 3119
89 59 821
90 59 703
92 59 2044
94 59 530
95 59 1027
96 59 1352
98 59 3380
99 59 1988
100 59 1509
101 59 3045
102 59 1770
104 59 3320
105 59 1
106 59 3272
107 59 2543
108 59 2995
109 59 1607
111 59 2504
112 59 2503
113 59 2045
114 59 2550
116 59 1073
118 59 3220
119 59 4016
120 59 2420
121 59 2828
122 59 2520
123 59 214
124 59 1515
125 59 4019
126 59 3026
127 59 1173
128 59 2556
129 59 1912
130 59 4422
131 59 2234
132 59 2303
133 59 1196
134 59 3024
135 59 2218
136 59 2325
137 59 2497
138 59 4024
139 59 724
140 59 3894
141 59 2394
142 59 2284
143 59 2295
145 59 1754
147 59 1319
148 59 1042
149 59 2397
150 59 2600
151 59 2676
152 59 2763
153 59 1785
154 59 2129
155 59 2359
156 59 3241
157 59 1439
158 59 2452
159 59 2002
160 59 1881
161 59 2244
162 59 2210
163 59 2092
164 59 1613
165 59 1408
166 59 1921
167 59 2486
168 59 2278
169 59 1921
170 59 2627
171 59 1061
172 59 3689
173 59 1562
175 59 3542
177 59 1432
178 59 1828
179 59 2243
181 59 4319
182 59 2349
183 59 1792
184 59 2898
185 59 1853
186 59 4181
187 59 1830
189 59 3193
190 59 1255
191 59 1592
192 59 2349
193 59 1899
194 59 1781
196 59 1188
199 59 4166
200 59 2341
201 59 1
202 59 2820
204 59 3226
205 59 3579
206 59 3459
207 59 2543
208 59 3103
209 59 2224
210 59 1526
211 59 1447
212 59 2480
213 59 2415
214 59 3114
215 59 3925
217 59 3425
218 59 3635
219 59 2682
220 59 2366
221 59 1115
222 59 2024
223 59 672
225 59 2948
226 59 2972
227 59 2977
228 59 3402
230 59 2159
231 59 2693
232 59 3135
233 59 4896
234 59 1924
235 59 2457
236 59 870
237 59 1654
238 59 1968
239 59 2838
240 59 2695
241 59 539
242 59 2153
243 59 1818
244 59 2669
245 59 2959
246 59 2380
247 59 2787
248 59 1677
249 59 2362
250 59 2979
251 59 2989
252 59 2027
253 59 4017
254 59 2705
255 59 2604
256 59 582
258 59 2706
259 59 1560
260 59 484
262 59 3323
263 59 1724
264 59 889
265 59 4107
266 59 3944
267 59 2660
268 59 1522
269 59 2410
270 59 1066
271 59 2239
272 59 1730
273 59 3750
274 59 2910
275 59 1216
276 59 1102
277 59 1348
278 59 4390
279 59 2821
280 59 2038
281 59 3216
282 59 485
283 59 2492
284 59 1714
285 59 2675
286 59 5197
287 59 3272
288 59 799
289 59 3270
290 59 2824
291 59 3474
292 59 3142
293 59 3486
294 59 2482
295 59 1839
296 59 1525
297 59 2009
298 59 3141
299 59 2635
301 59 2883
302 59 3115
303 59 1880
304 59 3095
305 59 2
306 59 26
307 59 2491
308 59 2955
309 59 49
310 59 2230
311 59 2453
312 59 2679
313 59 3154
314 59 2891
315 59 3915
319 59 1907
320 59 1368
321 59 2713
322 59 2446
323 59 2366
324 59 496
325 59 2109
326 59 1286
328 59 1271
329 59 2422
330 59 2812
331 59 1281
332 59 2055
333 59 854
334 59 1199
335 59 1202
336 59 538
337 59 4541
338 59 2473
340 59 2259
341 59 2065
342 59 3528
343 59 1582
344 59 2587
345 59 2681
347 59 4
348 59 3035
350 59 3234
352 59 2279
353 59 2575
354 59 461
355 59 1197
356 59 2716
357 59 5122
358 59 1321
359 59 2193
360 59 1415
361 59 2766
362 59 2253
364 59 1721
365 59 2646
366 59 2743
368 59 2563
370 59 1504
372 59 2274
373 59 711
375 59 2415
376 59 3226
378 59 4743
379 59 2001
381 59 2030
382 59 3706
383 59 1950
385 59 896
386 59 883
387 59 2269
388 59 11
389 59 1783
390 59 2092
391 59 2084
392 59 23
393 59 1559
394 59 2125
395 59 2204
396 59 952
397 59 2289
399 59 2971
400 59 1944
401 59 3646
402 59 1273
403 59 3031
404 59 4632
405 59 2722
406 59 4184
407 59 3584
408 59 2734
409 59 33
410 59 708
412 59 2285
413 59 4370
414 59 1922
415 59 1804
416 59 2593
417 59 1443
418 59 3012
420 59 3247
421 59 3624
422 59 1791
424 59 1193
426 59 3744
427 59 2206
428 59 185
429 59 2424
430 59 1672
431 59 2213
432 59 3059
433 59 1719
434 59 1647
435 59 1397
436 59 2580
437 59 2599
438 59 2596
440 59 1975
441 59 45
442 59 44
443 59 1202
444 59 2593
445 59 1731
446 59 276
447 59 2688
448 59 2303
449 59 1599
450 59 2068
451 59 395
452 59 202
453 59 2484
454 59 2333
455 59 889
456 59 1494
457 59 2467
458 59 2679
459 59 1272
460 59 2559
461 59 10
462 59 2684
463 59 2457
464 59 101
465 59 1321
466 59 2732
467 59 2734
468 59 2786
469 59 1961
470 59 3930
471 59 3365
472 59 5112
473 59 961
474 59 1742
475 59 1201
477 59 2539
478 59 2627
479 59 883
480 59 2743
481 59 2693
482 59 5134
483 59 1785
484 59 3509
486 59 5
487 59 3476
488 59 2694
490 59 1794
492 59 3295
493 59 1456
494 59 726
495 59 3756
496 59 2634
497 59 1457
498 59 1453
499 59 1170
500 59 858
1 60 7
3 60 8
4 60 1403
5 60 21
6 60 4
7 60 4
8 60 11
9 60 27
10 60 6
12 60 2
14 60 5
15 60 2108
16 60 1605
17 60 2488
18 60 39
19 60 3
20 60 10
21 60 5
22 60 151
23 60 4181
26 60 4366
27 60 19
28 60 12
29 60 2099
30 60 4
32 60 17
33 60 3188
34 60 48
35 60 5
36 60 13
37 60 30
39 60 6
40 60 7
41 60 6
42 60 49
43 60 4
44 60 8
45 60 4
46 60 7
48 60 5
49 60 4572
50 60 30
51 60 19
52 60 1
53 60 7
54 60 15
55 60 9
57 60 1
58 60 2777
59 60 26
61 60 3
63 60 3
65 60 3
66 60 14
67 60 2655
68 60 2035
69 60 3
70 60 10
71 60 42
72 60 20
73 60 32
74 60 18
75 60 3109
77 60 18
78 60 34
79 60 11
80 60 30
82 60 19
83 60 16
84 60 3
85 60 5
86 60 11
88 60 3
89 60 10
90 60 11
91 60 5126
92 60 15
93 60 3469
94 60 31
95 60 12
96 60 10
97 60 3337
99 60 19
100 60 3
101 60 3
102 60 7
103 60 111
104 60 5
105 60 476
107 60 16
108 60 5
109 60 5
110 60 2992
114 60 3
115 60 3396
116 60 18
117 60 1791
119 60 5
120 60 11
121 60 5
122 60 5
123 60 24
124 60 8
125 60 37
126 60 5
127 60 21
131 60 16
132 60 22
133 60 8
135 60 11
136 60 31
140 60 20
141 60 12
143 60 11
144 60 7029
145 60 27
146 60 1754
147 60 2
148 60 6
149 60 6
150 60 5
152 60 19
154 60 20
156 60 6
157 60 29
158 60 3
159 60 6
160 60 4
161 60 14
162 60 24
163 60 12
166 60 5
167 60 5
168 60 2
169 60 4
170 60 3
171 60 4
172 60 5
173 60 4
174 60 1764
176 60 1549
177 60 27
179 60 3
180 60 2130
181 60 20
184 60 10
185 60 14
187 60 2
188 60 3512
189 60 10
190 60 6
191 60 3
192 60 5
194 60 1
195 60 2381
196 60 20
197 60 5862
198 60 3191
199 60 5
201 60 50
202 60 12
203 60 1622
204 60 7
205 60 4
207 60 3
208 60 45
210 60 6
211 60 3
213 60 8
214 60 16
215 60 4
216 60 2332
217 60 11
219 60 8
220 60 6
221 60 34
222 60 13
223 60 6
224 60 3241
226 60 8
228 60 6
229 60 2642
230 60 1
231 60 3
233 60 4
235 60 30
236 60 7
238 60 8
239 60 3
241 60 38
242 60 12
243 60 16
244 60 11
245 60 7
246 60 17
248 60 9
249 60 6
250 60 28
253 60 5
254 60 16
255 60 5
256 60 17
257 60 2254
258 60 21
259 60 3
260 60 23
261 60 4891
262 60 9
264 60 31
267 60 5
270 60 1
271 60 26
272 60 20
274 60 21
275 60 13
276 60 4
277 60 6
278 60 12
280 60 13
282 60 78
284 60 4
286 60 21
287 60 23
288 60 69
289 60 10
290 60 48
293 60 4
294 60 5
295 60 22
296 60 13
297 60 6
298 60 2
300 60 4346
301 60 6
302 60 5
303 60 3
304 60 9
305 60 690
306 60 26
307 60 6
308 60 4
309 60 22
310 60 4
313 60 9
314 60 21
316 60 3202
317 60 1781
318 60 1705
319 60 19
320 60 4
321 60 4
322 60 4
323 60 5
324 60 27
326 60 8
327 60 2085
328 60 7
329 60 9
330 60 4
331 60 21
332 60 10
333 60 15
334 60 14
335 60 6
336 60 36
338 60 17
339 60 2407
340 60 8
342 60 5
343 60 4
344 60 17
345 60 4
346 60 2013
347 60 453
348 60 12
349 60 106
350 60 5
351 60 1830
352 60 4
353 60 9
354 60 2
355 60 20
356 60 7
357 60 7
358 60 5
359 60 25
360 60 6
361 60 20
362 60 6
363 60 4566
365 60 3
366 60 21
367 60 2702
369 60 2977
370 60 10
371 60 2775
372 60 20
373 60 5
374 60 3256
375 60 6
377 60 3504
378 60 11
379 60 11
380 60 1751
381 60 5
383 60 3
384 60 4419
385 60 11
386 60 1
387 60 2
388 60 33
389 60 17
391 60 13
392 60 228
393 60 24
394 60 16
395 60 23
396 60 9
398 60 3294
399 60 3
400 60 6
401 60 9
402 60 26
403 60 26
406 60 8
407 60 4
409 60 15
410 60 26
411 60 842
412 60 10
414 60 23
415 60 12
416 60 4
418 60 8
419 60 1812
420 60 14
421 60 2
422 60 3
423 60 4478
424 60 11
425 60 1959
426 60 6
427 60 6
428 60 49
429 60 7
431 60 5
432 60 33
433 60 1
435 60 3
437 60 22
438 60 6
439 60 2056
440 60 10
441 60 55
442 60 140
443 60 39
444 60 2
445 60 8
446 60 5
447 60 19
450 60 9
451 60 27
452 60 32
453 60 16
454 60 19
455 60 16
456 60 6
457 60 22
458 60 9
459 60 18
460 60 32
461 60 187
463 60 22
464 60 45
465 60 23
466 60 7
467 60 7
468 60 4
470 60 7
471 60 9
472 60 5
473 60 18
474 60 2
475 60 3
476 60 3165
477 60 7
478 60 14
479 60 16
481 60 3
482 60 19
483 60 17
484 60 2
485 60 1852
486 60 44
487 60 4
489 60 3011
490 60 3
491 60 4180
493 60 5
494 60 18
495 60 9
497 60 32
498 60 25
499 60 3
500 60 3
1 61 10507
2 61 10297
3 61 6615
4 61 66
5 61 3153
6 61 8950
7 61 9110
8 61 15500
9 61 10354
10 61 6662
11 61 5768
12 61 9144
13 61 7603
14 61 16587
17 61 2
18 61 3318
19 61 9105
20 61 12105
21 61 7462
22 61 2519
24 61 7198
25 61 6658
27 61 7844
28 61 5630
30 61 8458
31 61 6079
32 61 14819
34 61 2048
35 61 6950
36 61 10643
37 61 5515
38 61 7906
39 61 10832
40 61 7791
41 61 9273
42 61 6487
43 61 16644
44 61 5893
45 61 16347
46 61 10327
47 61 7538
48 61 5252
50 61 19221
51 61 10253
52 61 9687
53 61 6220
54 61 13770
55 61 5948
56 61 7092
57 61 5240
58 61 21
59 61 8042
60 61 6735
61 61 5232
62 61 3904
63 61 5011
64 61 7995
65 61 11653
66 61 5069
69 61 5713
70 61 9875
71 61 10242
72 61 10034
73 61 11142
74 61 10260
76 61 10333
77 61 10048
78 61 9026
79 61 7824
80 61 3925
81 61 15764
82 61 6854
83 61 8561
84 61 4425
85 61 5469
86 61 4716
87 61 10356
88 61 8371
89 61 6850
90 61 5034
92 61 11073
94 61 4853
95 61 13325
96 61 8661
98 61 8307
99 61 6537
100 61 5281
101 61 12953
102 61 15734
103 61 1566
104 61 6128
105 61 1275
106 61 6736
107 61 7233
108 61 3893
109 61 11718
111 61 6820
112 61 8397
113 61 5033
114 61 9189
116 61 3435
118 61 7937
119 61 8668
120 61 6113
121 61 7977
122 61 10713
123 61 4740
124 61 6072
125 61 8540
126 61 18483
127 61 10085
128 61 6715
129 61 6837
130 61 8779
131 61 8667
132 61 8191
133 61 6755
134 61 8191
135 61 6153
136 61 11242
137 61 6849
138 61 10056
139 61 7089
140 61 5841
141 61 7910
142 61 7769
143 61 6640
145 61 9533
146 61 85
147 61 12903
148 61 13932
149 61 11028
150 61 10686
151 61 5965
152 61 7901
153 61 10235
154 61 8767
155 61 7120
156 61 9401
157 61 8716
158 61 8980
159 61 5753
160 61 6928
161 61 6103
162 61 6962
163 61 6996
164 61 10518
165 61 14529
166 61 5086
167 61 6488
168 61 6592
169 61 5595
170 61 10263
171 61 4299
172 61 10159
173 61 5784
175 61 8285
177 61 8494
178 61 7258
179 61 4394
181 61 9874
182 61 11038
183 61 8209
184 61 6118
185 61 17013
186 61 6745
187 61 7640
189 61 9958
190 61 9524
191 61 8025
192 61 14073
193 61 13873
194 61 6060
196 61 10085
198 61 6
199 61 12061
200 61 11257
201 61 1858
202 61 4995
204 61 6989
205 61 8515
206 61 8309
207 61 11616
208 61 10665
209 61 10090
210 61 7907
211 61 13756
212 61 10904
213 61 7505
214 61 7593
215 61 16192
217 61 7145
218 61 9880
219 61 5043
220 61 5889
221 61 10984
222 61 7546
223 61 5229
225 61 7585
226 61 9407
227 61 9805
228 61 10177
230 61 12550
231 61 8508
232 61 4450
233 61 10068
234 61 13235
235 61 10938
236 61 6951
237 61 10931
238 61 7445
239 61 6051
240 61 8466
241 61 1980
242 61 6451
243 61 7628
244 61 5633
245 61 9220
246 61 15854
247 61 14419
248 61 8759
249 61 8404
250 61 8319
251 61 9847
252 61 9295
253 61 16120
254 61 4026
255 61 16294
256 61 4774
258 61 7071
259 61 5689
260 61 9298
262 61 7616
263 61 7048
264 61 4351
265 61 6346
266 61 7184
267 61 7511
268 61 4578
269 61 7281
270 61 9180
271 61 7507
272 61 6058
273 61 10152
274 61 8980
275 61 8844
276 61 5475
277 61 12147
278 61 11824
279 61 14360
280 61 6036
281 61 8687
282 61 7851
283 61 10121
284 61 5522
285 61 14354
286 61 10548
287 61 10872
288 61 9314
289 61 13574
290 61 8476
291 61 8394
292 61 4394
293 61 10240
294 61 7670
295 61 6318
296 61 4756
297 61 5075
298 61 8930
299 61 17320
301 61 8879
302 61 8991
303 61 5513
304 61 10065
305 61 1160
306 61 3303
307 61 6671
308 61 3931
309 61 2478
310 61 5712
311 61 11513
312 61 6983
313 61 9282
314 61 19126
315 61 8234
318 61 13
319 61 8546
320 61 8472
321 61 8055
322 61 4349
323 61 7900
324 61 2705
325 61 5646
326 61 6979
328 61 9573
329 61 7953
330 61 7231
331 61 7855
332 61 7713
333 61 4946
334 61 8516
335 61 12912
336 61 2649
337 61 10275
338 61 6074
340 61 9066
341 61 11088
342 61 9436
343 61 5118
344 61 6975
345 61 11605
347 61 1297
348 61 9802
349 61 1579
350 61 5608
352 61 6983
353 61 5272
354 61 5165
355 61 10201
356 61 9155
357 61 11489
358 61 8597
359 61 13348
360 61 7550
361 61 9642
362 61 8619
364 61 11773
365 61 4083
366 61 7047
368 61 4619
370 61 4804
371 61 15
372 61 9415
373 61 4645
375 61 11091
376 61 10849
378 61 11741
379 61 11022
380 61 90
381 61 5018
382 61 10480
383 61 8748
385 61 3328
386 61 7791
387 61 9616
388 61 1410
389 61 9098
390 61 4887
391 61 10005
392 61 2700
393 61 8477
394 61 8167
395 61 8836
396 61 7813
397 61 3838
399 61 9074
400 61 7293
401 61 11404
402 61 9473
403 61 10765
404 61 6859
405 61 8427
406 61 8265
407 61 8244
408 61 8154
409 61 2992
410 61 3407
411 61 702
412 61 13161
413 61 8762
414 61 6704
415 61 7191
416 61 7175
417 61 6112
418 61 7560
420 61 12481
421 61 10029
422 61 10021
424 61 4289
426 61 11432
427 61 8026
428 61 3546
429 61 7658
430 61 7975
431 61 6183
432 61 5194
433 61 8693
434 61 11851
435 61 7664
436 61 7574
437 61 7339
438 61 4030
440 61 7330
441 61 2421
442 61 1287
443 61 7285
444 61 5441
445 61 16433
446 61 7840
447 61 9700
448 61 4238
449 61 4986
450 61 7376
451 61 10438
452 61 5392
453 61 7238
454 61 6678
455 61 5612
456 61 8627
457 61 5790
458 61 16532
459 61 6099
460 61 7345
461 61 1239
462 61 6901
463 61 12371
464 61 9580
465 61 6108
466 61 12491
467 61 7480
468 61 8337
469 61 8914
470 61 16016
471 61 6182
472 61 10188
473 61 8316
474 61 5678
475 61 14641
477 61 5643
478 61 4094
479 61 4494
480 61 8376
481 61 5341
482 61 5556
483 61 13274
484 61 17759
486 61 1908
487 61 17823
488 61 7068
490 61 3451
492 61 8701
493 61 5724
494 61 4636
495 61 9379
496 61 6777
497 61 8019
498 61 6438
499 61 6524
500 61 7180
1 62 14151
2 62 18129
3 62 11347
4 62 62
5 62 3278
6 62 10570
7 62 5348
8 62 8496
9 62 8949
10 62 5827
11 62 4240
12 62 6924
13 62 8755
14 62 6840
17 62 1
18 62 1762
19 62 7298
20 62 6028
21 62 14105
22 62 2786
24 62 10526
25 62 10822
27 62 8045
28 62 11525
30 62 9694
31 62 9686
32 62 5832
34 62 2958
35 62 14119
36 62 14315
37 62 3094
38 62 6842
39 62 9877
40 62 7494
41 62 5373
42 62 5963
43 62 5752
44 62 3651
45 62 6103
46 62 9622
47 62 7901
48 62 4740
50 62 7968
51 62 9154
52 62 4966
53 62 10325
54 62 8686
55 62 7406
56 62 9143
57 62 6962
58 62 1
59 62 6720
60 62 7363
61 62 6364
62 62 5145
63 62 12999
64 62 6346
65 62 5519
66 62 7240
69 62 21010
70 62 6297
71 62 8426
72 62 7577
73 62 7998
74 62 7428
76 62 7235
77 62 8863
78 62 6272
79 62 8051
80 62 17453
81 62 9852
82 62 7787
83 62 5533
84 62 3243
85 62 7160
86 62 5530
87 62 8291
88 62 12196
89 62 7718
90 62 3262
92 62 8280
94 62 4567
95 62 7395
96 62 7839
98 62 9051
99 62 8826
100 62 10039
101 62 13732
102 62 13005
103 62 1827
104 62 5978
105 62 1309
106 62 7251
107 62 11418
108 62 14587
109 62 7663
111 62 10819
112 62 6533
113 62 6298
114 62 7278
116 62 8167
118 62 9594
119 62 8327
120 62 6232
121 62 7196
122 62 8001
123 62 5479
124 62 5470
125 62 5996
126 62 4686
127 62 7368
128 62 6028
129 62 6285
130 62 6712
131 62 9333
132 62 9813
133 62 7834
134 62 9111
135 62 7889
136 62 10890
137 62 10815
138 62 15862
139 62 6036
140 62 9050
141 62 7930
142 62 7408
143 62 5945
145 62 6503
146 62 27
147 62 8658
148 62 9391
149 62 9373
150 62 8166
151 62 9835
152 62 8978
153 62 8304
154 62 9269
155 62 6300
156 62 14051
157 62 8144
158 62 15130
159 62 11317
160 62 7907
161 62 6402
162 62 8666
163 62 10202
164 62 9194
165 62 7027
166 62 7260
167 62 7979
168 62 5702
169 62 8404
170 62 5194
171 62 6609
172 62 7918
173 62 6046
175 62 9018
177 62 7957
178 62 5200
179 62 3501
181 62 5934
182 62 13848
183 62 9796
184 62 7271
185 62 5852
186 62 8017
187 62 12605
189 62 10620
190 62 5231
191 62 4413
192 62 7663
193 62 8692
194 62 6890
196 62 7433
199 62 8965
200 62 8964
201 62 588
202 62 7447
204 62 13967
205 62 18466
206 62 8947
207 62 7723
208 62 11813
209 62 11717
210 62 4470
211 62 4647
212 62 9031
213 62 6553
214 62 10300
215 62 6639
217 62 9708
218 62 8185
219 62 7651
220 62 4064
221 62 11806
222 62 8267
223 62 4720
225 62 21939
226 62 6121
227 62 6845
228 62 6749
230 62 3881
231 62 7108
232 62 14062
233 62 8565
234 62 6735
235 62 9435
236 62 9250
237 62 9941
238 62 12141
239 62 4913
240 62 11776
241 62 2931
242 62 5018
243 62 7105
244 62 11643
245 62 6154
246 62 5618
247 62 6615
248 62 9987
249 62 12030
250 62 8577
251 62 6952
252 62 6885
253 62 6586
254 62 9845
255 62 6247
256 62 4515
258 62 5625
259 62 6074
260 62 8373
262 62 5012
263 62 18601
264 62 5302
265 62 6259
266 62 10194
267 62 12185
268 62 5306
269 62 6103
270 62 5287
271 62 8433
272 62 13903
273 62 8332
274 62 9580
275 62 5454
276 62 5925
277 62 9252
278 62 5294
279 62 6802
280 62 8548
281 62 12210
282 62 8374
283 62 15430
284 62 13930
285 62 6735
286 62 9022
287 62 10640
288 62 9045
289 62 8393
290 62 5860
291 62 9133
292 62 13989
293 62 16073
294 62 4675
295 62 5039
296 62 5978
297 62 7491
298 62 8941
299 62 6138
301 62 6687
302 62 9121
303 62 14105
304 62 9022
305 62 788
306 62 1819
307 62 8034
308 62 14560
309 62 4652
310 62 6289
311 62 7795
312 62 5748
313 62 9094
314 62 8273
315 62 8169
318 62 3
319 62 7322
320 62 6209
321 62 7382
322 62 15875
323 62 6523
324 62 3604
325 62 5779
326 62 4996
328 62 5261
329 62 7949
330 62 6510
331 62 5438
332 62 9797
333 62 5671
334 62 6360
335 62 7624
336 62 3672
337 62 5570
338 62 6409
340 62 10332
341 62 10750
342 62 7673
343 62 7379
344 62 7645
345 62 8074
347 62 1291
348 62 9157
349 62 1783
350 62 9069
352 62 7240
353 62 14289
354 62 7007
355 62 7511
356 62 3874
357 62 11791
358 62 13368
359 62 9512
360 62 5400
361 62 7191
362 62 7380
364 62 7944
365 62 9741
366 62 5634
368 62 9838
370 62 5963
371 62 2
372 62 8058
373 62 14172
375 62 9555
376 62 8767
378 62 14272
379 62 7048
380 62 18
381 62 7386
382 62 6936
383 62 7803
385 62 5826
386 62 7202
387 62 9440
388 62 1090
389 62 6757
390 62 6226
391 62 7966
392 62 1409
393 62 6309
394 62 6402
395 62 5633
396 62 5099
397 62 6220
399 62 6204
400 62 8967
401 62 11979
402 62 9559
403 62 20958
404 62 7064
405 62 11649
406 62 9515
407 62 13385
408 62 8881
409 62 4358
410 62 2661
411 62 74
412 62 7513
413 62 6864
414 62 8761
415 62 8894
416 62 6827
417 62 7846
418 62 10445
420 62 9794
421 62 16483
422 62 6972
424 62 5744
426 62 11875
427 62 6541
428 62 2639
429 62 12557
430 62 8735
431 62 7551
432 62 8221
433 62 4552
434 62 7729
435 62 7191
436 62 8798
437 62 7829
438 62 9847
440 62 9016
441 62 2646
442 62 1316
443 62 8172
444 62 6954
445 62 4714
446 62 11634
447 62 7153
448 62 5370
449 62 4613
450 62 9103
451 62 6052
452 62 6612
453 62 7818
454 62 6004
455 62 7294
456 62 12421
457 62 9345
458 62 5962
459 62 2449
460 62 8726
461 62 221
462 62 6182
463 62 8185
464 62 6129
465 62 9470
466 62 5993
467 62 12235
468 62 11472
469 62 7934
470 62 6765
471 62 8036
472 62 8515
473 62 7188
474 62 14084
475 62 7740
477 62 11081
478 62 9739
479 62 5751
480 62 11740
481 62 14459
482 62 8871
483 62 6322
484 62 9315
486 62 1138
487 62 9268
488 62 6148
490 62 5496
492 62 10962
493 62 13798
494 62 9319
495 62 6221
496 62 12444
497 62 17692
498 62 15714
499 62 18363
500 62 11652
1 63 3526
2 63 3847
3 63 8778
4 63 612
5 63 2415
6 63 4542
7 63 4644
8 63 3817
9 63 4254
10 63 4368
11 63 4849
12 63 2623
13 63 2773
14 63 4485
17 63 366
18 63 1804
19 63 3526
20 63 4328
21 63 3626
22 63 1428
24 63 5559
25 63 2971
26 63 2
27 63 6345
28 63 2941
30 63 5216
31 63 6140
32 63 2613
34 63 3861
35 63 5271
36 63 3424
37 63 1987
38 63 4302
39 63 4971
40 63 2417
41 63 3451
42 63 4865
43 63 5435
44 63 2318
45 63 4144
46 63 3534
47 63 4415
48 63 7020
50 63 4012
51 63 5137
52 63 2161
53 63 3583
54 63 5788
55 63 4194
56 63 2774
57 63 4982
58 63 483
59 63 3446
60 63 4555
61 63 3366
62 63 4593
63 63 4185
64 63 5879
65 63 3115
66 63 2270
69 63 4495
70 63 2526
71 63 3706
72 63 3699
73 63 3330
74 63 3621
76 63 3401
77 63 4989
78 63 2829
79 63 3533
80 63 3408
81 63 5348
82 63 5120
83 63 3136
84 63 2154
85 63 4418
86 63 3131
87 63 3631
88 63 6146
89 63 5033
90 63 2098
91 63 29
92 63 3009
94 63 1446
95 63 2725
96 63 2139
98 63 2742
99 63 3559
100 63 4661
101 63 3884
102 63 3790
103 63 2385
104 63 3494
105 63 1547
106 63 4663
107 63 3715
108 63 3026
109 63 1572
111 63 2937
112 63 3722
113 63 6005
114 63 3527
116 63 4288
118 63 4804
119 63 4734
120 63 3805
121 63 3801
122 63 4896
123 63 2201
124 63 2570
125 63 3411
126 63 3725
127 63 3587
128 63 4155
129 63 5537
130 63 6284
131 63 4525
132 63 5057
133 63 4109
134 63 3265
135 63 2823
136 63 2085
137 63 3051
138 63 3191
139 63 2174
140 63 4774
141 63 4561
142 63 3917
143 63 5550
145 63 3012
146 63 707
147 63 1634
148 63 6250
149 63 5206
150 63 4907
151 63 3202
152 63 3656
153 63 3690
154 63 4600
155 63 3303
156 63 6952
157 63 4121
158 63 3490
159 63 4030
160 63 6112
161 63 5109
162 63 5035
163 63 3749
164 63 3570
165 63 5843
166 63 5753
167 63 3271
168 63 2653
169 63 2914
170 63 3783
171 63 3752
172 63 5025
173 63 3105
175 63 2907
177 63 4109
178 63 3457
179 63 2562
181 63 5337
182 63 7368
183 63 3878
184 63 4097
185 63 4473
186 63 4111
187 63 5566
189 63 4918
190 63 4928
191 63 5387
192 63 6389
193 63 3627
194 63 2309
196 63 3672
198 63 8
199 63 2562
200 63 3976
201 63 2316
202 63 4161
204 63 5223
205 63 6423
206 63 2884
207 63 6812
208 63 4739
209 63 4262
210 63 5426
211 63 2941
212 63 6362
213 63 5050
214 63 6417
215 63 5147
217 63 4525
218 63 4779
219 63 4100
220 63 3018
221 63 4725
222 63 3779
223 63 2690
225 63 4623
226 63 3763
227 63 3350
228 63 1951
229 63 79
230 63 2803
231 63 4170
232 63 5244
233 63 4313
234 63 2789
235 63 3473
236 63 3240
237 63 3343
238 63 3542
239 63 4722
240 63 6870
241 63 3960
242 63 4647
243 63 2427
244 63 4976
245 63 4071
246 63 4759
247 63 7248
248 63 3400
249 63 3366
250 63 3524
251 63 3471
252 63 4924
253 63 4949
254 63 4607
255 63 4222
256 63 1510
258 63 5313
259 63 3107
260 63 3737
262 63 4165
263 63 3477
264 63 2713
265 63 3937
266 63 5037
267 63 2414
268 63 2062
269 63 3352
270 63 4517
271 63 3673
272 63 3801
273 63 3079
274 63 6355
275 63 4549
276 63 3637
277 63 3454
278 63 4735
279 63 7097
280 63 4949
281 63 5874
282 63 3119
283 63 4820
284 63 3785
285 63 7148
286 63 4274
287 63 3656
288 63 5439
289 63 4128
290 63 3753
291 63 2938
292 63 5322
293 63 5565
294 63 4407
295 63 1992
296 63 3297
297 63 3454
298 63 3619
299 63 4856
301 63 2747
302 63 3684
303 63 3864
304 63 2486
305 63 1536
306 63 1714
307 63 3273
308 63 3015
309 63 4132
310 63 4389
311 63 6890
312 63 6006
313 63 3736
314 63 3909
315 63 3603
316 63 43
318 63 141
319 63 4233
320 63 4275
321 63 3537
322 63 3726
323 63 2547
324 63 1678
325 63 5926
326 63 3478
328 63 4927
329 63 4581
330 63 2714
331 63 2353
332 63 4646
333 63 2805
334 63 3868
335 63 3294
336 63 1672
337 63 4458
338 63 3664
340 63 4220
341 63 8383
342 63 3686
343 63 3312
344 63 4518
345 63 3766
347 63 1550
348 63 2561
349 63 2363
350 63 4333
352 63 4447
353 63 4117
354 63 5001
355 63 3613
356 63 4689
357 63 4510
358 63 4034
359 63 4911
360 63 4280
361 63 3631
362 63 5525
364 63 3067
365 63 4534
366 63 5451
368 63 3081
370 63 3366
371 63 491
372 63 4364
373 63 3366
375 63 5452
376 63 4373
378 63 4873
379 63 3974
380 63 657
381 63 3391
382 63 8277
383 63 4310
385 63 2131
386 63 3212
387 63 4938
388 63 2548
389 63 3094
390 63 6060
391 63 2470
392 63 2594
393 63 3214
394 63 4891
395 63 3705
396 63 3324
397 63 3461
399 63 4029
400 63 2697
401 63 4628
402 63 4972
403 63 8543
404 63 3753
405 63 6774
406 63 3982
407 63 6702
408 63 4020
409 63 2313
410 63 1906
411 63 1134
412 63 3607
413 63 6499
414 63 3441
415 63 6073
416 63 2527
417 63 2924
418 63 6217
420 63 3130
421 63 5834
422 63 4935
424 63 2653
426 63 4507
427 63 2558
428 63 1991
429 63 3997
430 63 5540
431 63 4207
432 63 3523
433 63 4416
434 63 2994
435 63 1815
436 63 2799
437 63 4039
438 63 4649
440 63 2642
441 63 2208
442 63 2548
443 63 4168
444 63 4575
445 63 3302
446 63 3894
447 63 3782
448 63 3855
449 63 2572
450 63 2781
451 63 3464
452 63 2352
453 63 4077
454 63 5629
455 63 2494
456 63 2732
457 63 3883
458 63 4076
459 63 2464
460 63 4814
461 63 1516
462 63 4182
463 63 2528
464 63 3390
465 63 3748
466 63 3874
467 63 2406
468 63 3287
469 63 5241
470 63 5034
471 63 6480
472 63 4433
473 63 2661
474 63 3900
475 63 6204
477 63 3387
478 63 4573
479 63 2434
480 63 4778
481 63 4016
482 63 3876
483 63 4890
484 63 6495
486 63 2600
487 63 6614
488 63 4205
490 63 4444
492 63 4518
493 63 2095
494 63 2434
495 63 3925
496 63 3715
497 63 4700
498 63 6663
499 63 3094
500 63 2733
1 64 6344
2 64 1801
3 64 3288
5 64 953
6 64 2775
7 64 1828
8 64 2857
9 64 2798
10 64 4365
11 64 3528
12 64 2601
13 64 2717
14 64 4108
18 64 92
19 64 2722
20 64 3724
21 64 1311
22 64 14
24 64 3156
25 64 1632
27 64 5307
28 64 1665
30 64 2480
31 64 4497
32 64 2702
34 64 956
35 64 3539
36 64 6156
37 64 1134
38 64 6181
39 64 5417
40 64 2757
41 64 1699
42 64 976
43 64 3093
44 64 4312
45 64 2878
46 64 2936
47 64 5482
48 64 3698
50 64 3658
51 64 1707
52 64 3322
53 64 5100
54 64 1651
55 64 2136
56 64 3346
57 64 1700
59 64 2537
60 64 4800
61 64 1430
62 64 6122
63 64 3892
64 64 3761
65 64 2989
66 64 2378
69 64 2844
70 64 3741
71 64 1959
72 64 2515
73 64 1505
74 64 2759
76 64 3315
77 64 1662
78 64 1707
79 64 3025
80 64 1573
81 64 2850
82 64 3232
83 64 3038
84 64 1501
85 64 3474
86 64 205
87 64 6810
88 64 5558
89 64 3164
90 64 909
92 64 2003
94 64 270
95 64 1129
96 64 2021
98 64 3449
99 64 2743
100 64 3411
101 64 4349
102 64 1555
103 64 1
104 64 2289
105 64 2
106 64 4648
107 64 4824
108 64 3350
109 64 3234
111 64 1681
112 64 4731
113 64 3965
114 64 2531
116 64 739
118 64 6554
119 64 5070
120 64 3596
121 64 3218
122 64 3547
123 64 1093
124 64 3006
125 64 2708
126 64 2354
127 64 2604
128 64 5157
129 64 4072
130 64 5868
131 64 3649
132 64 2791
133 64 2086
134 64 6221
135 64 2240
136 64 1874
137 64 1608
138 64 3916
139 64 823
140 64 5503
141 64 1398
142 64 3630
143 64 3136
145 64 2612
147 64 1254
148 64 1492
149 64 4260
150 64 3492
151 64 3963
152 64 3212
153 64 6886
154 64 3648
155 64 3581
156 64 6196
157 64 3346
158 64 2824
159 64 3277
160 64 6382
161 64 2414
162 64 3052
163 64 5946
164 64 2289
165 64 2534
166 64 2789
167 64 2066
168 64 2883
169 64 4021
170 64 2393
171 64 690
172 64 4846
173 64 2668
175 64 3435
177 64 3449
178 64 2556
179 64 3150
181 64 4097
182 64 2754
183 64 1663
184 64 3534
185 64 2771
186 64 3442
187 64 3350
189 64 5071
190 64 1470
191 64 2544
192 64 3978
193 64 3183
194 64 2253
196 64 2675
199 64 2929
200 64 3800
201 64 7
202 64 2808
204 64 3578
205 64 3709
206 64 3098
207 64 3342
208 64 2574
209 64 2384
210 64 2557
211 64 4394
212 64 2668
213 64 4152
214 64 3349
215 64 2477
217 64 4178
218 64 4477
219 64 2772
220 64 3220
221 64 3962
222 64 2667
223 64 412
225 64 4546
226 64 3492
227 64 3424
228 64 2984
230 64 2792
231 64 4327
232 64 2383
233 64 7106
234 64 2534
235 64 3058
236 64 856
237 64 1548
238 64 2759
239 64 3195
240 64 5359
241 64 950
242 64 894
243 64 2247
244 64 3095
245 64 2972
246 64 2065
247 64 3400
248 64 3133
249 64 3370
250 64 2891
251 64 3517
252 64 2397
253 64 2665
254 64 3730
255 64 2843
256 64 274
258 64 3643
259 64 2653
260 64 1156
262 64 3205
263 64 3601
264 64 1024
265 64 5130
266 64 2218
267 64 2985
268 64 3555
269 64 3533
270 64 1890
271 64 2242
272 64 2184
273 64 3115
274 64 4108
275 64 1627
276 64 3018
277 64 1502
278 64 6625
279 64 3473
280 64 3604
281 64 4233
282 64 1766
283 64 3017
284 64 2176
285 64 3439
286 64 2799
287 64 3149
288 64 2433
289 64 2626
290 64 1621
291 64 2956
292 64 2428
293 64 5242
294 64 3763
295 64 2501
296 64 1813
297 64 1557
298 64 3762
299 64 5347
301 64 3029
302 64 3784
303 64 2125
304 64 3456
305 64 9
306 64 97
307 64 2013
308 64 3341
309 64 1004
310 64 2257
311 64 3397
312 64 2169
313 64 3862
314 64 3591
315 64 5306
319 64 3686
320 64 3520
321 64 2944
322 64 3409
323 64 3761
324 64 660
325 64 2063
326 64 3167
328 64 1471
329 64 1345
330 64 4342
331 64 3043
332 64 1951
333 64 2420
334 64 1850
335 64 426
336 64 648
337 64 4673
338 64 3557
340 64 1725
341 64 4558
342 64 3147
343 64 2810
344 64 2599
345 64 2713
347 64 2
348 64 3427
349 64 1
350 64 3718
352 64 3295
353 64 2858
354 64 1726
355 64 2667
356 64 3499
357 64 6649
358 64 3164
359 64 2950
360 64 4930
361 64 2595
362 64 2151
364 64 4257
365 64 3819
366 64 3642
368 64 3253
370 64 1729
372 64 2351
373 64 1689
375 64 4542
376 64 4168
378 64 6174
379 64 6555
381 64 1572
382 64 4058
383 64 4300
385 64 1101
386 64 1152
387 64 2826
388 64 57
389 64 2584
390 64 3929
391 64 2164
392 64 11
393 64 1327
394 64 3443
395 64 2146
396 64 2718
397 64 4626
399 64 2913
400 64 1755
401 64 4644
402 64 1585
403 64 3824
404 64 2224
405 64 5142
406 64 4779
407 64 3492
408 64 4696
409 64 28
410 64 144
412 64 2667
413 64 5989
414 64 2678
415 64 3764
416 64 2651
417 64 3109
418 64 3410
420 64 3633
421 64 12975
422 64 4269
424 64 1274
426 64 4482
427 64 3553
428 64 532
429 64 2936
430 64 2423
431 64 2042
432 64 3940
433 64 4346
434 64 4219
435 64 1270
436 64 2701
437 64 2610
438 64 3843
440 64 1764
441 64 67
442 64 2
443 64 1783
444 64 3434
445 64 1715
446 64 1733
447 64 2605
448 64 2705
449 64 2615
450 64 1766
451 64 739
452 64 108
453 64 2693
454 64 3042
455 64 770
456 64 2415
457 64 2801
458 64 2866
459 64 792
460 64 2632
461 64 21
462 64 5251
463 64 3545
464 64 400
465 64 2250
466 64 3522
467 64 3063
468 64 1907
469 64 3438
470 64 2548
471 64 3555
472 64 6962
473 64 1836
474 64 2222
475 64 4688
477 64 2023
478 64 3770
479 64 2556
480 64 2499
481 64 2914
482 64 3117
483 64 4064
484 64 3755
486 64 8
487 64 3820
488 64 5350
490 64 3336
492 64 4347
493 64 1445
494 64 928
495 64 8017
496 64 4517
497 64 3595
498 64 2876
499 64 3161
500 64 1784
1 65 3448
3 65 7493
6 65 3493
7 65 6208
8 65 1176
9 65 3077
10 65 2754
13 65 2898
14 65 1667
19 65 4092
20 65 4191
21 65 5869
24 65 6191
27 65 5986
28 65 5179
30 65 4132
31 65 4704
32 65 4729
35 65 5924
36 65 3489
38 65 3890
39 65 5619
40 65 69
41 65 4241
42 65 5520
43 65 4759
45 65 198
47 65 3292
48 65 70
50 65 2583
51 65 4501
53 65 4452
54 65 2765
55 65 4410
56 65 3735
57 65 173
59 65 5812
60 65 5609
61 65 3494
63 65 2368
64 65 4709
65 65 4467
70 65 2192
71 65 3831
72 65 4975
73 65 5466
74 65 4964
76 65 3017
77 65 4462
78 65 6017
79 65 1880
80 65 4841
81 65 4341
82 65 7704
83 65 4978
85 65 2841
87 65 3569
88 65 4741
89 65 7846
92 65 5561
96 65 10
98 65 809
99 65 3594
101 65 2803
104 65 3556
106 65 5671
107 65 5929
108 65 5311
109 65 3871
112 65 4651
113 65 5
114 65 7520
116 65 2155
118 65 6663
119 65 8880
120 65 1483
121 65 2402
122 65 3970
123 65 3025
124 65 18
125 65 5264
126 65 4586
127 65 5184
128 65 8248
129 65 3825
130 65 4057
131 65 5474
132 65 3770
133 65 3178
134 65 5257
136 65 5577
138 65 6240
140 65 6592
141 65 4078
142 65 8581
145 65 5193
146 65 2
148 65 4118
149 65 2954
150 65 3967
152 65 2503
153 65 3581
154 65 5612
155 65 4404
156 65 4111
157 65 7604
159 65 4036
160 65 3679
161 65 5077
162 65 3622
163 65 4922
164 65 3101
165 65 2243
166 65 5757
167 65 3876
168 65 6758
169 65 3756
170 65 7606
172 65 6718
175 65 758
177 65 7545
179 65 4637
181 65 4805
182 65 6649
184 65 6031
185 65 6694
186 65 2758
187 65 2275
189 65 5352
190 65 238
192 65 8230
193 65 3533
194 65 2198
196 65 5070
199 65 6625
200 65 5655
202 65 7113
204 65 5932
205 65 4415
206 65 2430
207 65 4768
208 65 8379
209 65 3363
211 65 4772
212 65 5328
213 65 3354
214 65 3116
215 65 5151
217 65 5877
218 65 3769
219 65 7088
220 65 3348
221 65 5017
222 65 5670
223 65 2
225 65 6583
226 65 3914
227 65 3800
228 65 2837
231 65 5335
233 65 4096
234 65 755
235 65 3877
236 65 5865
238 65 5650
239 65 4308
240 65 3840
243 65 5694
244 65 1628
245 65 10024
246 65 8118
247 65 5430
248 65 620
249 65 7731
250 65 4401
251 65 3722
252 65 9400
253 65 5214
254 65 3573
255 65 231
258 65 5040
260 65 2872
262 65 16
263 65 2045
265 65 4379
266 65 6045
267 65 4219
269 65 4357
270 65 6232
271 65 6019
273 65 1893
274 65 2379
275 65 4388
277 65 4407
278 65 2992
279 65 5489
280 65 2534
281 65 9968
282 65 5875
283 65 3383
284 65 4096
285 65 5572
286 65 3022
287 65 5606
288 65 2887
289 65 33
290 65 5453
291 65 2515
293 65 2727
294 65 4493
295 65 2707
296 65 3386
297 65 3906
298 65 4540
299 65 4746
302 65 4530
303 65 4051
304 65 7229
307 65 3717
308 65 5213
309 65 9
311 65 4719
312 65 3424
313 65 4590
314 65 2606
315 65 8102
319 65 4454
320 65 4465
321 65 4221
323 65 6653
325 65 1848
326 65 4043
328 65 225
329 65 4073
330 65 4272
332 65 5135
333 65 63
335 65 46
337 65 7160
338 65 1484
340 65 4183
341 65 6646
342 65 4573
344 65 2428
345 65 4626
348 65 7337
352 65 8625
353 65 4953
354 65 173
355 65 5090
356 65 3960
357 65 4110
358 65 3773
359 65 2564
360 65 3444
361 65 3303
362 65 2948
364 65 6213
365 65 3524
366 65 5032
370 65 3397
372 65 5628
375 65 2987
376 65 9773
378 65 5724
379 65 4366
380 65 3
381 65 3886
382 65 4728
383 65 2755
385 65 2184
386 65 3501
387 65 5852
389 65 5134
390 65 3
391 65 4920
393 65 3627
394 65 3846
395 65 4660
396 65 2328
399 65 10066
400 65 4334
401 65 3724
403 65 7828
404 65 5771
405 65 3871
406 65 8759
407 65 7294
408 65 6654
412 65 2470
413 65 4106
414 65 3609
415 65 3883
418 65 3091
420 65 2241
421 65 5687
422 65 6426
426 65 3751
427 65 6646
429 65 1832
430 65 4897
431 65 4387
432 65 3268
434 65 6303
436 65 2996
437 65 2438
438 65 3511
440 65 4374
443 65 5447
444 65 2803
446 65 5416
447 65 3293
450 65 4300
451 65 1648
453 65 2402
455 65 2578
456 65 6107
457 65 5268
458 65 209
460 65 6922
462 65 8084
463 65 7858
464 65 5306
465 65 14
466 65 6551
467 65 4370
469 65 7139
470 65 5202
471 65 5044
472 65 4161
473 65 4431
474 65 4011
475 65 5533
477 65 4
478 65 3597
480 65 3752
481 65 5049
482 65 3672
483 65 7229
484 65 5779
487 65 5721
488 65 8131
492 65 5234
494 65 1531
495 65 5762
496 65 4925
497 65 2465
498 65 5712
500 65 4383
1 66 4358
2 66 8718
3 66 4474
4 66 1896
5 66 2759
6 66 3597
7 66 4468
8 66 3856
9 66 5189
10 66 4671
11 66 2454
12 66 2702
13 66 6740
14 66 4955
15 66 3310
16 66 4229
17 66 2988
18 66 3014
19 66 3876
20 66 2238
21 66 4839
22 66 2194
23 66 2237
24 66 6168
25 66 5690
26 66 2910
27 66 5842
28 66 4755
29 66 2174
30 66 5746
31 66 5999
32 66 3496
33 66 4229
34 66 2948
35 66 4536
36 66 4314
37 66 1905
38 66 2635
39 66 6251
40 66 3064
41 66 4177
42 66 12177
43 66 5704
44 66 1437
45 66 4919
46 66 4411
47 66 3930
48 66 4060
49 66 1886
50 66 4461
51 66 4998
52 66 5473
53 66 5565
54 66 5405
55 66 4200
56 66 5114
57 66 3124
58 66 2254
59 66 3415
60 66 6104
61 66 4052
62 66 3849
63 66 5537
64 66 8843
65 66 2746
66 66 3716
67 66 2159
68 66 1999
69 66 2146
70 66 3332
71 66 4318
72 66 6816
73 66 8049
74 66 6733
75 66 1002
76 66 4936
77 66 4983
78 66 4115
79 66 3737
80 66 4710
81 66 3525
82 66 3095
83 66 4051
84 66 2306
85 66 3350
86 66 6675
87 66 2934
88 66 7127
89 66 3014
90 66 3488
91 66 4455
92 66 6496
93 66 2490
94 66 3131
95 66 6094
96 66 3791
97 66 4055
98 66 3983
99 66 2987
100 66 2851
101 66 4146
102 66 3524
103 66 3154
104 66 7041
105 66 4192
106 66 5999
107 66 6488
108 66 3050
109 66 5151
110 66 2566
111 66 5681
112 66 4671
113 66 3854
114 66 6038
115 66 2592
116 66 2857
117 66 2022
118 66 7003
119 66 4227
120 66 3488
121 66 5454
122 66 7229
123 66 3399
124 66 4034
125 66 3094
126 66 4826
127 66 6785
128 66 5245
129 66 2406
130 66 7025
131 66 5390
132 66 3229
133 66 6774
134 66 7278
135 66 4588
136 66 4277
137 66 5801
138 66 7806
139 66 1899
140 66 5163
141 66 3344
142 66 3682
143 66 4703
144 66 2915
145 66 4694
146 66 3361
147 66 2677
148 66 5213
149 66 4072
150 66 7308
151 66 3159
152 66 4717
153 66 2892
154 66 5417
155 66 5460
156 66 3712
157 66 5400
158 66 3286
159 66 4910
160 66 5567
161 66 3879
162 66 5271
163 66 4864
164 66 3484
165 66 3902
166 66 6124
167 66 2657
168 66 3747
169 66 3661
170 66 7184
171 66 4826
172 66 5019
173 66 3605
174 66 1952
175 66 3948
176 66 2701
177 66 5221
178 66 4695
179 66 4623
180 66 2118
181 66 4595
182 66 4551
183 66 3607
184 66 6279
185 66 3970
186 66 3102
187 66 4215
188 66 2259
189 66 7007
190 66 5307
191 66 5245
192 66 5308
193 66 3526
194 66 3769
195 66 2054
196 66 6746
197 66 3501
198 66 2907
199 66 6250
200 66 8025
201 66 1978
202 66 4637
203 66 3270
204 66 4721
205 66 7895
206 66 3563
207 66 4386
208 66 6415
209 66 5492
210 66 5157
211 66 2649
212 66 11598
213 66 4466
214 66 2877
215 66 6769
216 66 2069
217 66 4755
218 66 6158
219 66 4731
220 66 2214
221 66 3175
222 66 6799
223 66 2584
224 66 4144
225 66 3639
226 66 8452
227 66 4037
228 66 3634
229 66 2965
230 66 3007
231 66 3667
232 66 4121
233 66 5560
234 66 4837
235 66 4273
236 66 4535
237 66 4236
238 66 6746
239 66 5165
240 66 10544
241 66 2902
242 66 2876
243 66 4616
244 66 4945
245 66 4379
246 66 3010
247 66 8961
248 66 2136
249 66 4969
250 66 4526
251 66 4047
252 66 6202
253 66 6840
254 66 3967
255 66 4948
256 66 3127
257 66 2262
258 66 5544
259 66 3813
260 66 6541
261 66 1246
262 66 5507
263 66 2431
264 66 4522
265 66 6633
266 66 4574
267 66 5312
268 66 3519
269 66 5463
270 66 4507
271 66 4343
272 66 2907
273 66 8587
274 66 4430
275 66 4119
276 66 4967
277 66 3240
278 66 7167
279 66 8898
280 66 2580
281 66 4073
282 66 5390
283 66 4429
284 66 3435
285 66 8971
286 66 5139
287 66 3989
288 66 4238
289 66 1865
290 66 5466
291 66 3630
292 66 4088
293 66 5683
294 66 6107
295 66 2571
296 66 4360
297 66 4235
298 66 4964
299 66 7332
300 66 1593
301 66 3234
302 66 5060
303 66 3447
304 66 4378
305 66 1969
306 66 3055
307 66 2748
308 66 3040
309 66 2170
310 66 2411
311 66 4382
312 66 4759
313 66 5149
314 66 4479
315 66 4264
316 66 1253
317 66 2071
318 66 2638
319 66 4036
320 66 4354
321 66 1294
322 66 4950
323 66 4725
324 66 3624
325 66 5141
326 66 1808
327 66 2065
328 66 5346
329 66 3261
330 66 4189
331 66 3201
332 66 3145
333 66 3850
334 66 3820
335 66 2336
336 66 3626
337 66 9764
338 66 3365
339 66 3342
340 66 5564
341 66 4815
342 66 8846
343 66 4259
344 66 5351
345 66 3645
346 66 1454
347 66 4144
348 66 4500
349 66 3191
350 66 4411
351 66 1562
352 66 7245
353 66 5299
354 66 3064
355 66 6621
356 66 4335
357 66 7650
358 66 4214
359 66 3521
360 66 5862
361 66 3191
362 66 4993
363 66 2854
364 66 3427
365 66 3901
366 66 5736
367 66 2315
368 66 3661
369 66 1719
370 66 4327
371 66 2296
372 66 5061
373 66 3853
374 66 2288
375 66 4035
376 66 6164
377 66 4114
378 66 6873
379 66 2461
380 66 3372
381 66 4331
382 66 3667
383 66 4168
384 66 1700
385 66 4219
386 66 5959
387 66 3281
388 66 2662
389 66 4773
390 66 3916
391 66 6137
392 66 3335
393 66 4699
394 66 6906
395 66 5683
396 66 2775
397 66 3330
398 66 2331
399 66 4499
400 66 5838
401 66 3550
402 66 4392
403 66 3489
404 66 4712
405 66 10479
406 66 4615
407 66 8071
408 66 8417
409 66 3023
410 66 4580
411 66 2009
412 66 4771
413 66 7140
414 66 2910
415 66 3240
416 66 4264
417 66 4211
418 66 2876
419 66 3348
420 66 2475
421 66 7533
422 66 4568
423 66 2499
424 66 3582
425 66 1496
426 66 3634
427 66 4706
428 66 2822
429 66 2935
430 66 11143
431 66 4203
432 66 4520
433 66 3228
434 66 3393
435 66 4951
436 66 6745
437 66 5219
438 66 3896
439 66 2861
440 66 5761
441 66 4847
442 66 3831
443 66 7219
444 66 3357
445 66 2572
446 66 5980
447 66 3232
448 66 4309
449 66 1706
450 66 5780
451 66 4011
452 66 3989
453 66 5136
454 66 4797
455 66 2804
456 66 6507
457 66 3041
458 66 4921
459 66 3983
460 66 3520
461 66 2377
462 66 5109
463 66 3870
464 66 3803
465 66 5649
466 66 4342
467 66 5516
468 66 3219
469 66 4912
470 66 6807
471 66 4426
472 66 5706
473 66 5617
474 66 3472
475 66 3589
476 66 2927
477 66 4167
478 66 3872
479 66 4465
480 66 3999
481 66 5385
482 66 4701
483 66 8150
484 66 5632
485 66 2343
486 66 2937
487 66 5794
488 66 5257
489 66 2980
490 66 2445
491 66 4456
492 66 2414
493 66 4935
494 66 3154
495 66 4225
496 66 3491
497 66 7493
498 66 6563
499 66 2845
500 66 8147
1 67 5
2 67 2491
4 67 866
5 67 1385
6 67 10
11 67 1975
12 67 1845
13 67 28
14 67 8
15 67 1289
16 67 1257
17 67 1465
18 67 774
22 67 892
23 67 1137
24 67 17
25 67 1311
26 67 2015
29 67 772
31 67 10
33 67 751
34 67 1618
36 67 3
37 67 1689
38 67 1
39 67 8
40 67 67
44 67 1466
45 67 17
46 67 1491
47 67 19
48 67 12
49 67 858
52 67 1460
54 67 6
57 67 22
58 67 1694
59 67 6
62 67 1454
65 67 6
66 67 1675
67 67 841
68 67 1836
69 67 2071
70 67 4
73 67 2
75 67 979
79 67 7
84 67 1362
85 67 9
86 67 2228
90 67 1698
91 67 1425
93 67 1174
94 67 1423
95 67 2704
96 67 234
97 67 909
98 67 5
100 67 1450
102 67 3504
103 67 1615
104 67 4
105 67 1372
110 67 1443
111 67 1272
112 67 17
113 67 19
115 67 1219
117 67 994
118 67 6
120 67 6
121 67 8
123 67 4
124 67 45
132 67 3
135 67 1309
137 67 1330
138 67 7
139 67 1714
141 67 1
143 67 1827
144 67 929
146 67 1344
147 67 1485
148 67 10
149 67 10
150 67 6
151 67 1889
152 67 11
156 67 2
158 67 2370
161 67 6
162 67 4
165 67 6
168 67 6
169 67 8
171 67 2498
173 67 1549
174 67 1052
175 67 16
176 67 1204
178 67 1674
179 67 13
180 67 741
182 67 9
183 67 1769
184 67 5
185 67 4
187 67 3
188 67 1377
190 67 7
191 67 1904
192 67 6
193 67 9
194 67 5
195 67 1524
197 67 1256
198 67 1194
201 67 1639
203 67 1668
206 67 11
207 67 2
209 67 10
210 67 1991
212 67 2
213 67 4
216 67 1590
218 67 12
220 67 4
223 67 890
224 67 851
225 67 4
226 67 7
227 67 10
229 67 907
230 67 1868
231 67 14
232 67 1553
234 67 44
237 67 547
239 67 3
241 67 1602
242 67 738
244 67 13
245 67 8
247 67 3
248 67 14
250 67 5
251 67 14
252 67 8
254 67 4
255 67 17
256 67 1533
257 67 1065
258 67 7
259 67 1605
261 67 1687
262 67 76
264 67 1798
268 67 1285
271 67 2
272 67 1390
274 67 5
275 67 21
276 67 2251
277 67 2
279 67 4
280 67 4
281 67 1
285 67 4
287 67 10
288 67 6
289 67 8
290 67 9
291 67 10
292 67 1568
294 67 4
295 67 7
297 67 9
298 67 1
300 67 1351
301 67 2868
302 67 4
304 67 5
305 67 1910
306 67 821
309 67 363
310 67 1951
311 67 7
313 67 5
316 67 1450
317 67 1029
318 67 1148
320 67 8
322 67 1804
324 67 1336
325 67 3
327 67 778
328 67 10
329 67 5
331 67 2974
332 67 2
333 67 26
334 67 3077
335 67 98
336 67 1237
338 67 12
339 67 2500
340 67 4
343 67 1045
344 67 17
346 67 1133
347 67 1380
348 67 5
349 67 1699
350 67 1655
351 67 1209
354 67 29
356 67 3
357 67 8
360 67 5
361 67 6
362 67 23
363 67 1133
364 67 3
365 67 5
366 67 5
367 67 896
368 67 855
369 67 1324
371 67 1648
373 67 2050
374 67 1156
375 67 17
377 67 2637
379 67 3
380 67 1366
381 67 8
384 67 709
388 67 1768
390 67 46
391 67 10
392 67 1836
397 67 2173
398 67 1149
399 67 3
402 67 1412
404 67 4
407 67 8
409 67 1430
410 67 1565
411 67 1105
416 67 778
417 67 1708
419 67 1116
422 67 3
423 67 1403
424 67 1469
425 67 1184
428 67 943
433 67 2504
434 67 3
435 67 1565
436 67 34
437 67 2
438 67 5
439 67 1224
441 67 1128
442 67 1913
444 67 5
445 67 2168
446 67 7
447 67 5
448 67 1193
449 67 179
451 67 11
452 67 1071
453 67 6
454 67 1847
455 67 7
457 67 4
458 67 19
459 67 1567
460 67 3
461 67 902
465 67 525
466 67 6
468 67 2438
473 67 7
476 67 1216
477 67 84
478 67 4
479 67 1647
480 67 5
482 67 11
483 67 8
485 67 1190
486 67 1763
489 67 1210
490 67 2633
491 67 663
493 67 1795
494 67 7
495 67 4
496 67 4
499 67 2616
1 68 4036
2 68 2112
3 68 2570
6 68 3530
7 68 3554
8 68 4609
9 68 4160
10 68 3405
11 68 1848
12 68 592
13 68 4011
14 68 4423
19 68 4142
20 68 3979
21 68 6452
24 68 4660
25 68 3663
27 68 8424
28 68 4949
30 68 3188
31 68 2925
32 68 3006
35 68 2818
36 68 3865
38 68 3180
39 68 4469
40 68 4074
41 68 2812
42 68 4044
43 68 5155
44 68 2209
45 68 5199
46 68 2822
47 68 3715
48 68 3340
50 68 2644
51 68 3502
52 68 2209
53 68 2473
54 68 3188
55 68 4026
56 68 3816
57 68 2596
59 68 2044
60 68 3517
61 68 3326
62 68 4
63 68 4065
64 68 4653
65 68 3936
69 68 1657
70 68 3624
71 68 3591
72 68 3732
73 68 4132
74 68 3657
76 68 3443
77 68 3464
78 68 3706
79 68 3793
80 68 2906
81 68 4525
82 68 3113
83 68 5095
85 68 3382
87 68 3203
88 68 4699
89 68 2979
92 68 2965
95 68 2856
96 68 2071
98 68 3038
99 68 1683
100 68 1118
101 68 4320
102 68 30
104 68 3610
106 68 3631
107 68 5748
108 68 5137
109 68 3007
111 68 3950
112 68 6761
113 68 4413
114 68 4799
116 68 2728
118 68 5088
119 68 3042
120 68 2201
121 68 4135
122 68 4152
123 68 2414
124 68 2452
125 68 2859
126 68 4301
127 68 3669
128 68 2329
129 68 3621
130 68 4769
131 68 3384
132 68 5026
133 68 2848
134 68 4573
135 68 12
136 68 3173
137 68 3862
138 68 4356
139 68 1733
140 68 6492
141 68 5840
142 68 5802
143 68 3862
145 68 5297
148 68 3795
149 68 3872
150 68 4171
151 68 2397
152 68 3587
153 68 3325
154 68 3349
155 68 3725
156 68 5185
157 68 4288
158 68 1330
159 68 3428
160 68 7009
161 68 3899
162 68 3646
163 68 4675
164 68 2190
165 68 4861
166 68 3026
167 68 2912
168 68 3161
169 68 3273
170 68 2708
171 68 753
172 68 3950
175 68 2982
177 68 4239
178 68 5447
179 68 3410
181 68 4386
182 68 3938
183 68 2378
184 68 4244
185 68 3627
186 68 3498
187 68 4432
189 68 4163
190 68 4347
192 68 4027
193 68 2409
194 68 3182
196 68 3660
199 68 5183
200 68 3719
202 68 4308
204 68 2837
205 68 6466
206 68 3350
207 68 3841
208 68 4379
209 68 3851
211 68 3416
212 68 3250
213 68 2512
214 68 2569
215 68 2536
217 68 3078
218 68 5690
219 68 4426
220 68 3059
221 68 2897
222 68 5824
223 68 1170
225 68 4220
226 68 5175
227 68 4936
228 68 3607
230 68 2104
231 68 3275
232 68 3559
233 68 3682
234 68 3184
235 68 4044
236 68 4533
237 68 4519
238 68 3638
239 68 5483
240 68 4635
242 68 3938
243 68 2359
244 68 2390
245 68 4033
246 68 3713
247 68 6117
248 68 2052
249 68 3441
250 68 1718
251 68 4891
252 68 3936
253 68 2550
254 68 4775
255 68 4985
258 68 2854
260 68 5530
262 68 4797
263 68 5426
264 68 16
265 68 5114
266 68 4998
267 68 5022
269 68 3749
270 68 3674
271 68 6407
272 68 3092
273 68 3145
274 68 3552
275 68 3871
276 68 3444
277 68 5530
278 68 5075
279 68 6080
280 68 4912
281 68 6878
282 68 2911
283 68 3124
284 68 2968
285 68 6047
286 68 4080
287 68 3019
288 68 3050
289 68 4840
290 68 4190
291 68 3485
292 68 3644
293 68 4081
294 68 4578
295 68 3352
296 68 5506
297 68 3757
298 68 2538
299 68 4802
301 68 140
302 68 2569
303 68 2909
304 68 3853
307 68 2904
308 68 5120
309 68 1834
310 68 5420
311 68 3731
312 68 3591
313 68 2537
314 68 2680
315 68 4169
319 68 4223
320 68 4758
321 68 2616
322 68 3386
323 68 5040
325 68 3188
326 68 2872
328 68 4362
329 68 6002
330 68 2489
331 68 3267
332 68 4329
333 68 3606
334 68 1692
335 68 1427
337 68 4610
338 68 2186
340 68 3892
341 68 5559
342 68 4172
343 68 3316
344 68 3137
345 68 3609
348 68 3789
350 68 1598
352 68 4949
353 68 2890
354 68 2512
355 68 3615
356 68 3354
357 68 5046
358 68 5568
359 68 3524
360 68 3651
361 68 2786
362 68 3883
364 68 2927
365 68 4770
366 68 2795
368 68 2698
370 68 5321
372 68 4316
373 68 2742
375 68 3826
376 68 5004
378 68 4901
379 68 3318
381 68 3616
382 68 1858
383 68 4679
385 68 3029
386 68 3124
387 68 3757
389 68 5368
390 68 4538
391 68 2173
393 68 4436
394 68 3526
395 68 2677
396 68 3856
397 68 3146
399 68 3982
400 68 4293
401 68 2451
402 68 3537
403 68 3080
404 68 4221
405 68 4622
406 68 5479
407 68 4735
408 68 5305
412 68 2933
413 68 4866
414 68 1821
415 68 4179
416 68 2579
417 68 977
418 68 2570
420 68 3344
421 68 3997
422 68 3636
426 68 2433
427 68 4865
429 68 3601
430 68 4726
431 68 3983
432 68 4528
433 68 1925
434 68 2869
435 68 3079
436 68 3870
437 68 3606
438 68 4693
440 68 4410
443 68 3506
444 68 3344
446 68 3678
447 68 2676
448 68 3414
449 68 2674
450 68 4345
451 68 2093
452 68 2
453 68 3649
454 68 3994
455 68 2821
456 68 4664
457 68 4856
458 68 5039
460 68 4925
462 68 2346
463 68 2962
464 68 2335
465 68 4175
466 68 3573
467 68 4923
468 68 2
469 68 3965
470 68 2555
471 68 4135
472 68 3836
473 68 4814
474 68 2882
475 68 4169
477 68 3122
478 68 4800
479 68 3277
480 68 3369
481 68 2956
482 68 4889
483 68 4420
484 68 2993
487 68 2958
488 68 2218
490 68 2532
492 68 3186
493 68 1397
494 68 2642
495 68 3370
496 68 4704
497 68 4800
498 68 5864
499 68 2437
500 68 5735
1 69 23
2 69 71
3 69 133
4 69 5317
5 69 3591
6 69 50
7 69 83
8 69 432
9 69 74
10 69 129
11 69 426
12 69 914
13 69 76
14 69 17
15 69 2351
16 69 2037
17 69 3050
18 69 2338
19 69 108
20 69 62
21 69 42
22 69 2277
23 69 2457
24 69 88
25 69 2
26 69 993
27 69 57
28 69 116
29 69 1927
30 69 86
31 69 100
32 69 126
33 69 1596
34 69 3471
35 69 49
36 69 22
37 69 2770
38 69 134
39 69 70
40 69 56
41 69 63
42 69 708
43 69 60
44 69 194
45 69 67
46 69 19
47 69 64
48 69 64
49 69 2178
50 69 246
51 69 46
52 69 82
53 69 210
54 69 210
55 69 52
56 69 51
57 69 41
58 69 2334
59 69 46
60 69 37
62 69 832
63 69 161
64 69 90
65 69 66
66 69 1970
67 69 1780
68 69 1851
69 69 575
70 69 193
71 69 63
72 69 46
73 69 103
74 69 36
75 69 1651
76 69 36
77 69 48
78 69 62
79 69 62
80 69 50
81 69 45
82 69 108
83 69 98
84 69 3559
85 69 225
86 69 1962
87 69 19
88 69 37
89 69 131
90 69 2765
91 69 2187
92 69 45
93 69 3338
94 69 2848
95 69 56
96 69 37
97 69 3722
98 69 26
99 69 171
100 69 354
101 69 56
102 69 1382
103 69 2964
104 69 14
105 69 1804
106 69 45
107 69 11
108 69 65
109 69 18
110 69 1648
111 69 3
112 69 62
113 69 108
114 69 25
115 69 1645
116 69 355
117 69 1568
118 69 110
119 69 119
120 69 291
121 69 111
122 69 144
123 69 14
124 69 110
125 69 164
126 69 74
127 69 42
128 69 82
129 69 178
130 69 78
131 69 89
132 69 70
133 69 190
134 69 86
135 69 1657
136 69 99
137 69 6
138 69 215
139 69 168
140 69 38
141 69 229
142 69 156
143 69 38
144 69 2287
145 69 6
146 69 1746
147 69 2732
148 69 58
149 69 40
150 69 134
151 69 49
152 69 57
153 69 19
154 69 99
155 69 112
156 69 25
157 69 62
158 69 272
159 69 87
160 69 65
161 69 67
162 69 105
163 69 51
164 69 111
165 69 101
166 69 43
167 69 21
168 69 219
169 69 19
170 69 22
171 69 732
172 69 125
173 69 2567
174 69 1184
175 69 23
176 69 3473
177 69 53
178 69 25
179 69 62
180 69 1946
181 69 26
182 69 153
183 69 426
184 69 43
185 69 59
186 69 80
187 69 93
188 69 2024
189 69 98
190 69 60
191 69 1701
192 69 36
193 69 195
194 69 49
195 69 1475
196 69 54
197 69 2583
198 69 4384
199 69 135
200 69 25
201 69 1671
202 69 72
203 69 1596
204 69 48
205 69 80
206 69 77
207 69 280
208 69 93
209 69 98
210 69 1617
211 69 24
212 69 228
213 69 46
214 69 93
215 69 161
216 69 1466
217 69 9
218 69 54
219 69 80
220 69 22
221 69 35
222 69 78
223 69 105
224 69 3843
225 69 34
226 69 12
227 69 334
228 69 228
229 69 1870
230 69 229
231 69 73
232 69 77
233 69 117
234 69 97
235 69 11
236 69 90
237 69 31
238 69 36
239 69 53
240 69 91
241 69 3515
242 69 54
243 69 102
244 69 27
245 69 77
246 69 231
247 69 66
248 69 54
249 69 28
250 69 145
251 69 307
252 69 116
253 69 168
254 69 70
255 69 65
256 69 2873
257 69 3525
258 69 38
259 69 2588
260 69 177
261 69 3512
262 69 43
263 69 120
264 69 1275
265 69 65
266 69 85
267 69 44
268 69 2838
269 69 127
270 69 90
271 69 141
272 69 32
273 69 33
274 69 53
275 69 41
276 69 79
277 69 49
278 69 44
279 69 52
280 69 62
281 69 89
282 69 219
283 69 103
284 69 25
285 69 72
286 69 68
287 69 112
288 69 98
289 69 85
290 69 61
291 69 108
292 69 86
293 69 24
294 69 14
295 69 63
296 69 22
297 69 13
298 69 58
299 69 22
300 69 2686
301 69 980
302 69 62
303 69 32
304 69 85
305 69 2604
306 69 2304
307 69 24
308 69 66
309 69 57
310 69 31
311 69 249
312 69 45
313 69 54
314 69 224
315 69 42
316 69 1853
317 69 1559
318 69 2260
319 69 33
320 69 67
321 69 56
322 69 70
323 69 23
324 69 1411
325 69 537
326 69 37
327 69 2079
328 69 74
329 69 197
330 69 70
331 69 255
332 69 8
333 69 43
334 69 1195
335 69 413
336 69 1374
337 69 72
338 69 348
339 69 2832
340 69 46
341 69 52
342 69 26
343 69 36
344 69 17
345 69 99
346 69 2204
347 69 1700
348 69 91
349 69 3012
350 69 567
351 69 3354
352 69 83
353 69 70
354 69 27
355 69 33
356 69 66
357 69 56
358 69 53
359 69 12
360 69 26
361 69 70
362 69 510
363 69 1553
364 69 71
365 69 78
366 69 39
367 69 2785
368 69 21
369 69 1492
370 69 24
371 69 2388
372 69 86
373 69 173
374 69 2529
375 69 46
376 69 27
377 69 2958
378 69 89
379 69 30
380 69 1752
381 69 14
382 69 64
383 69 49
384 69 3384
385 69 82
386 69 221
387 69 54
388 69 3123
389 69 10
390 69 109
391 69 218
392 69 5530
393 69 85
394 69 98
395 69 54
396 69 33
397 69 96
398 69 2531
399 69 64
400 69 49
401 69 22
402 69 27
403 69 198
404 69 66
405 69 83
406 69 38
407 69 91
408 69 161
409 69 2058
410 69 2483
411 69 2301
412 69 77
413 69 97
414 69 200
415 69 105
416 69 56
417 69 569
418 69 106
419 69 4587
420 69 55
421 69 162
422 69 79
423 69 1861
424 69 4285
425 69 2368
426 69 16
427 69 35
428 69 2404
429 69 12
430 69 80
431 69 52
432 69 39
433 69 155
434 69 77
435 69 77
436 69 87
437 69 84
438 69 81
439 69 2600
440 69 34
441 69 3057
442 69 2447
443 69 43
444 69 205
445 69 2428
446 69 123
447 69 88
448 69 46
449 69 115
450 69 58
451 69 346
452 69 2472
453 69 70
454 69 32
455 69 18
456 69 63
457 69 68
458 69 74
459 69 1692
460 69 68
461 69 1282
462 69 97
463 69 10
464 69 159
465 69 19
466 69 64
467 69 46
468 69 1948
469 69 140
470 69 144
471 69 157
472 69 120
473 69 88
474 69 26
475 69 26
476 69 2204
477 69 126
478 69 63
479 69 40
480 69 42
481 69 67
482 69 116
483 69 9
484 69 50
485 69 2372
486 69 1876
487 69 47
488 69 79
489 69 2181
490 69 145
491 69 1974
492 69 102
493 69 61
494 69 65
495 69 31
496 69 44
497 69 19
498 69 95
499 69 289
500 69 25
1 70 3966
2 70 4505
3 70 3849
6 70 5822
7 70 6481
8 70 2819
9 70 5779
10 70 1358
11 70 3004
12 70 1391
13 70 5964
14 70 3697
19 70 4131
20 70 4701
21 70 4394
24 70 3069
25 70 4038
27 70 6530
28 70 2295
30 70 2835
31 70 6007
32 70 3903
35 70 5341
36 70 3914
38 70 3384
39 70 8526
40 70 2936
41 70 7117
42 70 5233
43 70 5584
44 70 1543
45 70 5652
46 70 5124
47 70 5135
48 70 4300
50 70 3104
51 70 2854
52 70 2659
53 70 3191
54 70 2756
55 70 4426
56 70 3377
57 70 3485
59 70 2465
60 70 4225
61 70 4165
62 70 309
63 70 2714
64 70 10102
65 70 6110
66 70 20
69 70 303
70 70 3360
71 70 4107
72 70 6948
73 70 3819
74 70 6871
76 70 3232
77 70 2854
78 70 4638
79 70 3960
80 70 1575
81 70 6824
82 70 3996
83 70 2604
85 70 2218
86 70 34
87 70 2413
88 70 2078
89 70 4095
92 70 3662
95 70 2160
96 70 3501
98 70 8057
99 70 3085
100 70 750
101 70 4843
102 70 208
104 70 2866
106 70 4032
107 70 5375
108 70 3166
109 70 3067
111 70 3979
112 70 5813
113 70 2278
114 70 4832
116 70 1339
118 70 10894
119 70 2741
120 70 2305
121 70 3175
122 70 3212
123 70 2700
124 70 4974
125 70 3958
126 70 3622
127 70 6896
128 70 3112
129 70 6333
130 70 6187
131 70 4026
132 70 3345
133 70 5377
134 70 6423
135 70 5
136 70 3929
137 70 4026
138 70 4825
139 70 3235
140 70 6830
141 70 3866
142 70 4351
143 70 4915
145 70 3760
148 70 5664
149 70 3762
150 70 3389
151 70 2461
152 70 4573
153 70 2431
154 70 3934
155 70 3356
156 70 4257
157 70 6841
158 70 2689
159 70 2900
160 70 7761
161 70 3826
162 70 3346
163 70 4421
164 70 4245
165 70 5904
166 70 4302
167 70 2931
168 70 1913
169 70 4287
170 70 5527
171 70 585
172 70 4465
175 70 7956
177 70 6964
178 70 6744
179 70 3040
181 70 6472
182 70 1968
183 70 2643
184 70 2524
185 70 3259
186 70 3014
187 70 6414
189 70 5929
190 70 4656
191 70 71
192 70 4509
193 70 3174
194 70 3642
196 70 6905
199 70 5033
200 70 7897
202 70 4093
204 70 5457
205 70 6957
206 70 3123
207 70 2886
208 70 4860
209 70 4029
210 70 61
211 70 4987
212 70 2615
213 70 2981
214 70 2645
215 70 3905
217 70 5362
218 70 6472
219 70 4124
220 70 5165
221 70 6283
222 70 3481
223 70 1090
225 70 2311
226 70 4152
227 70 5804
228 70 3275
230 70 1767
231 70 4760
232 70 3449
233 70 11099
234 70 2398
235 70 4943
236 70 4499
237 70 3720
238 70 5841
239 70 4904
240 70 7152
242 70 2017
243 70 6151
244 70 4309
245 70 6145
246 70 3835
247 70 5969
248 70 2958
249 70 5102
250 70 2014
251 70 5870
252 70 2898
253 70 3945
254 70 4102
255 70 5682
258 70 3064
260 70 3647
262 70 2349
263 70 3574
264 70 286
265 70 4646
266 70 6674
267 70 5282
269 70 3447
270 70 6243
271 70 6593
272 70 3065
273 70 4891
274 70 4352
275 70 5899
276 70 3667
277 70 3239
278 70 6820
279 70 6078
280 70 2541
281 70 7568
282 70 3882
283 70 1195
284 70 4994
285 70 5912
286 70 5885
287 70 2680
288 70 4708
289 70 3156
290 70 7163
291 70 3034
292 70 3573
293 70 5099
294 70 5747
295 70 3096
296 70 2475
297 70 8490
298 70 2511
299 70 3846
301 70 317
302 70 2630
303 70 4980
304 70 5658
307 70 2939
308 70 3124
309 70 3305
310 70 3869
311 70 2916
312 70 3786
313 70 2635
314 70 3178
315 70 5300
319 70 4965
320 70 5442
321 70 3923
322 70 4716
323 70 8242
325 70 3245
326 70 3507
328 70 4481
329 70 3911
330 70 3440
331 70 3727
332 70 4512
333 70 3929
334 70 827
335 70 1642
337 70 5875
338 70 2309
340 70 7091
341 70 3850
342 70 5293
343 70 6125
344 70 4784
345 70 3445
348 70 5722
350 70 2205
352 70 4402
353 70 6394
354 70 3402
355 70 6964
356 70 3715
357 70 5536
358 70 7393
359 70 4289
360 70 5826
361 70 4287
362 70 4331
364 70 3479
365 70 4171
366 70 3176
368 70 3156
370 70 2419
372 70 3450
373 70 5172
375 70 3698
376 70 4495
378 70 3259
379 70 2929
381 70 8323
382 70 3075
383 70 6542
385 70 3004
386 70 8311
387 70 4283
389 70 3640
390 70 2265
391 70 3919
393 70 4705
394 70 4429
395 70 2244
396 70 3557
397 70 3298
399 70 6146
400 70 5862
401 70 5509
402 70 2610
403 70 4514
404 70 6403
405 70 7031
406 70 4248
407 70 4073
408 70 3968
409 70 1
412 70 2810
413 70 6260
414 70 3196
415 70 4082
416 70 2384
417 70 1311
418 70 2806
420 70 4907
421 70 3812
422 70 5123
426 70 5515
427 70 8219
429 70 2990
430 70 4868
431 70 4473
432 70 3194
433 70 2262
434 70 3473
435 70 2283
436 70 6014
437 70 2943
438 70 3934
440 70 5793
443 70 6637
444 70 2144
445 70 6
446 70 4338
447 70 4151
448 70 4912
449 70 2781
450 70 5817
451 70 2336
453 70 3051
454 70 4888
455 70 4592
456 70 6313
457 70 4290
458 70 5750
460 70 5600
462 70 3162
463 70 3738
464 70 2579
465 70 5364
466 70 1985
467 70 5215
468 70 47
469 70 5000
470 70 3991
471 70 3415
472 70 11301
473 70 4037
474 70 5004
475 70 2742
477 70 2717
478 70 3903
479 70 4410
480 70 5978
481 70 6433
482 70 2154
483 70 5097
484 70 6394
487 70 6268
488 70 3123
490 70 2211
492 70 4806
493 70 2063
494 70 3657
495 70 3849
496 70 4773
497 70 4306
498 70 5365
499 70 1776
500 70 3184
1 71 4419
2 71 2068
3 71 4068
6 71 5285
7 71 4735
8 71 4819
9 71 8591
10 71 4494
11 71 3971
12 71 1364
13 71 5563
14 71 5403
19 71 3815
20 71 4692
21 71 6485
24 71 4403
25 71 3964
27 71 5017
28 71 3354
30 71 4897
31 71 7377
32 71 4407
35 71 5925
36 71 4400
38 71 3565
39 71 5582
40 71 3882
41 71 3276
42 71 6846
43 71 7154
44 71 2769
45 71 3851
46 71 2512
47 71 4766
48 71 4317
50 71 4150
51 71 4498
52 71 4488
53 71 2860
54 71 3806
55 71 4834
56 71 3737
57 71 4939
59 71 3825
60 71 4753
61 71 4194
62 71 239
63 71 6278
64 71 4563
65 71 4896
66 71 44
69 71 1758
70 71 3547
71 71 4172
72 71 4047
73 71 6812
74 71 4088
76 71 5329
77 71 4564
78 71 3809
79 71 5766
80 71 2360
81 71 8362
82 71 5397
83 71 4429
85 71 3350
86 71 75
87 71 4036
88 71 4101
89 71 5427
92 71 4680
95 71 3214
96 71 3769
98 71 5792
99 71 3120
100 71 1868
101 71 3248
102 71 695
104 71 3901
106 71 4599
107 71 6123
108 71 4787
109 71 3336
111 71 3984
112 71 4936
113 71 3659
114 71 5195
116 71 4231
118 71 8631
119 71 4414
120 71 2768
121 71 4529
122 71 4810
123 71 3890
124 71 3638
125 71 4797
126 71 6554
127 71 4031
128 71 7086
129 71 4793
130 71 6999
131 71 4141
132 71 2915
133 71 4095
134 71 6203
135 71 311
136 71 4195
137 71 3968
138 71 6187
139 71 2579
140 71 5196
141 71 3324
142 71 3559
143 71 3137
145 71 5188
147 71 39
148 71 3980
149 71 3933
150 71 4709
151 71 3448
152 71 4939
153 71 4030
154 71 4391
155 71 3687
156 71 4836
157 71 3649
158 71 3452
159 71 4073
160 71 7739
161 71 5738
162 71 2711
163 71 7105
164 71 2706
165 71 7936
166 71 3643
167 71 3357
168 71 4026
169 71 5506
170 71 6864
171 71 1499
172 71 5925
175 71 5788
177 71 3835
178 71 2797
179 71 5336
181 71 4443
182 71 6780
183 71 2816
184 71 5899
185 71 5116
186 71 3612
187 71 5193
189 71 4289
190 71 3610
191 71 202
192 71 3362
193 71 3339
194 71 6160
196 71 3994
199 71 4644
200 71 3749
202 71 5369
204 71 5852
205 71 6540
206 71 4654
207 71 3607
208 71 5254
209 71 2366
210 71 195
211 71 4471
212 71 3931
213 71 5010
214 71 4527
215 71 4629
217 71 4852
218 71 5739
219 71 5378
220 71 6187
221 71 3779
222 71 6079
223 71 1972
225 71 5309
226 71 6857
227 71 3311
228 71 4951
230 71 2885
231 71 4819
232 71 2914
233 71 7890
234 71 7442
235 71 4730
236 71 5636
237 71 3612
238 71 4126
239 71 5133
240 71 5972
242 71 2941
243 71 5293
244 71 4841
245 71 5015
246 71 3771
247 71 6874
248 71 2995
249 71 6221
250 71 3480
251 71 3228
252 71 3913
253 71 4607
254 71 6007
255 71 3793
258 71 5371
260 71 5347
262 71 8808
263 71 5476
264 71 379
265 71 6199
266 71 6537
267 71 4337
268 71 20
269 71 3603
270 71 4742
271 71 6451
272 71 2058
273 71 3882
274 71 7572
275 71 5965
276 71 4638
277 71 4876
278 71 4024
279 71 6827
280 71 5912
281 71 8837
282 71 3017
283 71 4447
284 71 2815
285 71 6786
286 71 8635
287 71 4691
288 71 4180
289 71 3091
290 71 5868
291 71 4481
292 71 2901
293 71 4502
294 71 4445
295 71 2839
296 71 5446
297 71 5964
298 71 4694
299 71 3190
301 71 686
302 71 4655
303 71 2910
304 71 4980
307 71 3470
308 71 4692
309 71 3101
310 71 4769
311 71 3520
312 71 7090
313 71 4787
314 71 4076
315 71 7798
316 71 4
319 71 7862
320 71 6128
321 71 4163
322 71 2889
323 71 5115
325 71 6099
326 71 3816
328 71 3599
329 71 3376
330 71 4222
331 71 2775
332 71 4720
333 71 2478
334 71 1734
335 71 2143
337 71 7465
338 71 2685
340 71 7119
341 71 3712
342 71 8506
343 71 3305
344 71 5384
345 71 5060
348 71 5002
350 71 1194
352 71 4657
353 71 4362
354 71 5017
355 71 4009
356 71 4416
357 71 8897
358 71 4204
359 71 5300
360 71 5304
361 71 3794
362 71 6217
364 71 5722
365 71 5967
366 71 5399
368 71 3719
370 71 5594
372 71 3191
373 71 1885
375 71 3916
376 71 4559
378 71 6838
379 71 4602
381 71 5874
382 71 6581
383 71 3357
385 71 5791
386 71 8797
387 71 6305
389 71 5135
390 71 3704
391 71 2752
393 71 4797
394 71 6270
395 71 3508
396 71 4200
397 71 4097
399 71 4902
400 71 4600
401 71 8506
402 71 3135
403 71 4374
404 71 7460
405 71 5948
406 71 6024
407 71 4755
408 71 7394
409 71 2
412 71 5981
413 71 7008
414 71 3153
415 71 3477
416 71 4452
417 71 3076
418 71 4502
420 71 2170
421 71 9743
422 71 5437
424 71 20
426 71 8592
427 71 5085
428 71 2
429 71 4134
430 71 5268
431 71 5074
432 71 3435
433 71 4773
434 71 5812
435 71 5463
436 71 5529
437 71 7042
438 71 5828
440 71 4686
443 71 4151
444 71 3315
445 71 16
446 71 6879
447 71 3806
448 71 2106
449 71 2564
450 71 4566
451 71 2899
452 71 26
453 71 7016
454 71 3085
455 71 6660
456 71 5455
457 71 3947
458 71 3943
459 71 4
460 71 4284
462 71 6842
463 71 3872
464 71 3815
465 71 3211
466 71 4276
467 71 4338
468 71 343
469 71 6788
470 71 4638
471 71 6770
472 71 8043
473 71 5848
474 71 2991
475 71 5117
477 71 5950
478 71 5874
479 71 3282
480 71 5737
481 71 4210
482 71 4094
483 71 4731
484 71 3953
487 71 3954
488 71 7041
490 71 3106
492 71 5078
493 71 3079
494 71 5553
495 71 7633
496 71 4998
497 71 2983
498 71 4243
499 71 1414
500 71 4581
2 72 5
3 72 4
4 72 2130
5 72 1764
6 72 6
9 72 6
10 72 8
11 72 26
12 72 72
14 72 10
15 72 578
16 72 691
17 72 1282
18 72 803
19 72 3
21 72 4
22 72 1079
23 72 1138
24 72 7
26 72 1005
27 72 2
29 72 1027
33 72 749
34 72 832
37 72 2790
38 72 8
42 72 15
43 72 5
44 72 10
45 72 6
49 72 1317
50 72 2
52 72 10
53 72 56
54 72 17
57 72 2
58 72 1127
61 72 6
62 72 180
63 72 6
64 72 9
66 72 1019
67 72 913
68 72 866
69 72 22
75 72 913
78 72 3
82 72 4
83 72 6
84 72 2393
86 72 1573
87 72 9
89 72 10
90 72 1102
91 72 776
93 72 703
94 72 1124
95 72 1
97 72 1200
99 72 63
100 72 20
101 72 6
102 72 573
103 72 1536
105 72 1048
108 72 11
110 72 1342
113 72 6
115 72 1226
116 72 4
117 72 562
119 72 59
120 72 5
121 72 3
122 72 1
123 72 8
128 72 21
129 72 4
131 72 10
134 72 11
135 72 1630
136 72 5
138 72 8
139 72 8
140 72 6
141 72 11
142 72 24
144 72 1477
146 72 898
147 72 1298
148 72 4
149 72 7
150 72 4
151 72 7
152 72 5
153 72 4
154 72 7
155 72 20
157 72 4
158 72 13
159 72 6
162 72 3
163 72 3
165 72 5
166 72 5
168 72 12
171 72 47
172 72 11
173 72 1596
174 72 819
176 72 688
177 72 5
179 72 25
180 72 1010
182 72 13
183 72 22
184 72 21
185 72 2
186 72 4
188 72 930
191 72 1375
193 72 23
195 72 1126
197 72 544
198 72 1036
199 72 5
201 72 1072
203 72 751
206 72 8
210 72 1305
212 72 20
214 72 29
216 72 1118
222 72 6
223 72 25
224 72 1271
225 72 2
228 72 30
229 72 2426
230 72 5
232 72 10
233 72 5
234 72 23
235 72 5
236 72 7
238 72 6
240 72 1
241 72 835
248 72 11
252 72 11
255 72 6
256 72 1174
257 72 984
259 72 1621
260 72 46
261 72 1353
262 72 10
263 72 10
264 72 611
267 72 5
268 72 1601
269 72 33
272 72 10
273 72 3
274 72 4
278 72 4
280 72 5
282 72 33
283 72 5
284 72 3
286 72 2
287 72 11
288 72 5
291 72 7
292 72 6
293 72 5
300 72 593
301 72 38
303 72 6
304 72 1
305 72 1215
306 72 740
308 72 6
309 72 7
314 72 9
316 72 1380
317 72 585
318 72 545
322 72 2
324 72 1946
325 72 4
326 72 8
327 72 965
329 72 14
330 72 5
331 72 6
333 72 8
334 72 19
335 72 65
336 72 2012
337 72 5
338 72 1
339 72 1226
340 72 6
341 72 4
346 72 1104
347 72 1060
348 72 7
349 72 1528
350 72 47
351 72 1703
352 72 3
354 72 3
361 72 12
362 72 15
363 72 1165
367 72 671
368 72 4
369 72 926
371 72 1114
372 72 8
374 72 1136
375 72 8
377 72 1050
380 72 801
384 72 869
385 72 6
387 72 6
388 72 1306
390 72 10
391 72 26
392 72 1427
396 72 6
398 72 1143
404 72 6
405 72 9
406 72 7
408 72 16
409 72 921
410 72 1643
411 72 1365
412 72 8
414 72 53
415 72 5
417 72 41
418 72 19
419 72 1032
423 72 1184
424 72 1445
425 72 1214
428 72 1209
430 72 15
433 72 1
439 72 1325
441 72 638
442 72 1525
445 72 1226
447 72 8
448 72 1
449 72 6
451 72 72
452 72 1329
455 72 5
457 72 6
458 72 12
459 72 1993
461 72 1333
462 72 25
463 72 7
464 72 11
466 72 7
467 72 8
468 72 572
471 72 3
472 72 5
473 72 3
474 72 1
476 72 978
477 72 8
480 72 6
482 72 10
484 72 5
485 72 1082
486 72 1560
487 72 3
488 72 14
489 72 1850
490 72 30
491 72 1140
493 72 27
494 72 1
497 72 9
498 72 7
499 72 6
1 73 4266
2 73 4040
3 73 2540
6 73 2622
7 73 2700
8 73 4158
9 73 4873
10 73 3853
11 73 1921
12 73 1300
13 73 2853
14 73 4815
19 73 2357
20 73 2604
21 73 1436
24 73 3232
25 73 3313
27 73 3526
28 73 2143
30 73 2249
31 73 2718
32 73 3178
35 73 2856
36 73 4328
38 73 3235
39 73 3774
40 73 2256
41 73 3745
42 73 3423
43 73 4172
44 73 2016
45 73 1901
46 73 2804
47 73 3140
48 73 3197
50 73 3158
51 73 2669
52 73 4610
53 73 3631
54 73 1234
55 73 2911
56 73 1863
57 73 3201
59 73 3472
60 73 2889
61 73 2275
62 73 709
63 73 3841
64 73 4751
65 73 2006
66 73 22
69 73 2652
70 73 3471
71 73 3792
72 73 3765
73 73 2543
74 73 3821
76 73 3202
77 73 2795
78 73 3099
79 73 3636
80 73 3390
81 73 3737
82 73 2396
83 73 3327
85 73 3550
86 73 35
87 73 3066
88 73 4758
89 73 2410
92 73 3402
95 73 2315
96 73 2023
98 73 3225
99 73 2898
100 73 1403
101 73 3124
102 73 689
104 73 3036
106 73 2856
107 73 2908
108 73 6147
109 73 2800
111 73 3402
112 73 4946
113 73 2838
114 73 3829
116 73 2956
118 73 6302
119 73 2856
120 73 3648
121 73 2448
122 73 3215
123 73 3109
124 73 2688
125 73 3554
126 73 5212
127 73 3709
128 73 3658
129 73 3030
130 73 5749
131 73 2526
132 73 4086
133 73 3748
134 73 3175
135 73 518
136 73 3062
137 73 3395
138 73 4456
139 73 2265
140 73 3103
141 73 2608
142 73 4219
143 73 3068
145 73 2181
147 73 12
148 73 3440
149 73 4491
150 73 3179
151 73 3352
152 73 2544
153 73 3166
154 73 2523
155 73 3926
156 73 3109
157 73 5124
158 73 3410
159 73 2942
160 73 3547
161 73 3359
162 73 2703
163 73 3085
164 73 2316
165 73 1858
166 73 3319
167 73 1792
168 73 3573
169 73 5057
170 73 4936
171 73 1005
172 73 4631
173 73 2
175 73 3192
177 73 5193
178 73 4754
179 73 3247
181 73 2955
182 73 3995
183 73 2367
184 73 4175
185 73 3480
186 73 2782
187 73 3399
189 73 5134
190 73 2060
191 73 40
192 73 2730
193 73 3323
194 73 3105
196 73 3655
199 73 5180
200 73 5736
202 73 6018
204 73 2735
205 73 2589
206 73 4856
207 73 2929
208 73 4909
209 73 5951
210 73 41
211 73 4746
212 73 3709
213 73 3776
214 73 2974
215 73 3930
217 73 4872
218 73 3826
219 73 6200
220 73 4536
221 73 4685
222 73 4230
223 73 3056
225 73 3307
226 73 3872
227 73 2827
228 73 3875
230 73 2249
231 73 4810
232 73 2514
233 73 6270
234 73 2454
235 73 4531
236 73 4828
237 73 2580
238 73 3619
239 73 3886
240 73 2794
242 73 2264
243 73 3123
244 73 5051
245 73 2952
246 73 1832
247 73 4410
248 73 3483
249 73 3461
250 73 2684
251 73 2851
252 73 2657
253 73 4065
254 73 4665
255 73 1952
258 73 2259
259 73 4
260 73 3488
262 73 2299
263 73 4300
264 73 617
265 73 3747
266 73 5526
267 73 3609
269 73 3951
270 73 2666
271 73 2652
272 73 2909
273 73 3087
274 73 3576
275 73 3349
276 73 3146
277 73 2420
278 73 5892
279 73 4307
280 73 2612
281 73 4479
282 73 3047
283 73 4232
284 73 2243
285 73 4402
286 73 4953
287 73 2943
288 73 2453
289 73 2765
290 73 4194
291 73 4809
292 73 2579
293 73 3212
294 73 3538
295 73 3223
296 73 3737
297 73 4038
298 73 3434
299 73 4805
301 73 1259
302 73 3539
303 73 2312
304 73 4136
307 73 1925
308 73 6263
309 73 2836
310 73 4027
311 73 2918
312 73 2578
313 73 3551
314 73 3236
315 73 3093
319 73 4101
320 73 3230
321 73 1814
322 73 2632
323 73 3704
325 73 3125
326 73 2178
328 73 2042
329 73 2684
330 73 2840
331 73 3395
332 73 6020
333 73 2190
334 73 1884
335 73 1542
337 73 4767
338 73 3542
340 73 3961
341 73 4898
342 73 2624
343 73 1966
344 73 5620
345 73 2876
348 73 4140
350 73 1093
352 73 5892
353 73 2420
354 73 3307
355 73 3743
356 73 2605
357 73 4082
358 73 4208
359 73 2983
360 73 2417
361 73 2976
362 73 1850
364 73 1912
365 73 4758
366 73 2253
368 73 2313
370 73 3826
372 73 2710
373 73 1835
375 73 4494
376 73 4692
378 73 3456
379 73 3961
381 73 4083
382 73 3163
383 73 4062
385 73 3583
386 73 1948
387 73 3944
389 73 1982
390 73 2918
391 73 2933
393 73 3133
394 73 6783
395 73 5490
396 73 4281
397 73 2815
399 73 2947
400 73 2344
401 73 4202
402 73 3025
403 73 3265
404 73 4475
405 73 2860
406 73 3736
407 73 4514
408 73 4109
409 73 8
412 73 2193
413 73 5622
414 73 2994
415 73 4178
416 73 3214
417 73 2392
418 73 3000
420 73 5250
421 73 4157
422 73 3228
424 73 14
426 73 4100
427 73 3707
429 73 4277
430 73 5411
431 73 2962
432 73 2872
433 73 1895
434 73 1897
435 73 3161
436 73 2881
437 73 4370
438 73 4747
440 73 2435
443 73 3676
444 73 3664
445 73 20
446 73 4413
447 73 3036
448 73 3337
449 73 1985
450 73 2356
451 73 2796
452 73 28
453 73 4269
454 73 3167
455 73 2140
456 73 3826
457 73 3459
458 73 1906
459 73 3
460 73 5163
462 73 3509
463 73 3749
464 73 2007
465 73 2864
466 73 5090
467 73 3657
468 73 167
469 73 3255
470 73 4003
471 73 2271
472 73 6274
473 73 3738
474 73 2349
475 73 4055
477 73 2594
478 73 4667
479 73 1928
480 73 2751
481 73 2524
482 73 3699
483 73 3698
484 73 4608
487 73 4679
488 73 3580
490 73 2091
492 73 2877
493 73 2481
494 73 1849
495 73 4898
496 73 3793
497 73 3960
498 73 5903
499 73 1294
500 73 5542
1 74 7851
2 74 3654
3 74 5207
5 74 12
6 74 6879
7 74 5988
8 74 6949
9 74 6520
10 74 5041
11 74 5866
12 74 2476
13 74 9468
14 74 4942
19 74 9442
20 74 6354
21 74 7211
22 74 11
24 74 5189
25 74 3630
27 74 8143
28 74 13537
30 74 8137
31 74 6439
32 74 5500
34 74 19
35 74 7162
36 74 7951
38 74 11206
39 74 8840
40 74 9745
41 74 13129
42 74 6709
43 74 6109
44 74 7896
45 74 4986
46 74 3719
47 74 6629
48 74 8548
50 74 7292
51 74 5989
52 74 6157
53 74 6367
54 74 6992
55 74 9260
56 74 8291
57 74 4645
59 74 3674
60 74 10994
61 74 4472
62 74 2072
63 74 5354
64 74 8385
65 74 5139
66 74 104
69 74 3120
70 74 6525
71 74 9190
72 74 7059
73 74 7004
74 74 6994
76 74 6789
77 74 5838
78 74 7116
79 74 7228
80 74 3795
81 74 9032
82 74 5383
83 74 6011
84 74 4
85 74 3266
86 74 121
87 74 8570
88 74 8075
89 74 5354
90 74 2
92 74 5803
94 74 13
95 74 5941
96 74 5676
98 74 4528
99 74 6054
100 74 3369
101 74 6992
102 74 2275
103 74 4
104 74 7509
106 74 11038
107 74 7654
108 74 3245
109 74 8858
111 74 3497
112 74 8941
113 74 4150
114 74 6924
116 74 5825
118 74 7272
119 74 4479
120 74 5348
121 74 5022
122 74 6404
123 74 6000
124 74 4177
125 74 5935
126 74 8885
127 74 6882
128 74 8727
129 74 4874
130 74 6867
131 74 7346
132 74 9767
133 74 7596
134 74 7828
135 74 1106
136 74 6393
137 74 3608
138 74 10098
139 74 4944
140 74 10095
141 74 5134
142 74 4843
143 74 8678
145 74 7239
147 74 196
148 74 8647
149 74 5198
150 74 6189
151 74 3319
152 74 7727
153 74 8528
154 74 7402
155 74 8493
156 74 4567
157 74 8099
158 74 4687
159 74 4330
160 74 7520
161 74 9224
162 74 3868
163 74 10749
164 74 3518
165 74 5514
166 74 7776
167 74 9552
168 74 7901
169 74 6833
170 74 8270
171 74 2595
172 74 7322
175 74 4570
177 74 8182
178 74 4485
179 74 5902
181 74 10815
182 74 7367
183 74 2232
184 74 5141
185 74 6660
186 74 4182
187 74 6219
189 74 11821
190 74 4708
191 74 1918
192 74 6417
193 74 8609
194 74 9556
196 74 6935
199 74 10314
200 74 6502
202 74 8770
204 74 7162
205 74 6776
206 74 5697
207 74 5351
208 74 6856
209 74 7645
210 74 1896
211 74 7240
212 74 6572
213 74 8261
214 74 5248
215 74 12324
217 74 9672
218 74 5737
219 74 8939
220 74 4648
221 74 7787
222 74 5891
223 74 6865
225 74 8000
226 74 5481
227 74 5615
228 74 4464
230 74 5056
231 74 10453
232 74 9366
233 74 7971
234 74 6512
235 74 5441
236 74 7411
237 74 11045
238 74 6600
239 74 8084
240 74 7769
241 74 25
242 74 6186
243 74 6418
244 74 6364
245 74 7789
246 74 3960
247 74 7971
248 74 5391
249 74 8515
250 74 3997
251 74 5494
252 74 8891
253 74 12267
254 74 4577
255 74 5144
256 74 14
258 74 5425
260 74 6168
262 74 8610
263 74 6987
264 74 1571
265 74 6597
266 74 13592
267 74 6175
268 74 37
269 74 8637
270 74 6213
271 74 11692
272 74 3996
273 74 8155
274 74 6572
275 74 5608
276 74 4973
277 74 7679
278 74 7542
279 74 7889
280 74 5953
281 74 7240
282 74 6356
283 74 6352
284 74 8937
285 74 7992
286 74 6497
287 74 5406
288 74 4769
289 74 3921
290 74 6013
291 74 5639
292 74 9484
293 74 4976
294 74 4734
295 74 4406
296 74 5533
297 74 5545
298 74 7091
299 74 8309
301 74 3518
302 74 7056
303 74 9048
304 74 5111
307 74 9348
308 74 3341
309 74 4728
310 74 7499
311 74 5335
312 74 7832
313 74 7079
314 74 7317
315 74 10419
319 74 5063
320 74 8131
321 74 6657
322 74 4960
323 74 8327
325 74 7484
326 74 5315
328 74 4649
329 74 5126
330 74 5139
331 74 3960
332 74 7937
333 74 10319
334 74 4028
335 74 3244
337 74 4758
338 74 5340
340 74 4949
341 74 5212
342 74 7975
343 74 3799
344 74 4952
345 74 8211
348 74 5170
349 74 6
350 74 5112
352 74 5401
353 74 6573
354 74 4681
355 74 7068
356 74 2665
357 74 10059
358 74 6844
359 74 5834
360 74 8957
361 74 7683
362 74 7449
364 74 7003
365 74 4530
366 74 5388
368 74 3802
370 74 5608
372 74 6765
373 74 2792
375 74 5225
376 74 6405
378 74 7950
379 74 6898
381 74 5588
382 74 6103
383 74 9686
385 74 5730
386 74 7314
387 74 6352
389 74 7411
390 74 4156
391 74 7699
393 74 5568
394 74 6605
395 74 9672
396 74 7833
397 74 3933
399 74 7887
400 74 9808
401 74 8526
402 74 4441
403 74 7803
404 74 3677
405 74 7999
406 74 8030
407 74 6289
408 74 5052
409 74 17
412 74 6987
413 74 6860
414 74 6240
415 74 5497
416 74 5084
417 74 3996
418 74 5150
420 74 4353
421 74 9238
422 74 9313
424 74 50
426 74 8468
427 74 8249
428 74 1
429 74 7916
430 74 6276
431 74 9150
432 74 5293
433 74 2869
434 74 7206
435 74 3689
436 74 9756
437 74 4233
438 74 4416
440 74 9753
443 74 9111
444 74 3308
445 74 126
446 74 11080
447 74 7890
448 74 3940
449 74 6923
450 74 9863
451 74 7002
452 74 51
453 74 4257
454 74 8651
455 74 3982
456 74 7197
457 74 7056
458 74 5222
459 74 15
460 74 9690
462 74 8936
463 74 6367
464 74 6548
465 74 11918
466 74 7565
467 74 6208
468 74 1246
469 74 6640
470 74 12396
471 74 7008
472 74 8205
473 74 5723
474 74 9092
475 74 5818
477 74 5397
478 74 4515
479 74 6159
480 74 11817
481 74 6544
482 74 7750
483 74 6815
484 74 6998
487 74 6901
488 74 8735
490 74 5790
492 74 8609
493 74 3719
494 74 4747
495 74 8941
496 74 12371
497 74 12427
498 74 12590
499 74 4386
500 74 4308
1 75 3847
2 75 4285
3 75 4119
5 75 1179
6 75 3152
7 75 3292
8 75 3023
9 75 2759
10 75 4997
11 75 1845
12 75 2670
13 75 3391
14 75 2861
18 75 39
19 75 2439
20 75 3105
21 75 3491
22 75 81
24 75 3457
25 75 2165
27 75 4573
28 75 2879
30 75 4301
31 75 4258
32 75 3239
34 75 1559
35 75 4267
36 75 3789
37 75 243
38 75 2929
39 75 2586
40 75 3206
41 75 3358
42 75 4664
43 75 4218
44 75 3607
45 75 3440
46 75 2537
47 75 4311
48 75 1543
50 75 4042
51 75 3059
52 75 2304
53 75 3493
54 75 2693
55 75 2581
56 75 3716
57 75 3749
59 75 2464
60 75 3619
61 75 2891
62 75 2094
63 75 3194
64 75 3949
65 75 3151
66 75 2650
69 75 2818
70 75 3313
71 75 3876
72 75 4585
73 75 2287
74 75 4502
76 75 2220
77 75 3041
78 75 3220
79 75 2647
80 75 2490
81 75 6103
82 75 3017
83 75 4614
84 75 782
85 75 3715
86 75 1279
87 75 2815
88 75 2409
89 75 3013
90 75 556
92 75 2890
94 75 1388
95 75 1898
96 75 2602
98 75 2483
99 75 4246
100 75 1773
101 75 3340
102 75 3275
103 75 84
104 75 4510
105 75 74
106 75 3658
107 75 3332
108 75 2365
109 75 3501
111 75 2140
112 75 2401
113 75 3723
114 75 4833
116 75 3752
118 75 4774
119 75 3993
120 75 3475
121 75 5103
122 75 5483
123 75 2912
124 75 3506
125 75 2501
126 75 3560
127 75 4483
128 75 4865
129 75 5175
130 75 3609
131 75 3842
132 75 2223
133 75 3485
134 75 5424
135 75 2476
136 75 3035
137 75 2148
138 75 6014
139 75 1840
140 75 4632
141 75 3925
142 75 3257
143 75 3766
145 75 2678
147 75 1938
148 75 3336
149 75 4916
150 75 5465
151 75 3155
152 75 2426
153 75 2748
154 75 3825
155 75 4456
156 75 3211
157 75 3305
158 75 3272
159 75 4353
160 75 5108
161 75 3815
162 75 3501
163 75 6650
164 75 3566
165 75 3017
166 75 3669
167 75 2351
168 75 2149
169 75 4996
170 75 4492
171 75 2864
172 75 4506
173 75 1255
175 75 2479
177 75 3295
178 75 2481
179 75 3422
181 75 3239
182 75 4915
183 75 1999
184 75 4788
185 75 2960
186 75 2045
187 75 4014
189 75 2423
190 75 4014
191 75 2406
192 75 4498
193 75 2514
194 75 2435
196 75 4373
199 75 3494
200 75 3925
201 75 4
202 75 3826
204 75 4151
205 75 4940
206 75 4133
207 75 1428
208 75 2724
209 75 3621
210 75 2532
211 75 5944
212 75 2514
213 75 1873
214 75 3589
215 75 5255
217 75 2594
218 75 3499
219 75 3768
220 75 3183
221 75 4305
222 75 3939
223 75 1903
225 75 5275
226 75 4497
227 75 4536
228 75 2833
230 75 4114
231 75 3261
232 75 1593
233 75 2890
234 75 2663
235 75 2364
236 75 5159
237 75 2199
238 75 3404
239 75 3459
240 75 3619
241 75 1548
242 75 1845
243 75 3575
244 75 4353
245 75 5300
246 75 3267
247 75 4256
248 75 2869
249 75 4036
250 75 3805
251 75 4622
252 75 1652
253 75 5348
254 75 3507
255 75 3509
256 75 1439
258 75 3718
259 75 1272
260 75 2479
262 75 3715
263 75 2943
264 75 2625
265 75 3934
266 75 6742
267 75 3272
268 75 2256
269 75 4539
270 75 3046
271 75 4775
272 75 3352
273 75 3005
274 75 2999
275 75 3680
276 75 1773
277 75 3180
278 75 4890
279 75 4220
280 75 3319
281 75 5721
282 75 2407
283 75 3782
284 75 3234
285 75 4198
286 75 2796
287 75 5409
288 75 3037
289 75 1377
290 75 5119
291 75 4150
292 75 1581
293 75 5454
294 75 3110
295 75 3254
296 75 2960
297 75 3708
298 75 4133
299 75 3801
301 75 3877
302 75 4330
303 75 3371
304 75 3916
305 75 5
306 75 40
307 75 2306
308 75 2392
309 75 3634
310 75 2940
311 75 1436
312 75 3459
313 75 4366
314 75 4129
315 75 3456
319 75 3396
320 75 3995
321 75 2645
322 75 2213
323 75 3723
324 75 29
325 75 3106
326 75 3986
328 75 4049
329 75 3998
330 75 4031
331 75 3412
332 75 3182
333 75 2824
334 75 2955
335 75 1384
336 75 34
337 75 3370
338 75 3479
340 75 2143
341 75 4473
342 75 4406
343 75 4300
344 75 3233
345 75 3443
347 75 62
348 75 3947
349 75 85
350 75 2052
352 75 4250
353 75 2612
354 75 3943
355 75 4504
356 75 3224
357 75 4264
358 75 2165
359 75 2504
360 75 6365
361 75 4543
362 75 4262
364 75 2861
365 75 3519
366 75 3625
368 75 2242
370 75 3028
372 75 4879
373 75 1658
375 75 5060
376 75 2485
378 75 6450
379 75 2882
381 75 3631
382 75 4329
383 75 2427
385 75 4119
386 75 3192
387 75 2915
388 75 3
389 75 2617
390 75 3780
391 75 3133
392 75 15
393 75 3811
394 75 3993
395 75 3255
396 75 3175
397 75 1621
399 75 5095
400 75 3879
401 75 3601
402 75 2156
403 75 3776
404 75 2418
405 75 3525
406 75 3499
407 75 4959
408 75 5326
409 75 521
410 75 17
412 75 3437
413 75 3649
414 75 4166
415 75 3506
416 75 2163
417 75 2237
418 75 3769
420 75 3318
421 75 6122
422 75 5045
424 75 1390
426 75 3547
427 75 3682
428 75 258
429 75 4189
430 75 3104
431 75 2608
432 75 2730
433 75 2973
434 75 2773
435 75 1868
436 75 3379
437 75 2767
438 75 3430
440 75 3796
441 75 21
442 75 17
443 75 3348
444 75 3511
445 75 2010
446 75 3079
447 75 4533
448 75 3890
449 75 2978
450 75 3848
451 75 1991
452 75 2316
453 75 2813
454 75 3840
455 75 1881
456 75 2936
457 75 3199
458 75 3412
459 75 839
460 75 3556
461 75 22
462 75 4673
463 75 4317
464 75 5097
465 75 1803
466 75 3110
467 75 3260
468 75 1679
469 75 3946
470 75 5234
471 75 4551
472 75 2815
473 75 3051
474 75 3369
475 75 4245
477 75 4546
478 75 3499
479 75 2545
480 75 3184
481 75 2603
482 75 3243
483 75 3844
484 75 4475
486 75 5
487 75 4612
488 75 4771
490 75 2961
492 75 3329
493 75 2357
494 75 2316
495 75 2226
496 75 4274
497 75 4624
498 75 3442
499 75 2560
500 75 3804
1 76 3445
2 76 1510
4 76 1383
5 76 1859
6 76 5
7 76 1106
8 76 1776
9 76 2135
10 76 2175
11 76 1182
12 76 1542
13 76 2018
14 76 1920
15 76 1406
16 76 821
17 76 967
18 76 1364
19 76 2759
20 76 1785
21 76 1807
22 76 766
23 76 961
24 76 1787
25 76 2130
26 76 1209
28 76 1804
29 76 908
30 76 1765
31 76 1625
33 76 915
34 76 1117
35 76 1794
36 76 3541
37 76 1290
38 76 2241
39 76 2602
40 76 1155
41 76 2445
42 76 1777
43 76 2325
44 76 3629
45 76 1971
46 76 1774
47 76 3508
48 76 1187
49 76 1317
50 76 11
51 76 1437
52 76 1135
53 76 484
54 76 3481
55 76 3299
56 76 1657
57 76 1463
58 76 1657
59 76 2389
60 76 5
61 76 1018
62 76 1556
63 76 2677
64 76 2308
65 76 1138
66 76 1837
67 76 1222
68 76 936
69 76 1916
70 76 2598
71 76 3268
72 76 3411
73 76 2965
74 76 3352
75 76 1101
76 76 2230
77 76 1472
78 76 2134
79 76 1541
80 76 1661
82 76 1319
83 76 2759
84 76 1455
85 76 2401
86 76 2501
87 76 1548
88 76 2447
89 76 1316
90 76 1288
91 76 943
92 76 1865
93 76 1692
94 76 2119
95 76 1725
96 76 2266
97 76 1544
98 76 2162
99 76 1672
100 76 2111
101 76 1743
102 76 4473
103 76 802
104 76 2724
105 76 1078
106 76 6
107 76 806
108 76 1494
109 76 1758
110 76 946
111 76 2069
112 76 40
113 76 1661
114 76 2371
115 76 1313
116 76 1671
117 76 1606
118 76 2981
119 76 2928
120 76 2594
121 76 1052
122 76 2189
123 76 1929
124 76 2005
125 76 2371
126 76 2526
127 76 3422
129 76 3044
130 76 2230
131 76 70
132 76 3115
134 76 2323
135 76 1841
136 76 2132
137 76 2081
138 76 4075
139 76 1820
140 76 2146
141 76 1664
143 76 2020
144 76 812
145 76 1665
146 76 998
147 76 2869
149 76 3323
150 76 2305
151 76 2023
152 76 1128
153 76 1449
154 76 78
156 76 2344
157 76 801
158 76 2492
159 76 2502
160 76 3801
162 76 1727
163 76 1323
164 76 1894
165 76 1758
167 76 1547
168 76 1298
169 76 2561
170 76 2130
171 76 1032
172 76 3736
173 76 1249
174 76 304
175 76 2147
176 76 1779
177 76 767
178 76 1611
179 76 2213
180 76 888
181 76 1936
182 76 1659
183 76 2704
184 76 862
185 76 1715
186 76 1719
187 76 2717
188 76 848
189 76 2903
190 76 1336
191 76 1408
192 76 2226
193 76 2033
194 76 2942
195 76 806
196 76 3536
197 76 1191
198 76 1622
199 76 1610
200 76 2520
201 76 615
202 76 2398
203 76 875
204 76 1737
205 76 2337
206 76 1781
207 76 2026
208 76 2179
210 76 1417
211 76 2051
212 76 2961
213 76 1323
214 76 422
215 76 3062
216 76 795
217 76 3384
219 76 2445
220 76 2867
223 76 1372
224 76 1573
225 76 2
226 76 289
227 76 2
228 76 2446
229 76 953
230 76 1194
231 76 3479
232 76 1428
233 76 3168
234 76 3114
236 76 2646
237 76 1795
238 76 1245
240 76 1353
241 76 1095
242 76 2545
243 76 2675
244 76 1386
245 76 3048
246 76 2565
247 76 2162
248 76 1627
250 76 1567
251 76 2
252 76 1896
253 76 2981
254 76 2477
255 76 1975
256 76 2004
257 76 1641
258 76 1957
259 76 1221
260 76 2454
261 76 1183
262 76 1726
264 76 2141
265 76 2513
267 76 3792
268 76 864
270 76 1135
272 76 1867
273 76 1409
275 76 2239
276 76 2175
277 76 1640
278 76 1151
279 76 2164
280 76 2345
281 76 2983
282 76 2708
283 76 1205
284 76 1598
285 76 2039
286 76 2063
288 76 2926
289 76 1970
290 76 2967
291 76 1711
292 76 1321
294 76 1368
295 76 1960
296 76 2817
297 76 1014
298 76 1309
299 76 2275
300 76 1004
301 76 1782
302 76 1344
303 76 1637
304 76 6
305 76 1078
306 76 1377
307 76 1444
308 76 1531
309 76 2041
310 76 1655
311 76 1952
312 76 1987
313 76 1356
314 76 6
315 76 3233
316 76 944
317 76 1637
318 76 748
321 76 1778
322 76 1545
323 76 151
324 76 1315
325 76 4744
326 76 1079
327 76 910
328 76 1343
329 76 1685
331 76 1316
333 76 1563
334 76 1577
335 76 2064
336 76 1255
337 76 2076
338 76 2565
339 76 1484
340 76 2382
342 76 2076
343 76 2123
344 76 2161
345 76 2279
346 76 787
347 76 1109
348 76 5
349 76 856
350 76 1787
351 76 1153
352 76 2934
353 76 1603
354 76 1386
355 76 3338
356 76 1488
357 76 3442
359 76 2218
360 76 11
362 76 2135
363 76 891
364 76 5
365 76 2444
366 76 1945
367 76 1207
368 76 1646
369 76 1259
370 76 2670
371 76 1638
372 76 2029
373 76 1232
374 76 1561
375 76 3255
376 76 2040
377 76 1346
378 76 2356
379 76 2433
380 76 926
381 76 951
382 76 3082
383 76 2048
384 76 1079
385 76 1584
386 76 2832
387 76 1570
388 76 1567
389 76 1583
390 76 1619
391 76 1855
392 76 1115
394 76 2925
395 76 2318
396 76 2954
397 76 1180
398 76 1538
399 76 3089
400 76 3071
402 76 1553
403 76 1999
404 76 62
405 76 1368
406 76 938
407 76 4278
408 76 2119
409 76 918
410 76 1376
411 76 1587
412 76 3233
413 76 2312
414 76 1645
415 76 2062
416 76 1604
417 76 1421
418 76 420
419 76 1110
420 76 1734
421 76 3867
423 76 1561
424 76 1874
425 76 797
427 76 139
428 76 1235
429 76 2214
430 76 2853
431 76 3365
432 76 2625
433 76 2355
434 76 5
435 76 1901
436 76 1950
437 76 1695
438 76 2473
439 76 1430
440 76 2981
441 76 1310
442 76 1579
443 76 2684
444 76 2356
445 76 1861
446 76 1334
448 76 2348
449 76 1280
450 76 3026
451 76 1197
452 76 452
453 76 1645
454 76 1857
455 76 2165
456 76 1848
457 76 2191
458 76 1894
459 76 1159
460 76 2622
461 76 1093
463 76 2171
465 76 1705
466 76 2070
467 76 3690
468 76 1772
469 76 2476
470 76 3030
472 76 3238
473 76 2218
474 76 1630
475 76 2794
476 76 807
477 76 3396
478 76 2448
479 76 2447
480 76 1755
481 76 1737
484 76 46
485 76 1369
486 76 1517
487 76 39
489 76 922
490 76 1660
491 76 941
493 76 2584
494 76 1893
495 76 2081
496 76 9
497 76 1211
498 76 2677
499 76 1237
500 76 1957
10 77 5750
24 77 6318
39 77 7715
41 77 3827
42 77 1777
53 77 5252
63 77 5853
64 77 5177
73 77 5114
88 77 139
107 77 5613
118 77 6837
119 77 6526
122 77 4719
130 77 6640
134 77 3720
136 77 574
138 77 5459
140 77 107
150 77 4823
155 77 2
160 77 5808
163 77 6825
169 77 5879
172 77 5870
182 77 6018
184 77 2624
187 77 6105
189 77 4905
200 77 18
205 77 5406
208 77 6578
212 77 4976
215 77 74
217 77 6079
231 77 4591
233 77 10433
236 77 3947
238 77 4016
240 77 5155
245 77 124
247 77 2
250 77 5775
253 77 81
260 77 7129
269 77 4
278 77 6183
279 77 13
281 77 7024
282 77 23
285 77 5
290 77 468
310 77 3
337 77 5831
340 77 4543
342 77 5946
352 77 3832
357 77 8336
362 77 6232
376 77 4757
378 77 6453
394 77 6204
399 77 130
403 77 2468
405 77 5100
406 77 40
407 77 7327
408 77 7976
413 77 6526
421 77 10296
430 77 143
446 77 5656
469 77 5585
470 77 65
472 77 10727
497 77 6051
498 77 6446
10 78 4038
24 78 3586
39 78 4297
41 78 4120
42 78 106
53 78 3073
63 78 3092
64 78 1862
73 78 3841
88 78 27
107 78 4572
118 78 6146
119 78 4088
122 78 5716
130 78 5346
134 78 3176
136 78 11
138 78 5976
150 78 5814
160 78 2338
163 78 3178
169 78 6174
170 78 5
172 78 3833
181 78 3
182 78 3902
184 78 272
187 78 2999
189 78 2106
200 78 7
205 78 4158
208 78 3153
212 78 2772
215 78 5
217 78 3329
231 78 4595
233 78 4694
236 78 5454
238 78 2260
240 78 5587
245 78 24
250 78 4258
253 78 1
260 78 5375
278 78 7200
281 78 5736
290 78 51
294 78 8
316 78 1
337 78 4397
340 78 5105
342 78 2342
343 78 4
352 78 2338
357 78 7244
362 78 4793
376 78 1947
378 78 3451
394 78 2144
399 78 41
403 78 3036
405 78 5506
407 78 1458
408 78 5012
413 78 5279
421 78 5533
430 78 11
446 78 5178
469 78 4961
470 78 3
472 78 4814
497 78 3903
498 78 4004
1 79 3236
2 79 1421
3 79 189
4 79 612
5 79 2193
6 79 411
7 79 244
8 79 2354
9 79 1165
10 79 631
11 79 1966
12 79 344
13 79 1878
14 79 1484
15 79 755
16 79 697
17 79 586
18 79 1199
19 79 1763
20 79 413
21 79 373
22 79 1137
23 79 749
24 79 597
25 79 1686
26 79 1095
27 79 373
28 79 173
29 79 577
30 79 541
31 79 805
32 79 313
33 79 1258
34 79 2106
35 79 2228
36 79 3148
37 79 1536
38 79 123
39 79 1569
40 79 1535
41 79 1606
42 79 1857
43 79 1186
44 79 1943
45 79 2361
46 79 1037
47 79 2977
48 79 1170
49 79 669
50 79 263
51 79 556
52 79 1857
53 79 338
54 79 1419
55 79 102
56 79 536
57 79 1247
58 79 1150
59 79 221
60 79 764
61 79 99
62 79 1230
63 79 1827
64 79 584
65 79 3539
66 79 869
67 79 548
68 79 878
69 79 1777
70 79 2249
71 79 1330
72 79 1836
73 79 1261
74 79 1864
75 79 793
76 79 216
77 79 576
78 79 77
79 79 1554
80 79 491
81 79 319
82 79 1213
83 79 438
84 79 1481
85 79 1579
86 79 1512
87 79 156
88 79 1870
89 79 1327
90 79 852
91 79 1389
92 79 1846
93 79 1279
94 79 1380
95 79 944
96 79 2023
97 79 572
98 79 2144
99 79 367
100 79 1390
101 79 3423
102 79 1834
103 79 1595
104 79 2709
105 79 1135
106 79 727
107 79 3238
108 79 453
109 79 2790
110 79 1455
111 79 1685
112 79 141
113 79 1327
114 79 183
115 79 727
116 79 495
117 79 547
118 79 1246
119 79 1797
120 79 1316
121 79 2762
122 79 1355
123 79 510
124 79 1171
125 79 3067
126 79 2761
127 79 1851
128 79 272
129 79 1339
130 79 2001
131 79 1404
132 79 826
133 79 547
134 79 1413
135 79 1061
136 79 2338
137 79 1699
138 79 2557
139 79 1902
140 79 3437
141 79 487
142 79 147
143 79 1041
144 79 1138
145 79 1636
146 79 914
147 79 961
148 79 509
149 79 2156
150 79 1316
151 79 1385
152 79 1569
153 79 121
154 79 1434
155 79 132
156 79 114
157 79 2609
158 79 1301
159 79 2471
160 79 2309
161 79 315
162 79 108
163 79 683
164 79 648
165 79 639
166 79 702
167 79 331
168 79 1277
169 79 1009
170 79 2016
171 79 2034
172 79 2293
173 79 1326
174 79 537
175 79 2187
176 79 1060
177 79 2658
178 79 1102
179 79 1626
180 79 521
181 79 466
182 79 748
183 79 1647
184 79 1652
185 79 886
186 79 105
187 79 1474
188 79 1018
189 79 1539
190 79 492
191 79 1401
192 79 1446
193 79 1260
194 79 2157
195 79 2782
196 79 1872
197 79 806
198 79 1407
199 79 2122
200 79 2229
201 79 874
202 79 1518
203 79 724
204 79 2193
205 79 2417
206 79 283
207 79 351
208 79 956
209 79 97
210 79 1449
211 79 180
212 79 2405
213 79 349
214 79 511
215 79 2215
216 79 2784
217 79 1187
218 79 581
219 79 1514
220 79 169
221 79 1325
222 79 658
223 79 1549
224 79 525
225 79 180
226 79 228
227 79 112
228 79 967
229 79 1094
230 79 2056
231 79 2785
232 79 1578
233 79 5268
234 79 1780
235 79 198
236 79 1197
237 79 1253
238 79 2299
239 79 78
240 79 1610
241 79 2111
242 79 1485
243 79 997
244 79 722
245 79 1636
246 79 882
247 79 1421
248 79 1794
249 79 263
250 79 1299
251 79 138
252 79 1528
253 79 2260
254 79 358
255 79 2330
256 79 1412
257 79 537
258 79 1959
259 79 1311
260 79 2364
261 79 629
262 79 1425
263 79 254
264 79 1410
265 79 856
266 79 544
267 79 3189
268 79 1973
269 79 136
270 79 218
271 79 123
272 79 1156
273 79 1466
274 79 1207
275 79 2208
276 79 1076
277 79 123
278 79 2824
279 79 1400
280 79 1252
281 79 974
282 79 1053
283 79 829
284 79 610
285 79 1411
286 79 1181
287 79 417
288 79 1602
289 79 1283
290 79 2696
291 79 262
292 79 1541
293 79 375
294 79 2192
295 79 954
296 79 1066
297 79 581
298 79 499
299 79 2227
300 79 1428
301 79 900
302 79 415
303 79 616
304 79 325
305 79 1081
306 79 1178
307 79 374
308 79 440
309 79 1823
310 79 1472
311 79 388
312 79 228
313 79 466
314 79 291
315 79 386
316 79 1501
317 79 504
318 79 1218
319 79 474
320 79 134
321 79 443
322 79 1323
323 79 489
324 79 1181
325 79 1821
326 79 635
327 79 566
328 79 500
329 79 495
330 79 234
331 79 2255
332 79 390
333 79 2204
334 79 1119
335 79 854
336 79 1174
337 79 2266
338 79 1344
339 79 825
340 79 2088
341 79 884
342 79 1216
343 79 1328
344 79 1026
345 79 261
346 79 546
347 79 1108
348 79 341
349 79 1627
350 79 1462
351 79 911
352 79 618
353 79 1471
354 79 1226
355 79 1979
356 79 281
357 79 1212
358 79 194
359 79 868
360 79 256
361 79 59
362 79 1990
363 79 1067
364 79 372
365 79 402
366 79 1829
367 79 670
368 79 2104
369 79 858
370 79 1030
371 79 1171
372 79 1543
373 79 1417
374 79 1003
375 79 2121
376 79 1251
377 79 878
378 79 1210
379 79 264
380 79 892
381 79 564
382 79 138
383 79 1716
384 79 575
385 79 213
386 79 1826
387 79 2820
388 79 1231
389 79 1619
390 79 1338
391 79 1999
392 79 864
393 79 134
394 79 1341
395 79 232
396 79 1176
397 79 1105
398 79 1014
399 79 1659
400 79 435
401 79 273
402 79 2216
403 79 2198
404 79 151
405 79 1688
406 79 2748
407 79 1146
408 79 1900
409 79 2109
410 79 1534
411 79 1402
412 79 803
413 79 2091
414 79 365
415 79 295
416 79 1567
417 79 1624
418 79 548
419 79 925
420 79 168
421 79 1404
422 79 207
423 79 722
424 79 1535
425 79 586
426 79 281
427 79 489
428 79 1333
429 79 1373
430 79 2379
431 79 94
432 79 185
433 79 2067
434 79 393
435 79 2090
436 79 1662
437 79 1520
438 79 390
439 79 584
440 79 450
441 79 1440
442 79 1665
443 79 1101
444 79 1535
445 79 1889
446 79 1406
447 79 61
448 79 1523
449 79 1314
450 79 503
451 79 1302
452 79 681
453 79 1485
454 79 1025
455 79 294
456 79 2427
457 79 1715
458 79 2340
459 79 516
460 79 1960
461 79 559
462 79 251
463 79 2329
464 79 271
465 79 1621
466 79 2155
467 79 3197
468 79 2033
469 79 3804
470 79 2196
471 79 407
472 79 5301
473 79 1510
474 79 614
475 79 1128
476 79 606
477 79 2487
478 79 420
479 79 1358
480 79 1306
481 79 1417
482 79 100
483 79 123
484 79 1124
485 79 1192
486 79 461
487 79 1149
488 79 260
489 79 1628
490 79 1120
491 79 764
492 79 561
493 79 771
494 79 2195
495 79 1013
496 79 257
497 79 1932
498 79 1136
499 79 1560
500 79 1761
1 80 12623
2 80 11750
3 80 12158
4 80 6460
5 80 13082
6 80 8972
7 80 7701
8 80 7012
9 80 16547
10 80 13117
11 80 28792
12 80 13927
13 80 12519
14 80 15223
15 80 15248
16 80 11075
17 80 8805
18 80 14340
19 80 7563
20 80 6732
21 80 12058
22 80 8462
23 80 5026
24 80 11704
25 80 23459
26 80 13678
27 80 8127
28 80 13464
29 80 8700
30 80 7756
31 80 10569
32 80 11231
33 80 6926
34 80 13199
35 80 14117
36 80 12601
37 80 5760
38 80 13737
39 80 14892
40 80 13056
41 80 14485
42 80 5130
43 80 17854
44 80 8235
45 80 11491
46 80 13766
47 80 15270
48 80 8036
49 80 5350
50 80 12919
51 80 10515
52 80 6672
53 80 8003
54 80 9923
55 80 14882
56 80 11551
57 80 22507
58 80 15020
59 80 6282
60 80 8079
61 80 19301
62 80 8332
63 80 15795
64 80 5715
65 80 11555
66 80 23330
67 80 16728
68 80 9577
69 80 15166
70 80 11231
71 80 19181
72 80 9454
73 80 7518
74 80 9243
75 80 5139
76 80 7668
77 80 10590
78 80 15608
79 80 15237
80 80 10487
81 80 9615
82 80 7163
83 80 17209
84 80 10208
85 80 15561
86 80 16401
87 80 5778
88 80 13478
89 80 7115
90 80 11051
91 80 14416
92 80 11929
93 80 9411
94 80 11610
95 80 16448
96 80 8280
97 80 12783
98 80 7183
99 80 15599
100 80 8304
101 80 6185
102 80 7115
103 80 7119
104 80 9591
105 80 13249
106 80 8070
107 80 9520
108 80 9485
109 80 8264
110 80 11786
111 80 23464
112 80 9763
113 80 7861
114 80 8936
115 80 15743
116 80 6910
117 80 2803
118 80 12511
119 80 6432
120 80 18746
121 80 8213
122 80 14270
123 80 10229
124 80 12751
125 80 10391
126 80 6950
127 80 9265
128 80 11789
129 80 10032
130 80 17561
131 80 11342
132 80 15998
133 80 8989
134 80 14005
135 80 18601
136 80 7915
137 80 23379
138 80 7135
139 80 8829
140 80 9581
141 80 11629
142 80 13662
143 80 11089
144 80 6874
145 80 10770
146 80 4811
147 80 8863
148 80 7795
149 80 6884
150 80 14154
151 80 10143
152 80 6890
153 80 5800
154 80 11424
155 80 12224
156 80 8203
157 80 12545
158 80 12205
159 80 8323
160 80 10650
161 80 6988
162 80 21600
163 80 8499
164 80 19483
165 80 5228
166 80 7719
167 80 16550
168 80 8995
169 80 9222
170 80 8254
171 80 5198
172 80 14440
173 80 24829
174 80 11739
175 80 7295
176 80 6414
177 80 12484
178 80 16853
179 80 25024
180 80 8702
181 80 6406
182 80 12106
183 80 14477
184 80 17290
185 80 7522
186 80 10369
187 80 8367
188 80 11172
189 80 14906
190 80 20378
191 80 12197
192 80 9125
193 80 7523
194 80 16939
195 80 4972
196 80 9344
197 80 14253
198 80 4738
199 80 14477
200 80 9510
201 80 9661
202 80 12947
203 80 7232
204 80 14250
205 80 17180
206 80 4630
207 80 8993
208 80 10162
209 80 11546
210 80 12136
211 80 6602
212 80 10231
213 80 14311
214 80 13575
215 80 9338
216 80 5044
217 80 11935
218 80 7169
219 80 12682
220 80 15492
221 80 9401
222 80 15296
223 80 16414
224 80 12798
225 80 7459
226 80 11971
227 80 18379
228 80 12127
229 80 14133
230 80 7904
231 80 9074
232 80 8092
233 80 10039
234 80 11255
235 80 8637
236 80 9147
237 80 5883
238 80 14434
239 80 13982
240 80 10935
241 80 13389
242 80 9722
243 80 10035
244 80 11210
245 80 6259
246 80 7822
247 80 10387
248 80 20675
249 80 8492
250 80 11918
251 80 18389
252 80 13976
253 80 9412
254 80 11453
255 80 11268
256 80 11503
257 80 11221
258 80 7909
259 80 24664
260 80 19010
261 80 16750
262 80 13807
263 80 13488
264 80 18535
265 80 12241
266 80 11881
267 80 9189
268 80 14204
269 80 12226
270 80 7828
271 80 22848
272 80 9867
273 80 10538
274 80 16647
275 80 8454
276 80 11311
277 80 12851
278 80 25725
279 80 10589
280 80 8141
281 80 17320
282 80 8244
283 80 15183
284 80 17892
285 80 10690
286 80 16539
287 80 6653
288 80 7764
289 80 7166
290 80 12687
291 80 4641
292 80 8001
293 80 10195
294 80 13668
295 80 16911
296 80 13749
297 80 10189
298 80 11728
299 80 8024
300 80 13146
301 80 10134
302 80 11966
303 80 18286
304 80 17154
305 80 5118
306 80 14543
307 80 16349
308 80 9412
309 80 6460
310 80 14597
311 80 8820
312 80 10140
313 80 11751
314 80 12881
315 80 5995
316 80 14517
317 80 2706
318 80 10812
319 80 6420
320 80 10944
321 80 7740
322 80 7956
323 80 8627
324 80 10285
325 80 10118
326 80 11760
327 80 8782
328 80 20392
329 80 11630
330 80 18303
331 80 8644
332 80 14080
333 80 15987
334 80 10568
335 80 5777
336 80 10333
337 80 13816
338 80 18959
339 80 13180
340 80 12574
341 80 11635
342 80 6095
343 80 6281
344 80 26729
345 80 8600
346 80 16144
347 80 13172
348 80 16774
349 80 7225
350 80 22988
351 80 20497
352 80 41011
353 80 11372
354 80 22565
355 80 9399
356 80 15422
357 80 12963
358 80 12360
359 80 8266
360 80 6495
361 80 13037
362 80 9336
363 80 15040
364 80 8608
365 80 11449
366 80 7904
367 80 10793
368 80 7965
369 80 14182
370 80 13820
371 80 15255
372 80 15732
373 80 31403
374 80 10540
375 80 6717
376 80 16208
377 80 10970
378 80 9514
379 80 10301
380 80 4857
381 80 10246
382 80 11030
383 80 8792
384 80 7071
385 80 9202
386 80 13515
387 80 32403
388 80 6628
389 80 10762
390 80 7694
391 80 11690
392 80 13169
393 80 11605
394 80 8038
395 80 16582
396 80 9409
397 80 13116
398 80 10684
399 80 6422
400 80 16963
401 80 12340
402 80 10741
403 80 13421
404 80 7580
405 80 10815
406 80 8554
407 80 11953
408 80 10113
409 80 13652
410 80 6028
411 80 13200
412 80 10875
413 80 17545
414 80 15946
415 80 7478
416 80 16522
417 80 7253
418 80 13530
419 80 14917
420 80 11190
421 80 18533
422 80 9708
423 80 7411
424 80 9831
425 80 16562
426 80 12332
427 80 8518
428 80 25188
429 80 10143
430 80 13134
431 80 14690
432 80 7185
433 80 7984
434 80 8576
435 80 10975
436 80 12439
437 80 7806
438 80 11449
439 80 18643
440 80 16714
441 80 4972
442 80 9663
443 80 12362
444 80 15670
445 80 5810
446 80 13805
447 80 12980
448 80 12979
449 80 17374
450 80 16661
451 80 4857
452 80 8114
453 80 8171
454 80 11051
455 80 12784
456 80 11868
457 80 9840
458 80 11392
459 80 3316
460 80 7992
461 80 11957
462 80 11891
463 80 9444
464 80 10872
465 80 7650
466 80 7659
467 80 9262
468 80 13212
469 80 10327
470 80 9548
471 80 6741
472 80 10200
473 80 11503
474 80 18383
475 80 12322
476 80 7805
477 80 14561
478 80 11503
479 80 30444
480 80 10687
481 80 11325
482 80 9230
483 80 15939
484 80 9120
485 80 4709
486 80 11079
487 80 9049
488 80 11897
489 80 14038
490 80 8928
491 80 8327
492 80 20580
493 80 5802
494 80 15464
495 80 4113
496 80 8927
497 80 10870
498 80 15430
499 80 12522
500 80 12695
1 81 1573
2 81 1262
3 81 3401
4 81 1317
5 81 2200
6 81 1105
7 81 1726
8 81 810
9 81 1688
10 81 2051
11 81 1652
12 81 1778
13 81 1907
14 81 1255
15 81 685
16 81 1183
17 81 623
18 81 1273
19 81 2244
20 81 2007
21 81 1374
22 81 1440
23 81 484
24 81 1054
25 81 2047
26 81 526
27 81 1172
28 81 2264
29 81 870
30 81 1998
31 81 1734
32 81 3206
33 81 1063
34 81 1213
35 81 2499
36 81 1581
37 81 1092
38 81 3573
39 81 3249
40 81 1490
41 81 2266
42 81 2900
43 81 1771
44 81 1383
45 81 2027
46 81 1649
47 81 1347
48 81 1062
49 81 971
50 81 889
51 81 1511
52 81 1619
53 81 3481
54 81 1287
55 81 1684
56 81 2065
57 81 1446
58 81 969
59 81 1521
60 81 1147
61 81 1677
62 81 1565
63 81 1860
64 81 2577
65 81 998
66 81 1892
67 81 493
68 81 1142
69 81 1864
70 81 1529
71 81 2311
72 81 2155
73 81 2001
74 81 2071
75 81 1046
76 81 1787
77 81 1546
78 81 1569
79 81 1551
80 81 1432
81 81 1519
82 81 1908
83 81 2894
84 81 1457
85 81 1864
86 81 1058
87 81 1225
88 81 1540
89 81 1791
90 81 1150
91 81 1502
92 81 2649
93 81 1087
94 81 1693
95 81 950
96 81 1553
97 81 643
98 81 1732
99 81 2135
100 81 419
101 81 2435
102 81 1101
103 81 2088
104 81 1606
105 81 1554
106 81 1137
107 81 2846
108 81 1324
109 81 1788
110 81 817
111 81 2001
112 81 1488
113 81 1501
114 81 1292
115 81 730
116 81 842
117 81 496
118 81 3821
119 81 1128
120 81 1906
121 81 1230
122 81 4261
123 81 628
124 81 2215
125 81 1076
126 81 834
127 81 2118
128 81 1178
129 81 2241
130 81 2093
131 81 2417
132 81 946
133 81 1624
134 81 2166
135 81 1311
136 81 2795
137 81 2025
138 81 3256
139 81 1921
140 81 1939
141 81 1654
142 81 2746
143 81 778
144 81 1209
145 81 1502
146 81 980
147 81 1654
148 81 2399
149 81 2576
150 81 4365
151 81 2020
152 81 2181
153 81 1197
154 81 2367
155 81 2082
156 81 1358
157 81 1170
158 81 1164
159 81 2812
160 81 3602
161 81 1643
162 81 1578
163 81 2843
164 81 2470
165 81 1741
166 81 3165
167 81 2421
168 81 2082
169 81 2774
170 81 2139
171 81 1608
172 81 2152
173 81 1211
174 81 1249
175 81 1745
176 81 812
177 81 1160
178 81 1050
179 81 2846
180 81 921
181 81 1495
182 81 2192
183 81 1819
184 81 1706
185 81 1506
186 81 1447
187 81 1213
188 81 1246
189 81 2512
190 81 1879
191 81 3248
192 81 2451
193 81 2337
194 81 1577
195 81 1272
196 81 2114
197 81 976
198 81 1176
199 81 2708
200 81 1577
201 81 1170
202 81 3519
203 81 844
204 81 2501
205 81 3525
206 81 1266
207 81 2194
208 81 1213
209 81 1674
210 81 3168
211 81 2115
212 81 4821
213 81 1010
214 81 1777
215 81 2723
216 81 1247
217 81 2508
218 81 1531
219 81 3679
220 81 841
221 81 1837
222 81 2395
223 81 806
224 81 683
225 81 2981
226 81 1811
227 81 2663
228 81 1985
229 81 690
230 81 1315
231 81 2804
232 81 2504
233 81 1772
234 81 723
235 81 2042
236 81 2798
237 81 1559
238 81 2380
239 81 1546
240 81 1131
241 81 1211
242 81 1218
243 81 2108
244 81 1208
245 81 3239
246 81 1486
247 81 2829
248 81 2775
249 81 1804
250 81 1588
251 81 2592
252 81 2395
253 81 2788
254 81 1268
255 81 2018
256 81 1680
257 81 929
258 81 1850
259 81 1137
260 81 2676
261 81 699
262 81 1066
263 81 2234
264 81 1570
265 81 1675
266 81 1612
267 81 2701
268 81 1800
269 81 2207
270 81 1660
271 81 686
272 81 1203
273 81 1708
274 81 1763
275 81 1524
276 81 2269
277 81 1630
278 81 1936
279 81 3019
280 81 1677
281 81 3137
282 81 572
283 81 1475
284 81 1412
285 81 2887
286 81 1642
287 81 2072
288 81 1930
289 81 1147
290 81 2952
291 81 1267
292 81 2482
293 81 1765
294 81 2128
295 81 1399
296 81 1312
297 81 2248
298 81 1901
299 81 2273
300 81 962
301 81 1169
302 81 1986
303 81 1509
304 81 2850
305 81 988
306 81 1317
307 81 2475
308 81 1280
309 81 1456
310 81 2017
311 81 2252
312 81 1407
313 81 1946
314 81 844
315 81 1113
316 81 601
317 81 557
318 81 963
319 81 1996
320 81 2651
321 81 1528
322 81 1411
323 81 1794
324 81 1230
325 81 1068
326 81 1285
327 81 928
328 81 1841
329 81 1616
330 81 2052
331 81 1737
332 81 1964
333 81 1522
334 81 881
335 81 2155
336 81 1252
337 81 2398
338 81 1953
339 81 1276
340 81 1622
341 81 2013
342 81 2126
343 81 883
344 81 1979
345 81 1413
346 81 1061
347 81 1457
348 81 2814
349 81 2031
350 81 2067
351 81 1577
352 81 1846
353 81 2344
354 81 1476
355 81 2054
356 81 1690
357 81 3102
358 81 570
359 81 2255
360 81 2466
361 81 1901
362 81 2372
363 81 1009
364 81 2477
365 81 1255
366 81 1909
367 81 802
368 81 449
369 81 1004
370 81 1382
371 81 967
372 81 1275
373 81 2328
374 81 949
375 81 2494
376 81 2047
377 81 1357
378 81 2097
379 81 2055
380 81 944
381 81 2228
382 81 2038
383 81 3121
384 81 549
385 81 1961
386 81 1341
387 81 1825
388 81 1467
389 81 1573
390 81 1563
391 81 2691
392 81 1124
393 81 1829
394 81 1634
395 81 1349
396 81 1252
397 81 1998
398 81 878
399 81 3324
400 81 1515
401 81 2290
402 81 2013
403 81 2551
404 81 2312
405 81 1140
406 81 2690
407 81 1920
408 81 2313
409 81 1285
410 81 1520
411 81 836
412 81 1690
413 81 2136
414 81 2101
415 81 1524
416 81 1653
417 81 1110
418 81 1742
419 81 1211
420 81 944
421 81 1898
422 81 3728
423 81 1090
424 81 1607
425 81 964
426 81 2239
427 81 1824
428 81 1063
429 81 2448
430 81 1586
431 81 1696
432 81 2128
433 81 2351
434 81 2437
435 81 1937
436 81 1958
437 81 1170
438 81 1271
439 81 630
440 81 1533
441 81 1218
442 81 698
443 81 2000
444 81 1876
445 81 1560
446 81 2810
447 81 1973
448 81 1632
449 81 1523
450 81 1588
451 81 1935
452 81 1340
453 81 1148
454 81 752
455 81 1401
456 81 1892
457 81 1364
458 81 2045
459 81 871
460 81 2668
461 81 1536
462 81 1238
463 81 2329
464 81 2312
465 81 1175
466 81 1820
467 81 2592
468 81 1400
469 81 2592
470 81 2804
471 81 2059
472 81 1823
473 81 1271
474 81 1445
475 81 1703
476 81 1119
477 81 763
478 81 1231
479 81 1575
480 81 1576
481 81 2406
482 81 1890
483 81 2779
484 81 2672
485 81 798
486 81 1179
487 81 2655
488 81 1228
489 81 453
490 81 1300
491 81 479
492 81 1507
493 81 1663
494 81 1348
495 81 1951
496 81 2384
497 81 1870
498 81 2282
499 81 1843
500 81 2656
3 82 2345
6 82 2583
27 82 3745
32 82 3380
50 82 2264
60 82 1186
81 82 2127
106 82 1184
112 82 51
128 82 997
131 82 44
133 82 2458
136 82 4
142 82 3482
148 82 4096
154 82 49
155 82 3470
161 82 2000
166 82 2074
169 82 4
209 82 8875
218 82 3806
221 82 2546
222 82 2746
225 82 1873
226 82 8
227 82 3444
235 82 3506
239 82 2937
249 82 1804
251 82 3397
263 82 2740
266 82 2379
269 82 3404
271 82 3147
274 82 1416
287 82 2949
293 82 3563
304 82 3381
314 82 2207
319 82 3611
320 82 1803
323 82 3
330 82 1404
332 82 3066
341 82 2420
348 82 3416
358 82 2057
360 82 454
361 82 2877
364 82 1697
393 82 3863
401 82 2724
404 82 163
422 82 4342
426 82 2748
427 82 2
434 82 1697
447 82 2962
462 82 979
464 82 1956
471 82 1924
482 82 2536
483 82 2107
484 82 115
487 82 134
488 82 950
492 82 3212
496 82 1848
2 83 2261
4 83 1420
5 83 2317
8 83 7
10 83 3
11 83 2377
12 83 1359
13 83 4
15 83 1203
16 83 862
17 83 1641
18 83 2271
22 83 1256
23 83 990
25 83 694
26 83 1465
29 83 996
33 83 1495
34 83 3662
37 83 3187
40 83 25
44 83 3564
45 83 6
46 83 1247
48 83 19
49 83 1840
52 83 1950
57 83 6
58 83 1429
60 83 10
61 83 6
62 83 2422
66 83 1710
67 83 813
68 83 1266
69 83 1944
75 83 1300
76 83 3
84 83 1830
86 83 2554
90 83 2671
91 83 1640
93 83 1318
94 83 2343
95 83 1454
96 83 18
97 83 1269
100 83 1894
101 83 3
102 83 3129
103 83 1433
105 83 1612
106 83 3
110 83 1496
111 83 658
113 83 35
115 83 2515
117 83 1352
120 83 1
124 83 30
135 83 2825
137 83 675
139 83 2459
143 83 2272
144 83 2622
146 83 1143
147 83 1789
151 83 2889
158 83 2616
165 83 8
168 83 3
171 83 2382
173 83 2084
174 83 913
175 83 2
176 83 1622
178 83 251
180 83 1042
183 83 3318
186 83 6
188 83 1154
191 83 2624
195 83 1475
197 83 1117
198 83 959
201 83 1309
203 83 1668
210 83 2763
216 83 1355
223 83 18
224 83 1245
229 83 1156
230 83 2034
231 83 4
232 83 3532
237 83 18
241 83 3633
242 83 122
244 83 10
248 83 3
255 83 2
256 83 2471
257 83 1082
259 83 2233
261 83 1117
262 83 31
264 83 1466
268 83 2398
272 83 1779
276 83 121
278 83 4
289 83 14
292 83 3395
300 83 2240
301 83 3683
305 83 1792
306 83 2277
309 83 35
310 83 472
316 83 1940
317 83 1311
318 83 2093
322 83 2214
324 83 1009
325 83 5
326 83 6
327 83 1019
331 83 1302
333 83 11
334 83 2724
336 83 969
338 83 4
339 83 1646
343 83 60
346 83 1633
347 83 1645
349 83 1347
350 83 1564
351 83 1183
354 83 7
363 83 1238
367 83 1571
368 83 371
369 83 1530
371 83 1427
373 83 2017
374 83 1665
377 83 2352
380 83 1168
383 83 4
384 83 831
388 83 2131
390 83 32
392 83 2548
397 83 2232
398 83 1615
402 83 1812
409 83 2495
410 83 1386
411 83 1800
416 83 1058
417 83 1132
419 83 884
420 83 4
421 83 8
423 83 1903
424 83 1877
425 83 1537
428 83 1400
433 83 3570
435 83 47
436 83 6
439 83 1130
441 83 1877
442 83 1396
445 83 2191
448 83 3675
449 83 37
452 83 1863
454 83 2236
458 83 1
459 83 1068
461 83 1455
463 83 3
465 83 30
468 83 1758
476 83 1486
477 83 71
479 83 1605
483 83 6
485 83 2458
486 83 2208
489 83 1005
490 83 1442
491 83 817
493 83 1752
499 83 1797
500 83 4
2 84 2264
4 84 2051
5 84 5969
11 84 574
12 84 3760
15 84 2504
16 84 1439
17 84 2749
18 84 2626
22 84 4844
23 84 1506
25 84 9
26 84 4112
29 84 1554
33 84 2555
34 84 4234
37 84 3810
40 84 8
41 84 5
43 84 4
44 84 2311
46 84 41
49 84 2766
51 84 7
52 84 2240
57 84 29
58 84 2415
62 84 3300
66 84 3465
67 84 2548
68 84 2664
69 84 4608
70 84 4
75 84 1767
77 84 1
79 84 1
84 84 3691
86 84 4540
87 84 5
90 84 2252
91 84 2085
93 84 3618
94 84 2033
95 84 2255
97 84 2896
100 84 2876
102 84 3241
103 84 4701
105 84 3211
110 84 3477
111 84 5
113 84 21
115 84 4587
117 84 2174
135 84 4409
137 84 8
139 84 431
143 84 35
144 84 2459
146 84 2748
147 84 2111
151 84 2321
153 84 4
158 84 3129
161 84 8
169 84 7
171 84 3066
172 84 6
173 84 3846
174 84 4597
176 84 1312
178 84 18
180 84 1618
183 84 2703
185 84 8
188 84 3176
189 84 8
191 84 4466
192 84 4
193 84 15
195 84 1740
197 84 4153
198 84 1671
201 84 3234
203 84 2628
210 84 4411
216 84 1694
222 84 3
223 84 33
224 84 2905
229 84 2642
230 84 155
232 84 1886
237 84 4
241 84 4152
242 84 14
256 84 2118
257 84 2752
259 84 3706
260 84 6
261 84 1657
262 84 7
264 84 3142
268 84 5574
272 84 82
274 84 7
276 84 23
281 84 4
287 84 48
288 84 11
292 84 1855
300 84 5218
301 84 4021
305 84 2211
306 84 2641
309 84 6
310 84 7
316 84 2368
317 84 2231
318 84 5384
322 84 894
324 84 3164
327 84 1537
331 84 56
333 84 35
334 84 5639
335 84 12
336 84 3341
337 84 10
339 84 2406
343 84 31
346 84 2432
347 84 3144
349 84 4782
350 84 2681
351 84 3168
353 84 5
354 84 24
359 84 33
363 84 2000
367 84 2264
368 84 15
369 84 2424
371 84 2464
373 84 1338
374 84 1864
377 84 2190
380 84 2812
384 84 1782
388 84 2163
390 84 18
392 84 2137
397 84 2207
398 84 1861
402 84 433
403 84 7
407 84 4
409 84 3069
410 84 4145
411 84 2975
415 84 4
416 84 26
417 84 3196
419 84 2922
423 84 2353
424 84 2480
425 84 2568
428 84 2222
433 84 380
439 84 1731
441 84 4503
442 84 4146
445 84 4602
448 84 95
449 84 1
451 84 5
452 84 2116
454 84 45
459 84 3589
461 84 4282
466 84 18
468 84 5612
476 84 4415
477 84 16
479 84 109
481 84 5
485 84 3402
486 84 3933
489 84 3736
490 84 2708
491 84 1208
493 84 11
494 84 4
499 84 2670
1 85 857
2 85 1248
3 85 225
4 85 1341
5 85 1814
6 85 346
7 85 56
8 85 123
9 85 199
10 85 407
11 85 1807
12 85 1664
13 85 252
14 85 724
15 85 848
16 85 811
17 85 2115
18 85 1442
19 85 442
20 85 81
21 85 99
22 85 922
23 85 1263
24 85 44
25 85 707
26 85 1433
27 85 1488
28 85 636
29 85 652
30 85 507
31 85 557
32 85 397
33 85 808
34 85 1440
35 85 490
36 85 860
37 85 1229
38 85 112
39 85 17
40 85 257
41 85 335
42 85 124
43 85 380
44 85 1348
45 85 478
46 85 795
47 85 166
48 85 536
49 85 833
50 85 928
51 85 726
52 85 1727
53 85 321
54 85 239
55 85 7
56 85 65
57 85 456
58 85 881
59 85 222
60 85 181
61 85 64
62 85 1143
63 85 674
64 85 1066
65 85 219
66 85 1789
67 85 708
68 85 1224
69 85 1482
70 85 279
71 85 89
72 85 155
73 85 194
74 85 141
75 85 992
76 85 426
77 85 739
78 85 63
79 85 279
80 85 145
81 85 99
82 85 127
83 85 18
84 85 1977
85 85 105
86 85 1648
87 85 117
88 85 901
89 85 138
90 85 1547
91 85 1012
92 85 95
93 85 617
94 85 1343
95 85 1550
96 85 104
97 85 928
98 85 112
99 85 133
100 85 1743
101 85 246
102 85 1179
103 85 694
104 85 56
105 85 863
106 85 186
107 85 25
108 85 830
109 85 57
110 85 1081
111 85 734
112 85 84
113 85 140
114 85 55
115 85 1025
116 85 566
117 85 646
118 85 120
119 85 269
120 85 649
121 85 547
122 85 222
123 85 320
124 85 893
125 85 156
126 85 142
127 85 146
128 85 393
129 85 150
130 85 211
131 85 95
132 85 117
133 85 146
134 85 225
135 85 2374
136 85 877
137 85 675
138 85 291
139 85 1106
140 85 130
141 85 225
142 85 569
143 85 1001
144 85 1273
145 85 261
146 85 648
147 85 1340
148 85 208
149 85 168
150 85 231
151 85 1489
152 85 757
153 85 96
154 85 89
155 85 132
156 85 88
157 85 130
158 85 1307
159 85 149
160 85 350
161 85 345
162 85 138
163 85 66
164 85 92
165 85 155
166 85 111
167 85 116
168 85 355
169 85 1332
170 85 287
171 85 2187
172 85 178
173 85 1461
174 85 895
175 85 146
176 85 856
177 85 140
178 85 664
179 85 335
180 85 642
181 85 27
182 85 331
183 85 1213
184 85 158
185 85 455
186 85 491
187 85 109
188 85 936
189 85 460
190 85 129
191 85 1633
192 85 119
193 85 1029
194 85 778
195 85 992
196 85 143
197 85 608
198 85 708
199 85 193
200 85 547
201 85 913
202 85 88
203 85 1181
204 85 540
205 85 169
206 85 207
207 85 66
208 85 99
209 85 98
210 85 1535
211 85 226
212 85 1884
213 85 273
214 85 343
215 85 212
216 85 999
217 85 128
218 85 104
219 85 90
220 85 88
221 85 69
222 85 295
223 85 759
224 85 831
225 85 97
226 85 78
227 85 64
228 85 667
229 85 919
230 85 754
231 85 672
232 85 1415
233 85 199
234 85 184
235 85 464
236 85 116
237 85 555
238 85 74
239 85 99
240 85 92
241 85 1437
242 85 841
243 85 94
244 85 83
245 85 53
246 85 104
247 85 168
248 85 190
249 85 101
250 85 607
251 85 79
252 85 580
253 85 192
254 85 141
255 85 500
256 85 1292
257 85 1708
258 85 198
259 85 1517
260 85 384
261 85 1644
262 85 229
263 85 1771
264 85 1828
265 85 431
266 85 18
267 85 183
268 85 1275
269 85 153
270 85 50
271 85 55
272 85 192
273 85 161
274 85 1866
275 85 131
276 85 425
277 85 3
278 85 195
279 85 170
280 85 108
281 85 344
282 85 66
283 85 81
284 85 141
285 85 163
286 85 153
287 85 462
288 85 459
289 85 839
290 85 92
291 85 210
292 85 1431
293 85 1764
294 85 55
295 85 76
296 85 563
297 85 100
298 85 114
299 85 167
300 85 967
301 85 1811
302 85 123
303 85 158
304 85 1067
305 85 1684
306 85 1487
307 85 110
308 85 804
309 85 362
310 85 164
311 85 69
312 85 82
313 85 109
314 85 958
315 85 27
316 85 1256
317 85 627
318 85 2023
319 85 415
320 85 74
321 85 172
322 85 1302
323 85 511
324 85 1332
325 85 287
326 85 626
327 85 648
328 85 105
329 85 217
330 85 84
331 85 1144
332 85 165
333 85 1204
334 85 2050
335 85 622
336 85 1305
337 85 648
338 85 648
339 85 1478
340 85 116
341 85 188
342 85 67
343 85 100
344 85 49
345 85 53
346 85 1530
347 85 881
348 85 1084
349 85 656
350 85 655
351 85 577
352 85 53
353 85 574
354 85 421
355 85 159
356 85 18
357 85 193
358 85 361
359 85 501
360 85 1249
361 85 719
362 85 213
363 85 667
364 85 41
365 85 131
366 85 226
367 85 974
368 85 1249
369 85 907
370 85 558
371 85 954
372 85 144
373 85 1203
374 85 1162
375 85 161
376 85 114
377 85 900
378 85 1059
379 85 85
380 85 668
381 85 131
382 85 332
383 85 115
384 85 341
385 85 131
386 85 116
387 85 102
388 85 1233
389 85 288
390 85 158
391 85 505
392 85 1297
393 85 148
394 85 92
395 85 104
396 85 83
397 85 2194
398 85 1251
399 85 44
400 85 86
401 85 59
402 85 785
403 85 501
404 85 68
405 85 87
406 85 405
407 85 1175
408 85 144
409 85 805
410 85 1025
411 85 781
412 85 217
413 85 156
414 85 140
415 85 563
416 85 263
417 85 1672
418 85 334
419 85 939
420 85 882
421 85 581
422 85 121
423 85 719
424 85 1024
425 85 1503
426 85 55
427 85 552
428 85 975
429 85 345
430 85 169
431 85 17
432 85 80
433 85 887
434 85 28
435 85 313
436 85 235
437 85 85
438 85 127
439 85 1096
440 85 87
441 85 1307
442 85 1715
443 85 90
444 85 107
445 85 1258
446 85 263
447 85 663
448 85 600
449 85 444
450 85 90
451 85 86
452 85 1164
453 85 80
454 85 984
455 85 905
456 85 150
457 85 121
458 85 498
459 85 554
460 85 56
461 85 1411
462 85 396
463 85 536
464 85 102
465 85 350
466 85 669
467 85 180
468 85 1503
469 85 113
470 85 187
471 85 98
472 85 205
473 85 70
474 85 147
475 85 62
476 85 1945
477 85 315
478 85 116
479 85 991
480 85 63
481 85 574
482 85 307
483 85 198
484 85 123
485 85 1631
486 85 708
487 85 125
488 85 386
489 85 1672
490 85 680
491 85 773
492 85 48
493 85 293
494 85 287
495 85 186
496 85 165
497 85 143
498 85 407
499 85 2443
500 85 83
10 86 4613
24 86 2329
39 86 3385
41 86 3111
42 86 2437
53 86 3427
63 86 3582
64 86 4950
71 86 3
73 86 2808
88 86 1450
107 86 3869
118 86 2993
119 86 3329
122 86 2111
126 86 41
130 86 4415
134 86 4042
136 86 3172
138 86 2543
140 86 1003
150 86 2143
157 86 74
160 86 3147
163 86 2290
169 86 2503
172 86 2792
177 86 87
182 86 2924
184 86 1875
187 86 2624
189 86 1897
199 86 5
200 86 198
205 86 4117
208 86 3855
212 86 4335
215 86 1260
217 86 2790
231 86 2441
233 86 1172
236 86 1968
238 86 3222
240 86 2709
245 86 2591
247 86 155
250 86 3285
253 86 1239
260 86 4311
278 86 3010
279 86 163
281 86 4068
282 86 659
285 86 164
290 86 1905
337 86 4279
340 86 3774
342 86 2821
352 86 2685
353 86 24
357 86 3939
362 86 2610
376 86 5516
378 86 4192
394 86 3661
399 86 2558
403 86 3922
405 86 2657
406 86 153
407 86 2924
408 86 2462
413 86 4380
420 86 4
421 86 4093
430 86 3414
446 86 2461
460 86 265
469 86 2230
470 86 1275
472 86 1179
481 86 36
497 86 1985
498 86 3250
1 87 1983
2 87 444
3 87 317
5 87 837
6 87 2004
7 87 2045
8 87 1608
9 87 1436
10 87 2843
11 87 937
12 87 1483
13 87 1855
14 87 1268
18 87 31
19 87 2456
20 87 2055
21 87 1367
22 87 707
24 87 1413
25 87 902
27 87 1752
28 87 1764
30 87 1832
31 87 815
32 87 1491
34 87 550
35 87 1078
36 87 1903
37 87 222
38 87 1757
39 87 3194
40 87 706
41 87 1895
42 87 1713
43 87 1695
44 87 1193
45 87 908
46 87 1693
47 87 1292
48 87 1426
50 87 1745
51 87 1375
52 87 1373
53 87 2872
54 87 1472
55 87 812
56 87 1861
57 87 1066
59 87 1349
60 87 1408
61 87 758
62 87 1529
63 87 1694
64 87 2073
65 87 1453
66 87 1012
69 87 671
70 87 1859
71 87 1832
72 87 1483
73 87 2307
74 87 1548
76 87 1289
77 87 1386
78 87 2388
79 87 1399
80 87 1819
81 87 1239
82 87 1818
83 87 1312
84 87 860
85 87 1471
86 87 654
87 87 2503
88 87 1838
89 87 1850
90 87 531
92 87 2922
94 87 879
95 87 959
96 87 1025
98 87 1021
99 87 1377
100 87 817
101 87 1101
102 87 2077
103 87 38
104 87 1573
105 87 401
106 87 1415
107 87 1231
108 87 2462
109 87 1558
111 87 923
112 87 1131
113 87 1255
114 87 1465
116 87 1543
118 87 2839
119 87 2293
120 87 1093
121 87 2840
122 87 1322
123 87 1030
124 87 1718
125 87 2272
126 87 918
127 87 1575
128 87 2068
129 87 809
130 87 1042
131 87 1303
132 87 1747
133 87 1730
134 87 2415
135 87 886
136 87 1253
137 87 894
138 87 2582
139 87 1077
140 87 1600
141 87 1402
142 87 1683
143 87 1332
145 87 1427
147 87 622
148 87 1528
149 87 1219
150 87 1288
151 87 1132
152 87 1866
153 87 2493
154 87 1289
155 87 1016
156 87 1684
157 87 3236
158 87 596
159 87 2763
160 87 3325
161 87 1659
162 87 1290
163 87 3703
164 87 1332
165 87 1774
166 87 1454
167 87 1198
168 87 1720
169 87 1795
170 87 1031
171 87 1087
172 87 2132
173 87 376
174 87 1
175 87 1063
177 87 3268
178 87 885
179 87 873
181 87 2072
182 87 2692
183 87 967
184 87 3011
185 87 856
186 87 1183
187 87 1920
189 87 1069
190 87 1391
191 87 1208
192 87 1171
193 87 1857
194 87 1953
196 87 1579
199 87 1648
200 87 1278
201 87 12
202 87 2691
204 87 1042
205 87 2428
206 87 874
207 87 1435
208 87 782
209 87 908
210 87 1229
211 87 2258
212 87 722
213 87 2222
214 87 1181
215 87 2594
217 87 1786
218 87 1885
219 87 2704
220 87 1664
221 87 1691
222 87 1321
223 87 1390
225 87 3156
226 87 2736
227 87 1405
228 87 2185
230 87 839
231 87 2268
232 87 1448
233 87 1051
234 87 1062
235 87 2444
236 87 3061
237 87 859
238 87 1626
239 87 833
240 87 2280
241 87 561
242 87 917
243 87 753
244 87 889
245 87 2914
246 87 2257
247 87 2410
248 87 1549
249 87 1698
250 87 2079
251 87 1439
252 87 2243
253 87 2547
254 87 1200
255 87 959
256 87 887
258 87 1834
259 87 380
260 87 3478
262 87 896
263 87 2392
264 87 1209
265 87 1836
266 87 2129
267 87 2107
268 87 1198
269 87 1068
270 87 2039
271 87 820
272 87 1748
273 87 1566
274 87 832
275 87 355
276 87 1392
277 87 1387
278 87 2460
279 87 2440
280 87 2637
281 87 550
282 87 1468
283 87 936
284 87 1114
285 87 2508
286 87 1367
287 87 1750
288 87 1488
289 87 474
290 87 1323
291 87 837
292 87 1513
293 87 1247
294 87 983
295 87 896
296 87 493
297 87 1766
298 87 2950
299 87 1754
301 87 1621
302 87 3058
303 87 1141
304 87 2346
305 87 16
306 87 23
307 87 1193
308 87 2432
309 87 1444
310 87 2302
311 87 1454
312 87 1924
313 87 3009
314 87 1707
315 87 1654
319 87 2223
320 87 1925
321 87 1591
322 87 1762
323 87 2537
324 87 147
325 87 1763
326 87 1230
328 87 1392
329 87 1516
330 87 2894
331 87 1591
332 87 1844
333 87 2227
334 87 1051
335 87 1489
336 87 153
337 87 2097
338 87 1241
340 87 1967
341 87 2168
342 87 1355
343 87 1595
344 87 1543
345 87 1861
347 87 431
348 87 2305
349 87 57
350 87 947
352 87 1516
353 87 1551
354 87 1083
355 87 1529
356 87 2185
357 87 2199
358 87 1115
359 87 1347
360 87 1631
361 87 890
362 87 975
364 87 1262
365 87 1131
366 87 1876
368 87 1085
370 87 473
372 87 1537
373 87 954
375 87 1206
376 87 967
378 87 2531
379 87 1147
381 87 1724
382 87 1778
383 87 2439
385 87 804
386 87 1619
387 87 1215
388 87 67
389 87 1393
390 87 1212
391 87 1670
392 87 112
393 87 1089
394 87 1740
395 87 1437
396 87 1904
397 87 1011
399 87 3001
400 87 1375
401 87 1067
402 87 1314
403 87 1337
404 87 1459
405 87 2339
406 87 519
407 87 1454
408 87 1992
409 87 653
410 87 21
412 87 2475
413 87 1102
414 87 1466
415 87 1298
416 87 530
417 87 1783
418 87 1217
420 87 1230
421 87 2638
422 87 1641
424 87 818
426 87 1014
427 87 2641
428 87 147
429 87 1283
430 87 969
431 87 833
432 87 1601
433 87 1411
434 87 1363
435 87 1084
436 87 1900
437 87 575
438 87 1159
440 87 1548
441 87 38
442 87 65
443 87 1613
444 87 1476
445 87 846
446 87 1070
447 87 915
448 87 997
449 87 1025
450 87 1423
451 87 999
452 87 1569
453 87 555
454 87 1335
455 87 1455
456 87 1550
457 87 1378
458 87 968
459 87 325
460 87 1363
461 87 20
462 87 2051
463 87 990
464 87 1781
465 87 1363
466 87 1870
467 87 2044
468 87 1234
469 87 1989
470 87 2733
471 87 1865
472 87 1023
473 87 1901
474 87 1127
475 87 1395
477 87 1504
478 87 1173
479 87 876
480 87 1168
481 87 1598
482 87 645
483 87 2516
484 87 1594
486 87 18
487 87 1571
488 87 2112
490 87 1777
492 87 989
493 87 777
494 87 1519
495 87 1377
496 87 1617
497 87 1045
498 87 2382
499 87 1919
500 87 1452
3 88 1656
5 88 4
6 88 3350
7 88 3297
20 88 12
21 88 2412
27 88 3079
30 88 1843
31 88 3119
32 88 3809
38 88 2721
50 88 1470
51 88 2304
55 88 1955
56 88 2701
59 88 1507
60 88 2790
61 88 29
76 88 3250
77 88 2254
78 88 2973
81 88 3102
82 88 48
83 88 2302
89 88 44
99 88 2944
106 88 2841
108 88 2513
112 88 1847
114 88 1988
128 88 2542
131 88 2480
133 88 1748
140 88 7
142 88 2653
148 88 3585
154 88 2421
155 88 3180
156 88 3
161 88 3406
166 88 3192
181 88 2213
186 88 1316
191 88 2
207 88 2972
209 88 3022
210 88 5
211 88 3731
212 88 6
214 88 2964
218 88 1949
220 88 1048
221 88 4089
222 88 1705
225 88 2498
226 88 1592
227 88 1611
235 88 2920
239 88 4087
246 88 2995
249 88 2799
251 88 1697
254 88 2915
263 88 2461
265 88 2983
266 88 1938
269 88 3154
270 88 3204
271 88 1915
274 88 3772
277 88 979
287 88 2872
293 88 2165
298 88 2128
302 88 2078
304 88 2329
308 88 2487
311 88 2859
312 88 2266
313 88 2215
314 88 1528
315 88 2042
319 88 2316
320 88 2819
323 88 3170
330 88 3157
332 88 3536
341 88 2883
345 88 1227
348 88 2327
356 88 55
358 88 3587
360 88 2819
361 88 2650
364 88 2088
365 88 2990
382 88 1198
385 88 222
393 88 2860
395 88 1449
401 88 1666
404 88 3721
412 88 189
414 88 3072
415 88 2359
418 88 2951
422 88 2029
426 88 1654
427 88 3253
431 88 1839
432 88 1952
434 88 2097
438 88 3037
447 88 2702
462 88 2475
464 88 2602
471 88 2470
478 88 3029
482 88 3440
483 88 2376
484 88 2628
487 88 2576
488 88 2471
492 88 2613
496 88 2778
1 89 2937
2 89 3147
3 89 102
4 89 1411
5 89 1719
6 89 45
7 89 32
8 89 2285
9 89 3146
10 89 3992
11 89 1249
12 89 2207
13 89 2578
14 89 3735
15 89 1635
16 89 1421
17 89 2171
18 89 1181
19 89 2361
20 89 2911
21 89 56
22 89 1462
23 89 750
24 89 4031
25 89 2004
26 89 1740
27 89 63
28 89 2363
29 89 1321
30 89 88
31 89 50
32 89 61
33 89 1125
34 89 1725
35 89 3692
36 89 2864
37 89 2180
38 89 154
39 89 4128
40 89 2400
41 89 4445
42 89 3778
43 89 2644
44 89 2113
45 89 2548
46 89 2942
47 89 3466
48 89 1898
49 89 1012
50 89 19
51 89 373
52 89 2133
53 89 2946
54 89 2326
55 89 1129
56 89 1313
57 89 1607
58 89 2295
59 89 1442
60 89 33
61 89 1964
62 89 2575
63 89 1310
64 89 7268
65 89 2773
66 89 1975
67 89 1944
68 89 1678
69 89 2016
70 89 3718
71 89 3788
72 89 2830
73 89 3151
74 89 2777
75 89 1079
76 89 697
77 89 421
78 89 335
79 89 3528
80 89 2107
81 89 53
82 89 2123
83 89 1852
84 89 2397
85 89 2056
86 89 1300
87 89 2051
88 89 2812
89 89 2114
90 89 810
91 89 2289
92 89 3061
93 89 1794
94 89 1559
95 89 2300
96 89 1939
97 89 1695
98 89 2794
99 89 65
100 89 2927
101 89 3026
102 89 2106
103 89 2195
104 89 2877
105 89 1688
106 89 23
107 89 2965
108 89 63
109 89 3718
110 89 2445
111 89 2042
112 89 45
113 89 2193
114 89 48
115 89 2405
116 89 2524
117 89 972
118 89 5018
119 89 2070
120 89 2343
121 89 2316
122 89 2076
123 89 1722
124 89 1442
125 89 1935
126 89 2549
127 89 2961
128 89 33
129 89 2536
130 89 1324
131 89 29
132 89 2091
133 89 60
134 89 3789
135 89 1554
136 89 2271
137 89 1998
138 89 1966
139 89 3006
140 89 2731
141 89 2627
142 89 110
143 89 3273
144 89 2550
145 89 2286
146 89 1633
147 89 1493
148 89 53
149 89 2871
150 89 2098
151 89 2015
152 89 3484
153 89 1979
154 89 40
155 89 24
156 89 2346
157 89 4615
158 89 1379
159 89 3087
160 89 3052
161 89 344
162 89 2064
163 89 2881
164 89 1760
165 89 2445
166 89 41
167 89 2322
168 89 2882
169 89 3648
170 89 2801
171 89 2265
172 89 2828
173 89 2901
174 89 1312
175 89 2728
176 89 1256
177 89 4750
178 89 2172
179 89 4141
180 89 1369
181 89 83
182 89 4737
183 89 2763
184 89 3342
185 89 3360
186 89 2020
187 89 2935
188 89 1455
189 89 2353
190 89 2348
191 89 2092
192 89 3050
193 89 3604
194 89 2145
195 89 1069
196 89 2832
197 89 1623
198 89 1105
199 89 1985
200 89 3008
201 89 812
202 89 2897
203 89 2188
204 89 3561
205 89 3393
206 89 2131
207 89 99
208 89 3610
209 89 88
210 89 2070
211 89 145
212 89 3066
213 89 2176
214 89 21
215 89 2195
216 89 1094
217 89 1976
218 89 22
219 89 3010
220 89 1332
221 89 32
222 89 77
223 89 1324
224 89 1736
225 89 90
226 89 207
227 89 65
228 89 2632
229 89 1739
230 89 1764
231 89 2878
232 89 3868
233 89 2366
234 89 1917
235 89 80
236 89 2947
237 89 2435
238 89 4305
239 89 121
240 89 2702
241 89 1730
242 89 2631
243 89 3163
244 89 2947
245 89 3681
246 89 579
247 89 3272
248 89 2973
249 89 12
250 89 4586
251 89 85
252 89 2113
253 89 2167
254 89 209
255 89 2480
256 89 1634
257 89 1822
258 89 4232
259 89 2842
260 89 4129
261 89 1075
262 89 2328
263 89 33
264 89 1778
265 89 172
266 89 12
267 89 4665
268 89 3246
269 89 22
270 89 22
271 89 49
272 89 2006
273 89 2622
274 89 109
275 89 2162
276 89 2468
277 89 1169
278 89 3078
279 89 3201
280 89 1741
281 89 4881
282 89 3716
283 89 2829
284 89 1366
285 89 3301
286 89 3178
287 89 53
288 89 1756
289 89 1976
290 89 3572
291 89 2175
292 89 3851
293 89 69
294 89 1732
295 89 2019
296 89 1598
297 89 2270
298 89 303
299 89 4504
300 89 1762
301 89 3918
302 89 329
303 89 1388
304 89 39
305 89 1354
306 89 1233
307 89 2387
308 89 77
309 89 1839
310 89 2393
311 89 83
312 89 396
313 89 321
314 89 28
315 89 70
316 89 1778
317 89 980
318 89 983
319 89 58
320 89 113
321 89 2241
322 89 1597
323 89 57
324 89 1610
325 89 2851
326 89 2486
327 89 1389
328 89 2361
329 89 2689
330 89 38
331 89 3627
332 89 54
333 89 2002
334 89 1956
335 89 2327
336 89 1531
337 89 2622
338 89 2394
339 89 879
340 89 3120
341 89 75
342 89 2796
343 89 2792
344 89 2549
345 89 688
346 89 1271
347 89 1727
348 89 50
349 89 2220
350 89 1127
351 89 896
352 89 2547
353 89 1678
354 89 1693
355 89 2901
356 89 2881
357 89 4357
358 89 27
359 89 1915
360 89 107
361 89 25
362 89 4135
363 89 2844
364 89 98
365 89 263
366 89 4174
367 89 728
368 89 2792
369 89 1509
370 89 1714
371 89 2352
372 89 1310
373 89 1973
374 89 1679
375 89 2781
376 89 2978
377 89 1225
378 89 4096
379 89 1881
380 89 1690
381 89 2333
382 89 2666
383 89 3181
384 89 1056
385 89 1893
386 89 1921
387 89 2122
388 89 1158
389 89 2361
390 89 2191
391 89 3796
392 89 1662
393 89 73
394 89 3363
395 89 63
396 89 3056
397 89 2999
398 89 1621
399 89 3514
400 89 2519
401 89 139
402 89 2573
403 89 2499
404 89 168
405 89 2571
406 89 3076
407 89 2300
408 89 2787
409 89 2339
410 89 1986
411 89 1892
412 89 1851
413 89 1323
414 89 56
415 89 209
416 89 1606
417 89 2019
418 89 33
419 89 1657
420 89 1619
421 89 2941
422 89 36
423 89 1563
424 89 2600
425 89 1329
426 89 135
427 89 71
428 89 1871
429 89 1232
430 89 3958
431 89 1092
432 89 1199
433 89 2730
434 89 102
435 89 4258
436 89 2542
437 89 3040
438 89 221
439 89 1283
440 89 2616
441 89 1621
442 89 1743
443 89 3436
444 89 2121
445 89 3380
446 89 1980
447 89 30
448 89 2715
449 89 1781
450 89 2518
451 89 2833
452 89 1676
453 89 3151
454 89 3245
455 89 1948
456 89 3078
457 89 3894
458 89 2510
459 89 1252
460 89 3738
461 89 2019
462 89 32
463 89 1369
464 89 50
465 89 2505
466 89 3289
467 89 4608
468 89 2576
469 89 3245
470 89 2220
471 89 77
472 89 2400
473 89 2343
474 89 1354
475 89 1690
476 89 1704
477 89 1460
478 89 224
479 89 1605
480 89 3091
481 89 1662
482 89 83
483 89 69
484 89 64
485 89 1229
486 89 2087
487 89 83
488 89 36
489 89 1494
490 89 1478
491 89 528
492 89 57
493 89 3186
494 89 3444
495 89 2884
496 89 61
497 89 2308
498 89 2782
499 89 2472
500 89 2327
1 90 4245
2 90 3554
4 90 4833
5 90 4952
8 90 6997
9 90 1777
10 90 5079
11 90 3778
12 90 3450
13 90 3088
14 90 5283
15 90 1237
16 90 4913
17 90 4295
18 90 2978
19 90 4349
22 90 9515
23 90 4225
24 90 5864
25 90 3216
26 90 3137
28 90 4
29 90 1710
33 90 2651
34 90 4238
35 90 6040
36 90 4184
37 90 5575
39 90 5878
40 90 4390
41 90 6047
42 90 6042
43 90 4443
44 90 3941
45 90 5137
46 90 3746
47 90 3706
48 90 5865
49 90 3220
52 90 1797
53 90 7597
54 90 3764
57 90 4741
58 90 2865
62 90 3905
63 90 7239
64 90 5860
65 90 8464
66 90 5256
67 90 2623
68 90 3075
69 90 3637
70 90 3022
71 90 4286
72 90 4985
73 90 5240
74 90 4878
75 90 3402
79 90 7594
80 90 30
84 90 3017
85 90 4282
86 90 5463
88 90 4162
90 90 4656
91 90 2070
92 90 3656
93 90 4046
94 90 2753
95 90 4540
96 90 6660
97 90 3134
98 90 3105
100 90 2671
101 90 6581
102 90 6388
103 90 3213
104 90 3179
105 90 3222
107 90 6933
109 90 4390
110 90 1715
111 90 3255
113 90 5434
115 90 1744
117 90 2289
118 90 5590
119 90 9597
120 90 5131
121 90 9653
122 90 5488
124 90 4117
125 90 4307
126 90 5399
127 90 4869
129 90 5384
130 90 6438
132 90 3969
134 90 5197
135 90 4868
136 90 4642
137 90 3142
138 90 7515
139 90 4954
140 90 4983
141 90 17
143 90 5604
144 90 5429
145 90 4233
146 90 1897
147 90 4214
149 90 3822
150 90 5469
151 90 6772
152 90 5869
157 90 7493
158 90 4878
159 90 6131
160 90 9766
162 90 3
163 90 4213
164 90 1394
165 90 25
166 90 8
167 90 154
168 90 140
169 90 6818
170 90 5697
171 90 5270
172 90 5368
173 90 2281
174 90 1357
175 90 3099
176 90 3711
177 90 7415
178 90 3591
179 90 4622
180 90 1605
182 90 9139
183 90 4624
184 90 4513
185 90 7528
187 90 6642
188 90 2017
189 90 4498
190 90 5186
191 90 5358
192 90 5713
193 90 4089
194 90 2035
195 90 7125
196 90 4825
197 90 1977
198 90 5258
199 90 3422
200 90 4695
201 90 2578
202 90 5317
203 90 3004
204 90 6182
205 90 13095
206 90 2
208 90 7602
210 90 5411
212 90 6301
215 90 4997
216 90 7163
217 90 4418
219 90 5121
223 90 2354
224 90 3096
228 90 5976
229 90 9401
230 90 5241
231 90 4269
232 90 3588
233 90 9166
234 90 4703
236 90 6842
237 90 4454
238 90 5795
240 90 8057
241 90 4156
242 90 4459
243 90 3950
244 90 4494
245 90 4252
247 90 4547
248 90 3489
250 90 5039
252 90 7596
253 90 5080
255 90 5101
256 90 2783
257 90 3606
258 90 8209
259 90 2274
260 90 4039
261 90 2374
262 90 2743
264 90 8017
267 90 3782
268 90 3067
272 90 3192
273 90 4987
274 90 10
275 90 8037
276 90 4438
278 90 9085
279 90 4518
280 90 306
281 90 5947
282 90 9752
283 90 4030
285 90 4523
286 90 1697
288 90 9732
289 90 5462
290 90 4373
291 90 4
292 90 3630
294 90 5913
295 90 2872
296 90 1030
297 90 7185
299 90 4615
300 90 3232
301 90 7753
305 90 5186
306 90 3037
307 90 145
309 90 3303
310 90 4645
316 90 3328
317 90 2352
318 90 4523
322 90 4792
324 90 2891
325 90 4258
327 90 1628
328 90 5201
329 90 18
331 90 4652
333 90 3692
334 90 5494
335 90 2172
336 90 2853
337 90 5806
338 90 5118
339 90 3124
340 90 7116
342 90 6153
343 90 4602
344 90 4385
346 90 2959
347 90 3202
349 90 3166
350 90 3744
351 90 1982
352 90 5637
353 90 3315
354 90 4749
355 90 4924
357 90 7858
359 90 3942
362 90 7122
363 90 3175
366 90 8141
367 90 2854
368 90 5697
369 90 3483
370 90 1079
371 90 2639
372 90 7100
373 90 2329
374 90 2987
375 90 3814
376 90 6485
377 90 2355
378 90 5641
379 90 2
380 90 1847
381 90 7073
383 90 4604
384 90 2119
386 90 4469
387 90 6131
388 90 3222
389 90 4261
390 90 5219
391 90 4586
392 90 2915
394 90 5484
396 90 2364
397 90 7497
398 90 3093
399 90 4408
400 90 5719
402 90 2994
403 90 5453
405 90 7852
406 90 6644
407 90 6274
408 90 5133
409 90 3344
410 90 1963
411 90 2168
413 90 6485
416 90 3481
417 90 7615
419 90 5530
421 90 8588
423 90 2662
424 90 3474
425 90 3060
428 90 3497
429 90 4402
430 90 5678
433 90 2465
435 90 3010
436 90 3014
437 90 4201
439 90 2012
440 90 5692
441 90 4609
442 90 5958
443 90 8041
444 90 4222
445 90 4720
446 90 4879
448 90 3012
449 90 5207
450 90 5560
451 90 4130
452 90 2566
453 90 4066
454 90 5706
455 90 11
456 90 6257
457 90 3172
458 90 5102
459 90 6614
460 90 6763
461 90 5909
463 90 5643
465 90 2851
466 90 5551
467 90 3700
468 90 5212
469 90 4905
470 90 5178
472 90 9119
473 90 3165
475 90 2469
476 90 3326
477 90 3031
479 90 3212
480 90 6642
481 90 3338
485 90 2463
486 90 2333
489 90 1709
490 90 3875
491 90 1996
493 90 2189
494 90 6185
495 90 4747
497 90 6098
498 90 3755
499 90 4192
500 90 5218
1 91 3945
2 91 5579
4 91 2612
5 91 8835
8 91 3949
9 91 44
10 91 5559
11 91 4339
12 91 4700
13 91 6210
14 91 3556
15 91 2209
16 91 2584
17 91 1907
18 91 2833
19 91 4986
22 91 3381
23 91 4391
24 91 5930
25 91 5262
26 91 3770
28 91 8
29 91 1629
33 91 4018
34 91 3155
35 91 4042
36 91 3984
37 91 4411
39 91 8076
40 91 5314
41 91 4061
42 91 5766
43 91 3730
44 91 5744
45 91 3811
46 91 2208
47 91 2392
48 91 5528
49 91 2587
52 91 4731
53 91 4699
54 91 5314
57 91 2777
58 91 2432
62 91 3677
63 91 7380
64 91 10345
65 91 2967
66 91 4014
67 91 3854
68 91 2403
69 91 4729
70 91 3806
71 91 7046
72 91 5492
73 91 5234
74 91 5534
75 91 4019
79 91 5335
80 91 5
84 91 2321
85 91 4434
86 91 2404
88 91 5796
90 91 3720
91 91 3747
92 91 5029
93 91 2552
94 91 6696
95 91 2847
96 91 5955
97 91 6596
98 91 6409
100 91 3883
101 91 4379
102 91 4976
103 91 2216
104 91 3943
105 91 4079
107 91 6406
109 91 4338
110 91 2545
111 91 5406
113 91 4528
115 91 2564
117 91 4481
118 91 6897
119 91 5019
120 91 3789
121 91 6799
122 91 3672
124 91 4484
125 91 4812
126 91 5434
127 91 5592
129 91 3824
130 91 8350
132 91 1827
134 91 4394
135 91 3988
136 91 7791
137 91 5292
138 91 6495
139 91 3702
140 91 5905
143 91 2702
144 91 8450
145 91 3977
146 91 4424
147 91 4538
149 91 7340
150 91 3686
151 91 5541
152 91 2552
157 91 4618
158 91 4972
159 91 5086
160 91 6116
163 91 7971
164 91 37
165 91 8
167 91 5
168 91 31
169 91 8062
170 91 2205
171 91 4949
172 91 6342
173 91 7115
174 91 2988
175 91 6218
176 91 4933
177 91 4525
178 91 5263
179 91 4886
180 91 1699
182 91 4213
183 91 4189
184 91 6907
185 91 4031
187 91 7516
188 91 4272
189 91 4672
190 91 4267
191 91 3203
192 91 5084
193 91 435
194 91 5687
195 91 2611
196 91 5541
197 91 5713
198 91 4397
199 91 4371
200 91 4556
201 91 3098
202 91 4103
203 91 4679
204 91 4119
205 91 8601
208 91 3600
210 91 3140
212 91 10449
215 91 7043
216 91 2767
217 91 4775
219 91 4130
223 91 5970
224 91 6668
228 91 3907
229 91 3735
230 91 4414
231 91 5390
232 91 4768
233 91 7083
234 91 4028
236 91 9450
237 91 3392
238 91 8305
240 91 5624
241 91 3109
242 91 3196
243 91 3796
244 91 4113
245 91 6098
247 91 5193
248 91 4202
250 91 4817
252 91 6087
253 91 7139
255 91 3861
256 91 6363
257 91 6179
258 91 3541
259 91 7013
260 91 8653
261 91 5523
262 91 2927
264 91 5880
267 91 5061
268 91 4864
272 91 8362
273 91 3896
275 91 3361
276 91 3872
278 91 6240
279 91 5239
280 91 44
281 91 5293
282 91 5769
283 91 4233
285 91 5135
286 91 37
288 91 5832
289 91 2692
290 91 6531
292 91 4731
294 91 6797
295 91 400
296 91 76
297 91 4327
299 91 9664
300 91 4415
301 91 4381
305 91 2185
306 91 2777
307 91 3
309 91 6724
310 91 4465
316 91 3349
317 91 4441
318 91 3815
322 91 3866
324 91 5012
325 91 4994
327 91 1771
328 91 4313
331 91 4318
333 91 3095
334 91 5230
335 91 4309
336 91 4906
337 91 6576
338 91 3610
339 91 4391
340 91 4887
342 91 5582
343 91 4667
344 91 4594
346 91 2953
347 91 4250
349 91 2332
350 91 2551
351 91 2934
352 91 6986
353 91 4546
354 91 2721
355 91 5543
357 91 7589
359 91 3991
362 91 3955
363 91 2224
366 91 3472
367 91 4154
368 91 5805
369 91 5017
370 91 71
371 91 2351
372 91 2290
373 91 3335
374 91 2741
375 91 7468
376 91 6823
377 91 2750
378 91 5449
380 91 4332
381 91 4111
383 91 4143
384 91 2569
386 91 4192
387 91 3729
388 91 7871
389 91 3920
390 91 4329
391 91 6231
392 91 4576
394 91 5629
396 91 540
397 91 3411
398 91 2719
399 91 6117
400 91 5980
402 91 3139
403 91 7052
405 91 5446
406 91 5726
407 91 4815
408 91 6799
409 91 4855
410 91 2896
411 91 3817
413 91 8283
416 91 6296
417 91 3892
419 91 3028
421 91 6828
423 91 1935
424 91 4384
425 91 3009
428 91 3482
429 91 6578
430 91 6036
433 91 4897
435 91 4700
436 91 6172
437 91 648
439 91 2269
440 91 6057
441 91 2466
442 91 2604
443 91 4063
444 91 4411
445 91 8624
446 91 2525
448 91 3304
449 91 2171
450 91 6037
451 91 10344
452 91 2324
453 91 699
454 91 2671
455 91 2
456 91 4076
457 91 2748
458 91 3818
459 91 3063
460 91 4377
461 91 3626
463 91 5262
465 91 3827
466 91 6061
467 91 5204
468 91 4074
469 91 5683
470 91 7180
472 91 7094
473 91 4914
475 91 17
476 91 7904
477 91 5050
479 91 4753
480 91 5013
481 91 4470
483 91 6
485 91 2362
486 91 2732
489 91 7944
490 91 5285
491 91 2147
493 91 3568
494 91 4124
495 91 618
497 91 5310
498 91 6800
499 91 2915
500 91 5060
1 92 7705
2 92 4496
4 92 4626
5 92 4356
8 92 8350
9 92 80
10 92 7208
11 92 4132
12 92 9004
13 92 7644
14 92 4189
15 92 4797
16 92 4333
17 92 5515
18 92 7880
19 92 7242
22 92 4832
23 92 1459
24 92 8455
25 92 10288
26 92 3596
29 92 7564
33 92 4983
34 92 5911
35 92 7408
36 92 7754
37 92 6638
39 92 6745
40 92 5112
41 92 6566
42 92 11167
43 92 2523
44 92 5210
45 92 3238
46 92 5573
47 92 2087
48 92 6645
49 92 4786
52 92 7361
53 92 8683
54 92 5457
57 92 6950
58 92 3966
62 92 12565
63 92 8739
64 92 9649
65 92 6032
66 92 4692
67 92 9162
68 92 5517
69 92 9409
70 92 8362
71 92 6050
72 92 5223
73 92 6897
74 92 5312
75 92 12548
79 92 4614
84 92 5243
85 92 5061
86 92 7110
88 92 6180
90 92 3741
91 92 3499
92 92 5621
93 92 3629
94 92 6903
95 92 6929
96 92 3571
97 92 3838
98 92 6262
100 92 7144
101 92 5292
102 92 5798
103 92 2736
104 92 5492
105 92 3481
107 92 7091
109 92 4570
110 92 3172
111 92 10188
113 92 6074
115 92 3746
117 92 5016
118 92 15193
119 92 7874
120 92 8480
121 92 8906
122 92 8149
124 92 4693
125 92 5121
126 92 5590
127 92 5335
129 92 3363
130 92 8694
132 92 5237
134 92 11768
135 92 4191
136 92 8338
137 92 10497
138 92 6928
139 92 6712
140 92 5203
143 92 5733
144 92 2918
145 92 8298
146 92 4621
147 92 4775
149 92 9633
150 92 8019
151 92 7071
152 92 4636
157 92 8057
158 92 10813
159 92 5821
160 92 9686
163 92 5723
164 92 209
165 92 11
167 92 16
168 92 5
169 92 5492
170 92 5208
171 92 6932
172 92 17697
173 92 4396
174 92 6097
175 92 6296
176 92 4176
177 92 8193
178 92 5285
179 92 5419
180 92 7546
182 92 7377
183 92 13228
184 92 7585
185 92 4335
187 92 5508
188 92 8816
189 92 8089
190 92 4119
191 92 8870
192 92 4639
193 92 834
194 92 4419
195 92 2329
196 92 5243
197 92 3470
198 92 3713
199 92 7706
200 92 4151
201 92 4057
202 92 11054
203 92 4605
204 92 7432
205 92 9521
208 92 8797
210 92 8804
212 92 7515
215 92 9720
216 92 2384
217 92 9680
219 92 11116
223 92 7835
224 92 3741
228 92 9426
229 92 2605
230 92 6075
231 92 7718
232 92 4275
233 92 9506
234 92 3849
236 92 5857
237 92 6197
238 92 10146
240 92 5798
241 92 5932
242 92 4492
243 92 5986
244 92 6081
245 92 4655
247 92 8989
248 92 5139
250 92 6631
252 92 8856
253 92 9870
255 92 3191
256 92 6562
257 92 5018
258 92 8046
259 92 4372
260 92 8780
261 92 4144
262 92 8443
264 92 4937
267 92 7643
268 92 4672
272 92 10824
273 92 9176
275 92 5871
276 92 3595
278 92 9315
279 92 8920
280 92 23
281 92 4401
282 92 6773
283 92 5095
285 92 8870
286 92 67
288 92 8478
289 92 5971
290 92 7343
292 92 4346
294 92 5099
295 92 264
296 92 344
297 92 6884
299 92 6184
300 92 3450
301 92 6243
305 92 6150
306 92 7891
307 92 10
309 92 3403
310 92 7514
316 92 4124
317 92 4966
318 92 3101
322 92 7059
324 92 5341
325 92 6341
327 92 7593
328 92 4085
331 92 5843
333 92 7742
334 92 5648
335 92 6114
336 92 5591
337 92 8064
338 92 8343
339 92 7033
340 92 10427
342 92 6726
343 92 4183
344 92 6244
346 92 7427
347 92 3695
349 92 2727
350 92 4259
351 92 3213
352 92 6091
353 92 6057
354 92 7223
355 92 5316
357 92 5405
359 92 5551
362 92 5536
363 92 3195
366 92 8119
367 92 12710
368 92 11036
369 92 3550
370 92 318
371 92 3942
372 92 6600
373 92 6771
374 92 5965
375 92 9431
376 92 8063
377 92 10368
378 92 9679
380 92 4511
381 92 6919
383 92 4986
384 92 4652
386 92 7167
387 92 5561
388 92 5740
389 92 8478
390 92 6336
391 92 7015
392 92 3632
394 92 5383
396 92 1039
397 92 8382
398 92 6053
399 92 4785
400 92 7225
402 92 8182
403 92 6870
405 92 5769
406 92 10551
407 92 7878
408 92 6183
409 92 3631
410 92 4256
411 92 3172
413 92 8538
416 92 4902
417 92 2906
419 92 3062
421 92 5837
423 92 3189
424 92 7230
425 92 7780
428 92 10217
429 92 5304
430 92 5652
433 92 5647
435 92 3832
436 92 7547
437 92 194
439 92 6027
440 92 7256
441 92 11271
442 92 5112
443 92 7522
444 92 5245
445 92 4056
446 92 7577
448 92 6350
449 92 5827
450 92 7323
451 92 4214
452 92 5991
453 92 162
454 92 5928
456 92 5410
457 92 3995
458 92 3136
459 92 4267
460 92 6017
461 92 2987
463 92 7629
465 92 6179
466 92 4520
467 92 7560
468 92 4349
469 92 6387
470 92 9929
472 92 9735
473 92 6263
475 92 71
476 92 4440
477 92 11054
479 92 5841
480 92 4319
481 92 5916
485 92 5442
486 92 7424
489 92 4225
490 92 8468
491 92 4481
493 92 3871
494 92 7730
495 92 364
497 92 5696
498 92 7427
499 92 5659
500 92 3768
1 93 1503
2 93 1814
4 93 605
5 93 1484
8 93 1233
9 93 321
10 93 758
11 93 1270
12 93 510
13 93 1797
14 93 1315
15 93 355
16 93 377
17 93 615
18 93 1078
19 93 2201
22 93 788
23 93 724
24 93 725
25 93 1046
26 93 947
28 93 29
29 93 801
33 93 673
34 93 1278
35 93 2383
36 93 1408
37 93 768
39 93 1562
40 93 1180
41 93 2213
42 93 1928
43 93 366
44 93 841
45 93 1675
46 93 1920
47 93 1484
48 93 1377
49 93 830
52 93 1243
53 93 466
54 93 2391
57 93 1888
58 93 683
61 93 14
62 93 1356
63 93 822
64 93 2625
65 93 437
66 93 858
67 93 687
68 93 623
69 93 819
70 93 1952
71 93 2410
72 93 2189
73 93 1115
74 93 2119
75 93 488
79 93 909
80 93 52
84 93 1435
85 93 1123
86 93 1044
87 93 5
88 93 1047
90 93 469
91 93 555
92 93 1825
93 93 871
94 93 784
95 93 829
96 93 1874
97 93 685
98 93 1259
99 93 2
100 93 356
101 93 1208
102 93 1959
103 93 1075
104 93 1873
105 93 831
107 93 2300
109 93 721
110 93 719
111 93 1074
113 93 1379
115 93 1339
117 93 654
118 93 2514
119 93 1742
120 93 1386
121 93 1034
122 93 1133
123 93 6
124 93 816
125 93 1324
126 93 2406
127 93 2175
129 93 265
130 93 2824
132 93 410
134 93 1445
135 93 1026
136 93 520
137 93 1070
138 93 1956
139 93 1298
140 93 2857
141 93 39
143 93 1402
144 93 826
145 93 1386
146 93 520
147 93 751
149 93 2681
150 93 1075
151 93 2026
152 93 1794
153 93 9
157 93 1365
158 93 897
159 93 1724
160 93 1889
162 93 8
163 93 1612
164 93 126
165 93 38
167 93 87
168 93 118
169 93 2480
170 93 1178
171 93 1069
172 93 2120
173 93 1037
174 93 275
175 93 1332
176 93 867
177 93 1410
178 93 1406
179 93 1952
180 93 825
182 93 2053
183 93 1324
184 93 1570
185 93 507
187 93 817
188 93 831
189 93 1806
190 93 793
191 93 1433
192 93 2299
193 93 955
194 93 846
195 93 549
196 93 2132
197 93 748
198 93 666
199 93 1598
200 93 1881
201 93 514
202 93 309
203 93 545
204 93 2431
205 93 1484
206 93 10
208 93 2130
209 93 5
210 93 1506
212 93 2128
215 93 1732
216 93 580
217 93 1511
219 93 298
221 93 5
223 93 808
224 93 683
228 93 404
229 93 925
230 93 803
231 93 2018
232 93 1964
233 93 4119
234 93 1537
236 93 1041
237 93 912
238 93 1546
240 93 1717
241 93 1166
242 93 857
243 93 707
244 93 839
245 93 1818
247 93 1694
248 93 1793
250 93 2115
252 93 1227
253 93 1783
255 93 1639
256 93 779
257 93 658
258 93 1548
259 93 1014
260 93 1799
261 93 304
262 93 421
264 93 829
267 93 1237
268 93 834
272 93 621
273 93 1469
275 93 878
276 93 1695
278 93 1996
279 93 1627
280 93 87
281 93 1448
282 93 326
283 93 1473
284 93 15
285 93 1603
286 93 305
288 93 1083
289 93 833
290 93 1799
291 93 10
292 93 1880
294 93 1459
295 93 265
296 93 185
297 93 1301
299 93 1469
300 93 585
301 93 594
303 93 16
305 93 908
306 93 1023
307 93 97
309 93 1108
310 93 1388
316 93 798
317 93 651
318 93 478
321 93 5
322 93 1652
324 93 580
325 93 1240
327 93 795
328 93 721
329 93 40
331 93 1149
333 93 1220
334 93 1108
335 93 981
336 93 547
337 93 1266
338 93 1355
339 93 805
340 93 1711
342 93 1944
343 93 765
344 93 907
346 93 864
347 93 829
349 93 1052
350 93 695
351 93 652
352 93 1146
353 93 1863
354 93 1925
355 93 2112
356 93 4
357 93 3341
358 93 8
359 93 1270
361 93 18
362 93 1146
363 93 587
364 93 12
366 93 1552
367 93 773
368 93 1912
369 93 677
370 93 160
371 93 683
372 93 1247
373 93 1221
374 93 1068
375 93 2691
376 93 2489
377 93 754
378 93 2693
379 93 7
380 93 521
381 93 1286
383 93 1919
384 93 417
386 93 1868
387 93 1315
388 93 490
389 93 1467
390 93 1465
391 93 1852
392 93 716
394 93 1650
396 93 403
397 93 1574
398 93 1046
399 93 1795
400 93 1194
402 93 429
403 93 1060
405 93 1838
406 93 1635
407 93 3261
408 93 1842
409 93 652
410 93 1144
411 93 1130
413 93 2818
414 93 4
415 93 5
416 93 1347
417 93 1503
419 93 592
420 93 3
421 93 2458
422 93 4
423 93 728
424 93 1641
425 93 898
428 93 1137
429 93 1200
430 93 1830
433 93 777
434 93 5
435 93 976
436 93 1717
437 93 769
439 93 920
440 93 1216
441 93 1079
442 93 990
443 93 706
444 93 1152
445 93 1067
446 93 1560
447 93 10
448 93 954
449 93 1660
450 93 1278
451 93 866
452 93 1264
453 93 803
454 93 1445
455 93 23
456 93 2412
457 93 844
458 93 1723
459 93 1112
460 93 1327
461 93 953
463 93 1863
465 93 1200
466 93 2100
467 93 1380
468 93 624
469 93 1542
470 93 1746
472 93 4261
473 93 2024
474 93 11
475 93 547
476 93 645
477 93 770
479 93 1054
480 93 1571
481 93 1820
485 93 695
486 93 761
489 93 589
490 93 639
491 93 539
493 93 1476
494 93 1372
495 93 766
497 93 2248
498 93 2116
499 93 1072
500 93 1587
1 94 5
3 94 5973
5 94 14
6 94 4001
7 94 5496
9 94 5043
14 94 10
17 94 3
18 94 1
19 94 6
20 94 3294
21 94 3863
24 94 5
27 94 6967
28 94 5198
30 94 3233
31 94 6372
32 94 6052
36 94 4
37 94 6
38 94 5489
41 94 5
43 94 1773
46 94 5
47 94 4077
49 94 3
50 94 7078
51 94 4998
53 94 19
54 94 3
55 94 3622
56 94 5269
57 94 10
58 94 3
59 94 8060
60 94 2988
61 94 5224
63 94 8
65 94 2621
67 94 4
70 94 18
71 94 4
76 94 6578
77 94 4980
78 94 3790
79 94 4
80 94 2954
81 94 3343
82 94 4909
83 94 4235
85 94 7
86 94 5
87 94 5428
89 94 4894
91 94 2
92 94 54
98 94 8
99 94 4371
100 94 4
102 94 5
104 94 60
106 94 3057
108 94 2894
109 94 87
110 94 3
112 94 4175
114 94 4140
115 94 2
116 94 4486
119 94 6
121 94 11
123 94 3368
125 94 5
128 94 5299
129 94 3400
130 94 1
131 94 3306
132 94 1439
133 94 3489
134 94 9
136 94 9
139 94 2
141 94 5842
142 94 3933
144 94 3
145 94 2
146 94 6
147 94 6
148 94 7351
152 94 2573
153 94 5400
154 94 3259
155 94 6205
156 94 4241
158 94 11
159 94 5
161 94 4718
162 94 2840
163 94 8
164 94 6745
165 94 6634
166 94 3938
167 94 2537
168 94 2716
170 94 6
171 94 4
175 94 6
176 94 3
178 94 3
179 94 49
181 94 4899
182 94 8
183 94 5
184 94 5
185 94 40
186 94 3307
190 94 3
193 94 5252
194 94 158
201 94 4
202 94 6
205 94 3
206 94 2326
207 94 5182
209 94 6317
211 94 3642
212 94 15
213 94 4085
214 94 7031
215 94 9
218 94 3478
219 94 2
220 94 6784
221 94 5507
222 94 8686
223 94 11
225 94 6439
226 94 4842
227 94 7672
228 94 3
231 94 5
235 94 6360
239 94 7145
240 94 7
243 94 6
244 94 7
246 94 6357
247 94 4
248 94 5
249 94 5807
250 94 4
251 94 7663
252 94 3
253 94 9
254 94 6687
257 94 1
258 94 3
263 94 5272
265 94 7172
266 94 4607
268 94 11
269 94 6219
270 94 5631
271 94 3601
273 94 10
274 94 4574
275 94 6
276 94 10
277 94 4043
278 94 3
279 94 3
280 94 3574
281 94 3
283 94 11
284 94 3966
285 94 6
286 94 4911
287 94 3198
289 94 1
290 94 4
291 94 2309
293 94 4978
294 94 5
295 94 3792
296 94 4886
297 94 2
298 94 4374
299 94 2
302 94 4307
303 94 4145
304 94 3926
306 94 4
307 94 2628
308 94 2826
309 94 14
310 94 3
311 94 5201
312 94 4571
313 94 4314
314 94 7042
315 94 4213
318 94 3
319 94 5507
320 94 5629
321 94 3853
322 94 7
323 94 6080
326 94 3168
328 94 3
329 94 5685
330 94 6131
331 94 3
332 94 6067
333 94 9
341 94 4738
344 94 118
345 94 5109
348 94 3850
351 94 3
354 94 4
356 94 3809
357 94 4
358 94 2925
359 94 629
360 94 6750
361 94 5606
363 94 1
364 94 4592
365 94 6700
366 94 3
367 94 2
370 94 4906
371 94 4
372 94 7
373 94 2
377 94 4
378 94 4
379 94 3946
380 94 4
381 94 1
382 94 4765
383 94 4
385 94 4732
386 94 8
388 94 7
389 94 6
391 94 15
392 94 5
393 94 4990
395 94 4712
396 94 3715
400 94 2
401 94 4279
402 94 16
404 94 4527
405 94 7
406 94 5
407 94 4
412 94 12244
413 94 3
414 94 4225
415 94 4207
417 94 11
418 94 7190
419 94 1
420 94 9431
421 94 2
422 94 5520
424 94 5
426 94 4328
427 94 6187
428 94 6
429 94 71
430 94 3
431 94 3505
432 94 5147
433 94 5
434 94 4562
437 94 9134
438 94 6470
440 94 2
442 94 3
443 94 4
444 94 5
446 94 4
447 94 5742
450 94 6
451 94 8
453 94 8879
455 94 3219
456 94 207
457 94 2136
460 94 5
462 94 5077
463 94 54
464 94 7264
465 94 11
466 94 28
470 94 4
471 94 6604
473 94 3
474 94 4030
475 94 4686
476 94 2
478 94 6691
480 94 7
482 94 4048
483 94 5761
484 94 5324
487 94 5367
488 94 5122
489 94 1
492 94 4659
494 94 4
495 94 7798
496 94 5156
499 94 7
500 94 19
1 95 5186
8 95 103
9 95 3350
10 95 7032
13 95 1166
14 95 55
19 95 4328
24 95 4563
28 95 5
35 95 4845
36 95 5419
39 95 7164
41 95 7829
42 95 5294
43 95 477
45 95 15
47 95 2208
53 95 5961
54 95 6425
63 95 6785
64 95 8768
65 95 1911
70 95 1432
71 95 4026
72 95 4371
73 95 8577
74 95 4564
79 95 42
85 95 149
88 95 6843
92 95 4705
98 95 3
101 95 235
104 95 4958
107 95 7165
109 95 3476
118 95 8186
119 95 6613
120 95 494
121 95 1235
122 95 5059
125 95 3745
126 95 6251
127 95 4497
129 95 3408
130 95 5350
132 95 1258
134 95 7729
136 95 5854
138 95 3899
140 95 3833
141 95 5
145 95 6106
149 95 3797
150 95 5013
152 95 790
157 95 4647
159 95 5024
160 95 6165
163 95 7281
164 95 18
167 95 13
168 95 341
169 95 4840
170 95 4610
172 95 5349
175 95 3
177 95 4664
179 95 2522
182 95 5295
184 95 7129
185 95 147
187 95 4557
189 95 5878
192 95 5814
193 95 2714
194 95 35
196 95 4505
199 95 5324
200 95 6643
202 95 8062
204 95 4848
205 95 8731
208 95 7496
212 95 9218
215 95 5600
217 95 6209
219 95 8092
228 95 4373
231 95 6869
233 95 5416
236 95 5351
238 95 6282
240 95 6491
243 95 5020
244 95 576
245 95 7824
247 95 5923
248 95 22
250 95 8139
252 95 5108
253 95 5581
255 95 22
258 95 4060
260 95 7291
265 95 4
267 95 8501
273 95 117
275 95 2801
278 95 7325
279 95 6008
280 95 57
281 95 7875
282 95 6832
283 95 1013
285 95 5890
286 95 3410
288 95 76
289 95 6
290 95 7898
294 95 2618
295 95 60
296 95 743
297 95 6393
299 95 4857
307 95 12
324 95 1
325 95 2
329 95 4
336 95 3
337 95 9159
338 95 524
340 95 6010
342 95 6343
344 95 145
352 95 6498
353 95 6903
355 95 4476
357 95 5868
359 95 786
362 95 5931
366 95 4027
370 95 725
372 95 3916
375 95 3778
376 95 7886
378 95 9914
381 95 6349
383 95 5272
386 95 5725
387 95 4737
389 95 6188
391 95 3899
394 95 5151
396 95 47
399 95 7913
400 95 6521
403 95 4257
405 95 6698
406 95 6785
407 95 7789
408 95 5200
413 95 5246
421 95 8166
429 95 1834
430 95 5813
436 95 1115
437 95 926
440 95 6571
443 95 4624
444 95 139
446 95 14093
450 95 6356
451 95 71
453 95 947
455 95 5
456 95 3519
457 95 3252
458 95 28
460 95 4317
463 95 4196
466 95 3367
467 95 8579
469 95 4595
470 95 5658
472 95 5545
473 95 3287
475 95 3719
480 95 2123
481 95 7121
494 95 5
495 95 9827
497 95 4438
498 95 4020
500 95 3850
1 96 1912
8 96 643
9 96 2074
10 96 3305
13 96 454
14 96 42
19 96 2643
24 96 1642
35 96 2599
36 96 1841
39 96 3645
41 96 4004
42 96 1724
43 96 566
45 96 25
47 96 1251
50 96 2
53 96 2641
54 96 2607
57 96 5
63 96 2025
64 96 1313
65 96 792
70 96 957
71 96 3799
72 96 1617
73 96 3098
74 96 1744
78 96 5
79 96 484
80 96 4
85 96 462
88 96 2497
92 96 1350
101 96 487
104 96 1852
107 96 2312
109 96 2979
118 96 1457
119 96 3710
120 96 71
121 96 872
122 96 3833
125 96 1784
126 96 1795
127 96 1700
129 96 1144
130 96 3008
132 96 478
134 96 2515
136 96 2577
138 96 4539
140 96 3335
141 96 2
145 96 2254
149 96 1959
150 96 4016
152 96 791
157 96 1219
159 96 2857
160 96 2400
163 96 4898
164 96 60
165 96 4
167 96 2
168 96 70
169 96 2624
170 96 1246
172 96 2892
177 96 1246
179 96 2079
182 96 2507
184 96 4456
185 96 199
187 96 1731
189 96 2793
190 96 3
192 96 2847
193 96 1825
194 96 163
196 96 1737
199 96 3388
200 96 3180
202 96 4210
204 96 2610
205 96 5495
208 96 3301
212 96 1994
215 96 2823
217 96 2436
218 96 3
219 96 4252
228 96 2562
231 96 1924
233 96 3769
234 96 8
236 96 2868
238 96 2978
240 96 1935
243 96 2390
244 96 723
245 96 2169
247 96 3473
250 96 2498
252 96 2089
253 96 2758
255 96 20
258 96 5072
260 96 2674
267 96 2838
273 96 101
275 96 2451
278 96 3872
279 96 3579
280 96 35
281 96 5027
282 96 2293
283 96 780
284 96 4
285 96 3489
286 96 2030
288 96 58
289 96 85
290 96 2937
294 96 2397
295 96 97
296 96 1165
297 96 2183
299 96 2980
303 96 4
307 96 6
314 96 5
325 96 42
326 96 2
328 96 4
329 96 4
333 96 2
337 96 3857
338 96 85
340 96 1367
342 96 2615
344 96 105
352 96 1720
353 96 2804
354 96 2
355 96 1662
357 96 2507
359 96 168
362 96 3312
366 96 4944
370 96 1143
372 96 2589
375 96 2012
376 96 3250
378 96 3081
381 96 2280
383 96 2027
386 96 3006
387 96 1401
389 96 2159
391 96 2233
394 96 1758
396 96 17
399 96 2128
400 96 3332
403 96 2649
405 96 1934
406 96 2534
407 96 4978
408 96 3077
413 96 3026
420 96 7
421 96 3261
429 96 1331
430 96 3102
436 96 529
437 96 740
440 96 3289
443 96 2015
444 96 489
446 96 1891
450 96 3310
451 96 379
453 96 683
456 96 2012
457 96 1147
458 96 22
460 96 2904
463 96 894
466 96 1746
467 96 2839
469 96 2704
470 96 2777
472 96 3733
473 96 1926
474 96 8
475 96 2028
480 96 1215
481 96 2796
494 96 23
495 96 2950
497 96 1858
498 96 1844
500 96 2855
1 97 4385
8 97 679
9 97 1764
10 97 2517
13 97 1507
14 97 35
19 97 3502
21 97 5
24 97 3647
30 97 8
35 97 1940
36 97 4346
39 97 2071
41 97 3464
42 97 1529
43 97 939
45 97 167
47 97 1131
50 97 3
53 97 3905
54 97 2117
57 97 54
63 97 3672
64 97 5357
65 97 3645
70 97 1224
71 97 3291
72 97 3262
73 97 4779
74 97 3377
79 97 633
85 97 1150
88 97 3969
92 97 2686
98 97 26
99 97 10
101 97 603
104 97 3657
107 97 4439
109 97 2782
118 97 3772
119 97 2243
120 97 1241
121 97 1316
122 97 3216
123 97 5
125 97 2593
126 97 2860
127 97 3489
128 97 6
129 97 1590
130 97 1775
132 97 1965
134 97 5303
136 97 3562
138 97 3144
140 97 3375
141 97 15
145 97 4013
149 97 2474
150 97 3097
152 97 1724
157 97 1475
159 97 3164
160 97 4425
162 97 2
163 97 3710
164 97 126
165 97 7
167 97 51
168 97 463
169 97 3513
170 97 3238
172 97 3298
175 97 19
177 97 1559
179 97 2321
182 97 3221
184 97 6217
185 97 1509
187 97 3237
189 97 3187
190 97 7
192 97 4343
193 97 2125
194 97 1760
196 97 3399
199 97 3849
200 97 3723
202 97 2668
204 97 2055
205 97 2759
208 97 3719
212 97 1581
215 97 4062
217 97 2368
218 97 5
219 97 2698
228 97 4509
231 97 3037
233 97 4086
234 97 7
236 97 3408
238 97 3466
240 97 2824
243 97 1556
244 97 1132
245 97 3237
247 97 2949
248 97 34
250 97 4433
252 97 2718
253 97 3905
255 97 178
258 97 3571
260 97 3468
267 97 2648
273 97 408
275 97 2621
278 97 1259
279 97 2905
280 97 336
281 97 4050
282 97 3265
283 97 1487
284 97 3
285 97 2828
286 97 1765
288 97 663
289 97 34
290 97 3590
294 97 2615
295 97 299
296 97 1140
297 97 2169
299 97 2151
303 97 2
307 97 49
314 97 4
325 97 108
328 97 7
329 97 14
333 97 19
337 97 2403
338 97 1280
340 97 3900
342 97 3022
344 97 896
352 97 3880
353 97 2592
354 97 55
355 97 3448
357 97 4577
359 97 749
362 97 4438
366 97 3448
370 97 1106
372 97 3196
375 97 2560
376 97 5370
378 97 3375
381 97 2220
383 97 2773
386 97 1269
387 97 2819
389 97 3964
391 97 2380
394 97 3219
396 97 67
399 97 3331
400 97 3382
403 97 2577
405 97 2860
406 97 5288
407 97 3609
408 97 3316
413 97 1798
414 97 12
420 97 11
421 97 5054
429 97 2504
430 97 2035
436 97 1504
437 97 1328
440 97 3402
443 97 2451
444 97 1228
446 97 3495
450 97 3479
451 97 686
453 97 1356
455 97 22
456 97 1762
457 97 2220
458 97 169
460 97 3666
462 97 1
463 97 3034
466 97 2014
467 97 2668
469 97 4620
470 97 3898
472 97 4208
473 97 3265
474 97 5
475 97 2349
480 97 2632
481 97 2762
488 97 3
494 97 68
495 97 2122
497 97 3981
498 97 4536
500 97 2764
1 98 4295
3 98 868
8 98 3283
9 98 5682
10 98 4951
13 98 3169
14 98 2401
19 98 3175
20 98 235
21 98 4
24 98 4750
27 98 11
28 98 1466
30 98 1500
31 98 5
32 98 6
35 98 6762
36 98 4045
38 98 21
39 98 7545
40 98 287
41 98 4859
42 98 5428
43 98 3429
45 98 2156
47 98 3833
50 98 456
51 98 6
53 98 4113
54 98 3642
56 98 20
57 98 1464
59 98 287
61 98 54
63 98 4996
64 98 5089
65 98 3993
70 98 3350
71 98 4744
72 98 3264
73 98 3077
74 98 3224
77 98 1
78 98 773
79 98 3148
80 98 776
81 98 41
82 98 23
83 98 195
85 98 1932
87 98 56
88 98 4404
89 98 13
92 98 5401
98 98 639
99 98 298
101 98 3408
104 98 2979
107 98 4826
109 98 4634
114 98 178
116 98 17
118 98 9443
119 98 5266
120 98 2406
121 98 3856
122 98 5847
123 98 411
124 98 4
125 98 3845
126 98 5483
127 98 3331
128 98 1348
129 98 2135
130 98 5629
131 98 85
132 98 3298
134 98 3445
136 98 4862
138 98 6769
140 98 4769
141 98 2044
142 98 49
145 98 4708
149 98 4256
150 98 6057
152 98 5755
153 98 56
154 98 71
155 98 4
156 98 52
157 98 2583
159 98 4062
160 98 5594
161 98 121
162 98 339
163 98 4091
164 98 2919
165 98 1270
166 98 31
167 98 2950
168 98 2726
169 98 4069
170 98 2892
172 98 4781
175 98 609
177 98 2675
179 98 5025
181 98 60
182 98 3460
184 98 3037
185 98 3498
186 98 104
187 98 5404
189 98 4295
190 98 987
192 98 5907
193 98 2702
194 98 4335
196 98 3252
199 98 5442
200 98 4458
202 98 4184
204 98 6694
205 98 5179
206 98 81
207 98 32
208 98 5362
209 98 115
211 98 4
212 98 5497
213 98 11
214 98 61
215 98 3972
217 98 8202
218 98 977
219 98 4247
220 98 2
221 98 11
222 98 848
225 98 11
226 98 182
227 98 1
228 98 4133
231 98 4128
233 98 7853
234 98 382
235 98 96
236 98 4189
238 98 5652
240 98 6769
243 98 4053
244 98 3686
245 98 4997
247 98 3423
248 98 3128
250 98 3570
251 98 7
252 98 4223
253 98 4159
254 98 33
255 98 2144
258 98 3453
260 98 5993
262 98 6
265 98 63
267 98 5158
269 98 3
273 98 2758
274 98 296
275 98 4668
277 98 1
278 98 7918
279 98 3327
280 98 2717
281 98 8092
282 98 3852
283 98 4239
284 98 718
285 98 3419
286 98 5627
287 98 3
288 98 1820
289 98 1650
290 98 6015
291 98 104
293 98 6
294 98 3568
295 98 2542
296 98 1802
297 98 3770
298 98 4
299 98 5572
302 98 4
303 98 657
304 98 93
307 98 2816
311 98 24
312 98 10
313 98 5
314 98 479
315 98 4
320 98 332
321 98 297
325 98 1887
326 98 220
328 98 950
329 98 2109
330 98 4
332 98 106
333 98 1386
335 98 20
337 98 8808
338 98 2411
340 98 6415
342 98 6395
344 98 2829
345 98 25
348 98 115
352 98 6001
353 98 5577
354 98 1482
355 98 3176
356 98 19
357 98 4550
359 98 4217
360 98 89
362 98 3863
365 98 24
366 98 3460
370 98 1886
372 98 5073
375 98 4147
376 98 6737
378 98 4522
379 98 112
381 98 3838
382 98 6
383 98 6757
385 98 377
386 98 4620
387 98 6029
389 98 4679
391 98 3802
393 98 39
394 98 5887
396 98 3464
399 98 5206
400 98 4965
401 98 6
403 98 6067
404 98 14
405 98 6895
406 98 4811
407 98 5422
408 98 5187
412 98 34
413 98 5593
414 98 299
415 98 4
418 98 56
420 98 2044
421 98 4440
422 98 79
426 98 10
429 98 3560
430 98 5375
432 98 54
436 98 3084
437 98 2381
438 98 30
440 98 4904
443 98 3482
444 98 1848
446 98 3743
450 98 4988
451 98 3125
453 98 2391
455 98 2060
456 98 4642
457 98 5686
458 98 2099
460 98 5035
462 98 1400
463 98 5117
464 98 80
466 98 5089
467 98 5216
469 98 4843
470 98 4040
471 98 48
472 98 7875
473 98 4268
474 98 773
475 98 4835
478 98 20
480 98 3512
481 98 5608
482 98 9
483 98 127
484 98 27
487 98 24
488 98 1385
494 98 1943
495 98 3275
496 98 58
497 98 3560
498 98 3978
500 98 4091
3 99 1129
6 99 542
7 99 284
21 99 178
27 99 1071
30 99 11
31 99 104
32 99 896
50 99 832
55 99 7
60 99 1321
81 99 258
99 99 194
106 99 1279
108 99 135
112 99 812
114 99 65
128 99 1265
131 99 295
133 99 535
142 99 865
148 99 973
154 99 277
155 99 525
161 99 294
166 99 478
181 99 66
207 99 20
209 99 670
211 99 46
214 99 585
218 99 1111
221 99 1024
222 99 1668
225 99 248
226 99 1195
227 99 258
235 99 300
239 99 1893
249 99 1801
251 99 264
254 99 4
263 99 269
265 99 43
266 99 413
269 99 510
270 99 265
271 99 738
274 99 587
287 99 395
293 99 604
304 99 677
308 99 133
311 99 17
312 99 7
314 99 861
315 99 120
319 99 760
320 99 164
323 99 571
330 99 578
332 99 859
341 99 1627
348 99 743
358 99 1303
360 99 1378
361 99 956
364 99 702
365 99 2
393 99 950
395 99 81
401 99 486
404 99 1005
414 99 212
418 99 543
422 99 645
426 99 496
427 99 531
431 99 4
434 99 722
438 99 2
444 99 4
447 99 985
462 99 1320
464 99 277
471 99 1173
478 99 4
482 99 306
483 99 1190
484 99 99
487 99 120
488 99 1394
492 99 385
496 99 542
3 100 282
6 100 968
7 100 1195
21 100 1306
27 100 579
30 100 456
31 100 401
32 100 1148
38 100 9
50 100 1859
51 100 10
55 100 63
60 100 451
76 100 5
77 100 7
78 100 16
81 100 945
99 100 1566
106 100 450
108 100 455
112 100 1244
114 100 781
128 100 1006
131 100 596
133 100 739
142 100 623
148 100 1019
154 100 521
155 100 740
161 100 205
166 100 261
181 100 1385
207 100 495
209 100 1195
211 100 148
214 100 1153
218 100 1395
221 100 176
222 100 1651
225 100 312
226 100 494
227 100 455
235 100 597
239 100 371
246 100 176
249 100 336
251 100 447
254 100 172
263 100 117
265 100 804
266 100 956
269 100 766
270 100 1262
271 100 804
274 100 497
287 100 1082
293 100 544
298 100 89
302 100 89
304 100 158
308 100 432
311 100 542
312 100 349
313 100 110
314 100 1858
315 100 1636
319 100 589
320 100 642
323 100 1317
330 100 238
332 100 929
341 100 147
345 100 10
348 100 186
358 100 815
360 100 838
361 100 606
364 100 1317
365 100 160
385 100 2
393 100 1224
395 100 1656
401 100 772
404 100 666
414 100 1511
415 100 71
418 100 1192
422 100 217
426 100 739
427 100 1305
431 100 78
434 100 1366
438 100 180
447 100 596
462 100 1009
464 100 1040
471 100 876
478 100 156
482 100 617
483 100 661
484 100 679
487 100 740
488 100 988
492 100 1574
496 100 330
3 101 18105
6 101 9322
7 101 5959
21 101 6305
27 101 15186
30 101 68
31 101 5673
32 101 10610
50 101 17637
60 101 8080
81 101 13678
99 101 7581
106 101 8150
108 101 3536
112 101 4740
114 101 3252
128 101 9691
131 101 8622
133 101 7635
142 101 6560
148 101 7317
154 101 8558
155 101 8511
161 101 10709
166 101 6500
181 101 1471
207 101 1324
209 101 10229
211 101 86
214 101 6884
218 101 9430
221 101 7497
222 101 10148
225 101 3191
226 101 6201
227 101 10471
235 101 9434
239 101 7353
246 101 4
249 101 15555
251 101 10453
254 101 45
263 101 7232
265 101 1138
266 101 6076
269 101 8533
270 101 6071
271 101 10978
274 101 7128
287 101 9164
293 101 6763
298 101 6
302 101 2
304 101 7817
308 101 3715
311 101 1378
312 101 75
313 101 5
314 101 17692
315 101 3794
319 101 9667
320 101 9706
323 101 7619
330 101 9092
332 101 14333
341 101 9122
348 101 7954
358 101 16995
360 101 8815
361 101 8071
364 101 13986
365 101 55
393 101 8842
395 101 820
401 101 13135
404 101 8224
414 101 7657
415 101 4
418 101 6724
422 101 7414
426 101 13347
427 101 7697
434 101 13932
438 101 45
447 101 7942
462 101 9627
464 101 7360
471 101 8105
478 101 60
482 101 6560
483 101 7172
484 101 6075
487 101 6069
488 101 9655
492 101 6598
496 101 8914
1 102 3073
3 102 2758
6 102 1689
7 102 2925
10 102 1759
19 102 70
20 102 2002
21 102 2581
24 102 3599
27 102 3246
28 102 903
30 102 2437
31 102 2250
32 102 2632
35 102 1296
36 102 3261
38 102 1638
39 102 2249
41 102 2220
42 102 2092
45 102 1
50 102 2265
51 102 2586
53 102 4458
54 102 1897
55 102 1602
56 102 3013
59 102 2349
60 102 2626
61 102 3956
63 102 3467
64 102 2581
71 102 1485
72 102 2265
73 102 3348
74 102 2339
76 102 2728
77 102 2618
78 102 1878
80 102 16
81 102 2690
82 102 2731
83 102 2718
87 102 290
88 102 2731
89 102 2656
99 102 2359
106 102 2737
107 102 4024
108 102 2907
112 102 4317
114 102 3796
116 102 2611
118 102 4344
119 102 3348
122 102 2897
123 102 12
125 102 9
126 102 2358
127 102 2263
128 102 2932
130 102 6016
131 102 2564
133 102 3346
134 102 4478
136 102 3208
138 102 5700
140 102 2664
141 102 67
142 102 3132
145 102 102
148 102 2960
149 102 2544
150 102 2941
153 102 291
154 102 2640
155 102 2723
156 102 1644
157 102 3802
159 102 1424
160 102 3751
161 102 3539
162 102 92
163 102 4490
165 102 5
166 102 2564
167 102 1
169 102 3959
170 102 487
172 102 3593
177 102 3828
181 102 2186
182 102 1462
184 102 4424
186 102 2450
187 102 2589
189 102 2665
192 102 1536
196 102 2312
197 102 3
199 102 2853
200 102 4161
202 102 2649
204 102 1315
205 102 2921
206 102 866
207 102 2864
208 102 2234
209 102 3780
211 102 2140
212 102 3233
213 102 1031
214 102 2414
215 102 1858
217 102 3134
218 102 3818
219 102 2682
220 102 2870
221 102 1595
222 102 2579
225 102 2969
226 102 1754
227 102 3233
231 102 4163
233 102 5379
235 102 819
236 102 2733
238 102 2263
239 102 2950
240 102 2334
243 102 2695
245 102 2846
246 102 942
247 102 3242
249 102 4116
250 102 2372
251 102 3201
252 102 1957
253 102 1839
254 102 2841
255 102 4
260 102 1797
263 102 3126
265 102 2244
266 102 2481
267 102 2843
269 102 2688
270 102 2876
271 102 2264
274 102 1840
275 102 74
277 102 1649
278 102 5276
279 102 3221
281 102 3792
282 102 1597
284 102 713
285 102 3199
287 102 2300
290 102 3084
291 102 843
293 102 3439
294 102 213
297 102 5
298 102 3386
299 102 1831
302 102 3372
303 102 735
304 102 3239
307 102 3
308 102 2963
311 102 2945
312 102 3012
313 102 3437
314 102 2192
315 102 1634
319 102 2754
320 102 2973
321 102 289
323 102 2247
326 102 1664
329 102 67
330 102 3241
332 102 2619
337 102 4191
340 102 4282
341 102 3554
342 102 1828
345 102 2025
348 102 3190
352 102 3892
353 102 3749
355 102 2335
356 102 1728
357 102 5560
358 102 2946
360 102 2767
361 102 1861
362 102 2093
364 102 4748
365 102 2753
372 102 2397
375 102 2564
376 102 2252
378 102 3668
379 102 274
381 102 3
382 102 2921
385 102 1920
386 102 1263
387 102 31
389 102 100
393 102 2762
394 102 3040
395 102 1319
399 102 2891
400 102 1175
401 102 1904
403 102 3297
404 102 605
405 102 2263
406 102 2762
407 102 2792
408 102 2274
412 102 1930
413 102 5718
414 102 2311
415 102 4936
418 102 2415
420 102 14
421 102 2755
422 102 1557
426 102 1875
427 102 2205
430 102 4139
431 102 1672
432 102 4236
434 102 4729
438 102 2720
440 102 1164
446 102 5382
447 102 1809
450 102 1160
458 102 1
460 102 3344
462 102 2931
464 102 2294
466 102 47
467 102 2884
469 102 3450
470 102 1941
471 102 3761
472 102 5439
474 102 702
478 102 2796
481 102 3773
482 102 3160
483 102 3316
484 102 3070
487 102 3126
488 102 2902
492 102 3113
496 102 4509
497 102 1823
498 102 5875
500 102 20
1 103 55
2 103 19
3 103 6
4 103 59
5 103 29
6 103 133
7 103 32
8 103 49
9 103 6
10 103 54
11 103 41
12 103 168
13 103 39
14 103 56
15 103 1162
16 103 3309
17 103 15
18 103 36
19 103 18
20 103 56
21 103 159
22 103 6
23 103 1980
24 103 87
25 103 34
26 103 1114
27 103 5
28 103 30
29 103 1595
30 103 10
31 103 25
32 103 49
33 103 1390
34 103 39
35 103 12
36 103 67
37 103 11
38 103 36
39 103 82
40 103 17
41 103 247
42 103 95
43 103 21
44 103 14
45 103 49
46 103 40
47 103 19
48 103 64
49 103 880
50 103 55
51 103 56
52 103 54
53 103 53
54 103 21
55 103 231
56 103 7
57 103 109
58 103 383
59 103 17
60 103 32
61 103 33
62 103 58
63 103 7
64 103 78
65 103 5
66 103 36
67 103 1759
68 103 891
69 103 58
70 103 62
71 103 106
72 103 76
73 103 15
74 103 95
75 103 782
76 103 46
77 103 82
78 103 32
79 103 36
80 103 16
81 103 18
82 103 37
83 103 37
84 103 6
85 103 54
86 103 133
87 103 50
88 103 58
89 103 30
90 103 22
91 103 46
92 103 29
93 103 1984
94 103 42
95 103 11
96 103 10
97 103 593
98 103 58
100 103 20
101 103 26
102 103 25
103 103 13
104 103 13
105 103 42
106 103 30
107 103 54
108 103 15
109 103 15
110 103 1429
111 103 35
112 103 31
113 103 30
114 103 12
115 103 623
116 103 31
117 103 1058
118 103 37
119 103 22
120 103 19
121 103 9
122 103 89
123 103 45
124 103 32
125 103 78
126 103 54
127 103 107
128 103 58
129 103 17
130 103 28
131 103 44
132 103 63
133 103 66
134 103 108
135 103 38
136 103 64
137 103 31
138 103 11
139 103 34
140 103 62
141 103 21
142 103 23
143 103 39
144 103 1762
145 103 47
146 103 107
147 103 12
148 103 209
149 103 45
150 103 98
151 103 6
152 103 12
153 103 47
154 103 43
155 103 5
156 103 46
157 103 18
158 103 31
159 103 50
160 103 81
161 103 63
162 103 35
163 103 5
164 103 21
165 103 19
166 103 27
167 103 3
168 103 70
169 103 5
170 103 67
171 103 22
172 103 7
173 103 60
174 103 1108
175 103 45
176 103 881
177 103 24
178 103 7
179 103 75
180 103 1638
181 103 37
182 103 89
183 103 8
184 103 22
185 103 1
186 103 16
187 103 7
188 103 1410
189 103 47
190 103 15
191 103 32
192 103 22
193 103 6
194 103 26
195 103 2871
196 103 79
197 103 1025
198 103 17
199 103 28
200 103 87
201 103 24
202 103 14
203 103 2956
204 103 10
205 103 59
206 103 32
207 103 69
208 103 44
209 103 70
210 103 30
211 103 43
212 103 90
213 103 20
214 103 57
215 103 35
216 103 2974
217 103 75
218 103 48
219 103 18
220 103 16
221 103 27
222 103 26
223 103 65
224 103 589
225 103 25
226 103 45
227 103 97
228 103 65
229 103 55
230 103 17
231 103 83
232 103 58
234 103 48
235 103 14
236 103 47
237 103 3
238 103 71
239 103 7
240 103 5
241 103 57
242 103 59
243 103 24
244 103 26
245 103 39
246 103 75
247 103 58
248 103 7
249 103 29
250 103 75
251 103 93
252 103 8
253 103 48
254 103 14
255 103 59
256 103 36
257 103 3100
258 103 82
259 103 75
260 103 42
261 103 877
262 103 16
263 103 9
264 103 9
265 103 25
266 103 40
267 103 48
268 103 41
269 103 4
270 103 18
271 103 64
272 103 23
273 103 45
274 103 18
275 103 11
276 103 96
277 103 63
278 103 61
279 103 59
280 103 30
281 103 11
282 103 223
283 103 22
284 103 43
285 103 52
286 103 9
287 103 39
288 103 29
289 103 33
290 103 134
291 103 33
292 103 56
293 103 85
294 103 98
295 103 86
296 103 25
298 103 29
299 103 49
300 103 1564
301 103 42
302 103 28
303 103 54
304 103 21
305 103 2
306 103 46
307 103 9
308 103 21
309 103 32
310 103 41
311 103 68
312 103 336
313 103 35
314 103 55
315 103 24
316 103 551
317 103 1040
318 103 23
319 103 32
320 103 18
321 103 20
322 103 75
323 103 94
324 103 31
325 103 3
326 103 13
327 103 1608
328 103 10
329 103 17
330 103 71
331 103 24
332 103 21
333 103 4
334 103 39
335 103 48
336 103 30
337 103 26
338 103 11
339 103 1246
340 103 1454
341 103 17
342 103 215
343 103 17
344 103 36
345 103 27
346 103 2903
347 103 40
348 103 19
349 103 18
350 103 20
351 103 1489
352 103 138
353 103 25
354 103 99
355 103 108
357 103 123
358 103 18
359 103 47
360 103 62
361 103 24
362 103 133
363 103 1625
364 103 47
365 103 7
366 103 83
367 103 991
368 103 5
369 103 3004
370 103 28
371 103 410
372 103 70
373 103 6
374 103 1446
375 103 49
376 103 87
377 103 1664
378 103 31
379 103 96
380 103 102
382 103 11
383 103 25
384 103 1722
385 103 52
386 103 30
387 103 27
388 103 26
389 103 62
390 103 22
391 103 106
392 103 16
393 103 57
394 103 47
395 103 36
396 103 32
397 103 74
398 103 1504
399 103 55
400 103 33
401 103 84
402 103 57
403 103 19
404 103 19
405 103 2
406 103 8
407 103 19
408 103 30
409 103 31
410 103 13
411 103 21
412 103 6
413 103 28
415 103 24
416 103 5
417 103 41
418 103 37
419 103 1682
420 103 22
421 103 37
422 103 12
423 103 1135
424 103 17
425 103 2974
426 103 91
427 103 93
428 103 55
429 103 5
430 103 35
431 103 219
432 103 26
433 103 19
434 103 50
435 103 60
436 103 48
437 103 175
438 103 10
439 103 1912
440 103 38
441 103 14
442 103 21
443 103 71
444 103 46
445 103 11
446 103 6
447 103 26
448 103 26
449 103 14
450 103 29
451 103 28
452 103 33
453 103 196
454 103 50
455 103 110
456 103 51
457 103 46
458 103 54
459 103 28
460 103 32
461 103 23
462 103 74
463 103 25
464 103 79
465 103 9
466 103 2
467 103 52
468 103 58
469 103 6
470 103 55
471 103 175
473 103 14
474 103 49
475 103 8
476 103 419
477 103 15
478 103 6
479 103 42
480 103 9
481 103 28
482 103 75
483 103 22
484 103 15
485 103 2155
486 103 59
487 103 19
488 103 51
489 103 1119
490 103 36
491 103 1628
492 103 9
493 103 174
494 103 18
495 103 11
496 103 86
497 103 59
498 103 40
499 103 408
500 103 83
1 104 1129
2 104 679
3 104 382
4 104 109
5 104 933
6 104 798
7 104 850
8 104 412
9 104 374
10 104 495
11 104 356
12 104 167
13 104 526
14 104 1774
17 104 44
18 104 93
19 104 247
20 104 825
21 104 1118
22 104 908
24 104 256
25 104 798
27 104 1126
28 104 1094
30 104 1179
31 104 729
32 104 421
34 104 80
35 104 914
36 104 1119
37 104 415
38 104 894
39 104 342
40 104 941
41 104 641
42 104 622
43 104 416
44 104 324
45 104 561
46 104 1852
47 104 938
48 104 1144
50 104 231
51 104 137
52 104 655
53 104 574
54 104 1333
55 104 525
56 104 1043
57 104 388
58 104 30
59 104 330
60 104 1556
61 104 948
62 104 977
63 104 524
64 104 1723
65 104 879
66 104 356
69 104 317
70 104 1490
71 104 650
72 104 733
73 104 113
74 104 721
76 104 241
77 104 117
78 104 548
79 104 1486
80 104 501
81 104 1083
82 104 767
83 104 815
84 104 734
85 104 1055
86 104 364
87 104 715
88 104 215
89 104 731
90 104 930
91 104 27
92 104 743
94 104 120
95 104 567
96 104 965
98 104 133
99 104 496
100 104 1126
101 104 941
102 104 1156
103 104 746
104 104 1638
105 104 72
106 104 1496
107 104 774
108 104 891
109 104 1361
111 104 878
112 104 819
113 104 1553
114 104 298
116 104 209
118 104 1273
119 104 742
120 104 974
121 104 801
122 104 1992
123 104 168
124 104 710
125 104 868
126 104 625
127 104 733
128 104 144
129 104 1787
130 104 1698
131 104 392
132 104 1211
133 104 440
134 104 494
135 104 274
136 104 848
137 104 814
138 104 1612
139 104 932
140 104 528
141 104 280
142 104 392
143 104 521
145 104 363
146 104 107
147 104 797
148 104 198
149 104 1057
150 104 2169
151 104 1898
152 104 748
153 104 669
154 104 398
155 104 187
156 104 620
157 104 804
158 104 818
159 104 652
160 104 1618
161 104 360
162 104 756
163 104 936
164 104 232
165 104 955
166 104 165
167 104 955
168 104 749
169 104 1227
170 104 394
171 104 1266
172 104 720
173 104 1055
175 104 159
177 104 825
178 104 1154
179 104 1036
181 104 765
182 104 634
183 104 765
184 104 711
185 104 480
186 104 1445
187 104 1553
188 104 6
189 104 393
190 104 299
191 104 619
192 104 725
193 104 602
194 104 518
196 104 715
198 104 8
199 104 854
200 104 717
201 104 570
202 104 946
204 104 936
205 104 297
206 104 1186
207 104 276
208 104 590
209 104 593
210 104 607
211 104 1701
212 104 597
213 104 719
214 104 565
215 104 806
217 104 507
218 104 1004
219 104 969
220 104 534
221 104 1788
222 104 947
223 104 175
225 104 823
226 104 1069
227 104 371
228 104 1632
229 104 44
230 104 1067
231 104 443
232 104 1212
233 104 335
234 104 1310
235 104 661
236 104 320
237 104 413
238 104 1030
239 104 1988
240 104 542
241 104 72
242 104 807
243 104 1072
244 104 787
245 104 1983
246 104 638
247 104 360
248 104 741
249 104 1045
250 104 179
251 104 376
252 104 175
253 104 803
254 104 712
255 104 541
256 104 117
258 104 968
259 104 1062
260 104 879
262 104 1054
263 104 1165
264 104 490
265 104 1243
266 104 778
267 104 1804
268 104 563
269 104 230
270 104 817
271 104 899
272 104 925
273 104 893
274 104 286
275 104 740
276 104 199
277 104 678
278 104 237
279 104 373
280 104 269
281 104 2394
282 104 1886
283 104 1299
284 104 353
285 104 352
286 104 379
287 104 1089
288 104 763
289 104 1022
290 104 902
291 104 1243
292 104 1176
293 104 721
294 104 261
295 104 1386
296 104 335
297 104 1065
298 104 867
299 104 2022
301 104 981
302 104 796
303 104 373
304 104 884
305 104 280
306 104 71
307 104 949
308 104 806
309 104 174
310 104 213
311 104 245
312 104 397
313 104 833
314 104 214
315 104 754
316 104 6
318 104 409
319 104 1311
320 104 92
321 104 167
322 104 732
323 104 297
324 104 169
325 104 865
326 104 1037
328 104 275
329 104 260
330 104 479
331 104 323
332 104 1628
333 104 564
334 104 954
335 104 228
336 104 156
337 104 344
338 104 903
340 104 412
341 104 315
342 104 1733
343 104 377
344 104 896
345 104 1447
347 104 80
348 104 897
349 104 755
350 104 110
352 104 1805
353 104 315
354 104 352
355 104 754
356 104 327
357 104 1489
358 104 1087
359 104 1406
360 104 1717
361 104 395
362 104 383
364 104 1264
365 104 703
366 104 991
368 104 1510
370 104 346
371 104 30
372 104 557
373 104 813
375 104 1091
376 104 399
378 104 405
379 104 337
380 104 153
381 104 1025
382 104 354
383 104 815
385 104 194
386 104 258
387 104 93
388 104 277
389 104 349
390 104 1588
391 104 397
392 104 491
393 104 2101
394 104 615
395 104 1038
396 104 203
397 104 371
399 104 1885
400 104 656
401 104 1035
402 104 717
403 104 440
404 104 357
405 104 566
406 104 1134
407 104 567
408 104 921
409 104 268
410 104 497
411 104 167
412 104 927
413 104 1651
414 104 502
415 104 1822
416 104 330
417 104 851
418 104 573
420 104 623
421 104 1473
422 104 1095
424 104 408
426 104 1149
427 104 263
428 104 375
429 104 551
430 104 273
431 104 557
432 104 322
433 104 676
434 104 1255
435 104 758
436 104 540
437 104 724
438 104 721
440 104 640
441 104 149
442 104 78
443 104 1732
444 104 1104
445 104 876
446 104 216
447 104 363
448 104 509
449 104 279
450 104 595
451 104 1324
452 104 483
453 104 689
454 104 533
455 104 614
456 104 1616
457 104 1398
458 104 573
459 104 653
460 104 999
461 104 690
462 104 151
463 104 422
464 104 803
465 104 151
466 104 834
467 104 1834
468 104 872
469 104 544
470 104 742
471 104 497
472 104 319
473 104 227
474 104 339
475 104 570
477 104 1064
478 104 704
479 104 558
480 104 150
481 104 317
482 104 1139
483 104 626
484 104 250
486 104 300
487 104 263
488 104 129
490 104 997
492 104 1112
493 104 445
494 104 199
495 104 1688
496 104 1288
497 104 223
498 104 757
499 104 791
500 104 439
2 105 2833
3 105 2678
4 105 2289
5 105 1589
6 105 2964
7 105 2373
8 105 1955
9 105 1187
11 105 1999
12 105 2443
13 105 3267
14 105 2322
15 105 1328
16 105 1536
17 105 874
18 105 2491
20 105 3111
21 105 1956
22 105 1724
23 105 815
25 105 3075
26 105 2032
27 105 2835
28 105 2014
29 105 983
30 105 3492
31 105 3173
32 105 3691
33 105 1366
34 105 4120
37 105 1799
38 105 3608
40 105 2133
41 105 8
43 105 2411
44 105 2205
45 105 2419
46 105 2324
47 105 707
48 105 1424
49 105 1102
50 105 2657
51 105 3869
52 105 2170
55 105 3059
56 105 3307
57 105 2167
58 105 1658
59 105 3023
60 105 2863
61 105 2164
62 105 2324
65 105 297
66 105 1170
67 105 1839
68 105 1133
69 105 2343
70 105 2168
75 105 1336
76 105 3225
77 105 3829
78 105 3206
79 105 2370
80 105 1610
81 105 3136
82 105 2630
83 105 2841
84 105 1280
85 105 2992
86 105 2331
87 105 1815
89 105 2784
90 105 1868
91 105 2065
92 105 60
93 105 1487
94 105 2209
95 105 2653
96 105 2786
97 105 1198
98 105 2219
99 105 3940
100 105 1655
101 105 4001
102 105 2011
103 105 2308
104 105 5
105 105 2057
106 105 2827
108 105 2161
109 105 30
110 105 1289
111 105 3134
112 105 2698
113 105 3146
114 105 3585
115 105 1938
116 105 2887
117 105 1913
120 105 3329
121 105 4456
123 105 2659
124 105 2696
128 105 2695
129 105 3473
131 105 3120
132 105 3683
133 105 5846
135 105 2223
137 105 3019
139 105 3094
141 105 2289
142 105 1787
143 105 3774
144 105 1147
146 105 1238
147 105 1713
148 105 3120
151 105 2975
152 105 2348
153 105 1914
154 105 3134
155 105 3079
156 105 2248
158 105 3645
161 105 3583
162 105 2645
164 105 3406
165 105 2923
166 105 1891
167 105 3653
168 105 3032
171 105 2854
173 105 1495
174 105 1005
175 105 2165
176 105 1159
178 105 1015
179 105 400
180 105 1061
181 105 2596
183 105 1563
185 105 3097
186 105 3480
188 105 1229
190 105 1395
191 105 2672
193 105 2033
194 105 1917
195 105 2495
197 105 1514
198 105 1961
201 105 967
203 105 1530
206 105 3253
207 105 3647
209 105 3782
210 105 2578
211 105 3265
213 105 1665
214 105 2164
216 105 2438
218 105 2591
220 105 2749
221 105 2153
222 105 4097
223 105 2114
224 105 1173
225 105 1176
226 105 4035
227 105 2713
228 105 16
229 105 915
230 105 3977
232 105 2320
234 105 3890
235 105 3391
237 105 3362
239 105 3248
241 105 4175
242 105 2261
244 105 2603
246 105 3132
248 105 1697
249 105 4839
251 105 2753
254 105 2312
255 105 2453
256 105 2286
257 105 1544
259 105 1575
261 105 1935
262 105 3111
263 105 2733
264 105 1769
265 105 3194
266 105 3608
268 105 2429
269 105 2978
270 105 2274
271 105 2359
272 105 2403
273 105 3549
274 105 3193
276 105 1610
277 105 2450
280 105 2603
283 105 4195
284 105 1099
286 105 1155
287 105 2732
288 105 2656
289 105 2102
291 105 3214
292 105 2243
293 105 4725
295 105 2808
296 105 2993
297 105 7
298 105 4481
300 105 1356
301 105 2821
302 105 4616
303 105 1107
304 105 3253
305 105 1879
306 105 2485
307 105 3569
308 105 2194
309 105 1850
310 105 2643
311 105 3667
312 105 3551
313 105 4502
314 105 2720
315 105 2738
316 105 1206
317 105 1927
318 105 1597
319 105 1502
320 105 2374
321 105 1260
322 105 3321
323 105 2708
324 105 3447
325 105 3433
326 105 3123
327 105 1003
328 105 1511
329 105 2180
330 105 2586
331 105 1626
332 105 3246
333 105 3139
334 105 2562
335 105 2865
336 105 3514
338 105 3302
339 105 949
341 105 2404
343 105 2141
344 105 2137
345 105 3069
346 105 1666
347 105 2033
348 105 3312
349 105 2345
350 105 1853
351 105 878
354 105 2170
356 105 3495
358 105 1896
359 105 2697
360 105 4399
361 105 1880
363 105 1554
364 105 2502
365 105 2345
367 105 807
368 105 2648
369 105 2134
370 105 2990
371 105 1636
373 105 2674
374 105 2009
377 105 871
379 105 678
380 105 1352
381 105 14
382 105 1292
383 105 16
384 105 603
385 105 3195
388 105 954
390 105 3102
391 105 2325
392 105 1606
393 105 4670
395 105 3913
396 105 3561
397 105 2489
398 105 2039
400 105 10
401 105 4346
402 105 2880
404 105 2977
409 105 2020
410 105 1485
411 105 1622
412 105 1886
414 105 3989
415 105 2526
416 105 1984
417 105 2283
418 105 2118
419 105 2188
420 105 2025
422 105 2737
423 105 937
424 105 2111
425 105 1684
426 105 4288
427 105 2785
428 105 1460
429 105 2232
431 105 3119
432 105 2541
433 105 2024
434 105 2585
435 105 2440
436 105 3452
437 105 2109
438 105 2281
439 105 1103
440 105 4
441 105 1705
442 105 2191
443 105 98
444 105 2859
445 105 2377
447 105 1931
448 105 2931
449 105 1741
450 105 12
451 105 3484
452 105 2015
453 105 2138
454 105 3860
455 105 1738
456 105 1048
457 105 2495
458 105 2474
459 105 1348
461 105 1698
462 105 2613
463 105 5
464 105 2808
465 105 3273
466 105 141
468 105 1946
471 105 3916
474 105 1088
475 105 2255
476 105 1158
477 105 1988
478 105 2379
479 105 2279
480 105 2961
482 105 3727
483 105 3147
484 105 3317
485 105 1225
486 105 1380
487 105 3181
488 105 2640
489 105 1390
490 105 2006
491 105 1058
492 105 4313
493 105 1534
494 105 1770
495 105 114
496 105 4460
499 105 1840
500 105 104
1 106 2735
2 106 3382
3 106 3069
4 106 1153
5 106 2436
6 106 4198
7 106 1942
8 106 3432
9 106 4704
10 106 3929
11 106 1966
12 106 2699
13 106 2641
14 106 3168
15 106 2197
16 106 764
17 106 2034
18 106 2205
19 106 2405
20 106 3361
21 106 3956
22 106 1671
23 106 766
24 106 3152
25 106 1391
26 106 2141
27 106 3458
28 106 5406
29 106 1745
30 106 2775
31 106 3306
32 106 3914
33 106 1762
34 106 1214
35 106 3668
36 106 2886
37 106 2361
38 106 3820
39 106 3589
40 106 1271
41 106 5162
42 106 2794
43 106 3184
44 106 3262
45 106 3600
46 106 2066
47 106 2070
48 106 2875
49 106 1347
50 106 3221
51 106 2343
52 106 3925
53 106 5192
54 106 2252
55 106 3000
56 106 2803
57 106 2470
58 106 1634
59 106 1476
60 106 3631
61 106 2019
62 106 1923
63 106 5261
64 106 3821
65 106 3003
66 106 2587
67 106 1322
68 106 1685
69 106 4689
70 106 2512
71 106 2442
72 106 3428
73 106 2000
74 106 3614
75 106 1188
76 106 2486
77 106 2323
78 106 4079
79 106 2142
80 106 4379
81 106 3917
82 106 1724
83 106 3741
84 106 2533
85 106 2663
86 106 3034
87 106 3189
88 106 5308
89 106 1718
90 106 2180
91 106 2101
92 106 2293
93 106 1586
94 106 2039
95 106 1787
96 106 2646
97 106 1707
98 106 2545
99 106 4099
100 106 2615
101 106 3309
102 106 3135
103 106 1600
104 106 2228
105 106 1989
106 106 3539
107 106 2705
108 106 3176
109 106 2132
110 106 2444
111 106 1357
112 106 2922
113 106 2443
114 106 3645
115 106 1383
116 106 1877
117 106 1258
118 106 3250
119 106 4376
120 106 1902
121 106 1857
122 106 2659
123 106 1293
124 106 2018
125 106 3784
126 106 4711
127 106 3494
128 106 3477
129 106 3361
130 106 5061
131 106 2714
132 106 4171
133 106 2575
134 106 2000
135 106 2382
136 106 4743
137 106 1386
138 106 4264
139 106 2676
140 106 4023
141 106 2547
142 106 3477
143 106 1766
144 106 1207
145 106 3345
146 106 1081
147 106 1476
148 106 3739
149 106 3154
150 106 2732
151 106 2994
152 106 4550
153 106 3244
154 106 2634
155 106 2616
156 106 2235
157 106 2658
158 106 2242
159 106 4614
160 106 4815
161 106 2856
162 106 2831
163 106 4318
164 106 2148
165 106 2869
166 106 4635
167 106 1789
168 106 2393
169 106 4614
170 106 3864
171 106 2646
172 106 4496
173 106 1504
174 106 856
175 106 2688
176 106 2731
177 106 2628
178 106 3391
179 106 3363
180 106 1777
181 106 2773
182 106 3319
183 106 2165
184 106 4165
185 106 3019
186 106 3696
187 106 2873
188 106 1764
189 106 3919
190 106 2528
191 106 2177
192 106 2904
193 106 1590
194 106 1798
195 106 1491
196 106 3413
197 106 1649
198 106 1264
199 106 3807
200 106 3877
201 106 2290
202 106 5036
203 106 1608
204 106 3564
205 106 3932
206 106 2447
207 106 2501
208 106 4222
209 106 4876
210 106 2271
211 106 5367
212 106 4351
213 106 3580
214 106 2249
215 106 3366
216 106 1439
217 106 4335
218 106 4323
219 106 5219
220 106 3093
221 106 3312
222 106 2421
223 106 2231
224 106 1741
225 106 2765
226 106 2132
227 106 4469
228 106 5305
229 106 1628
230 106 1979
231 106 2913
232 106 2363
233 106 3488
234 106 4120
235 106 2838
236 106 3536
237 106 1786
238 106 4423
239 106 2244
240 106 1843
241 106 1200
242 106 2453
243 106 2365
244 106 2870
245 106 3831
246 106 2252
247 106 2757
248 106 2496
249 106 5033
250 106 2599
251 106 4585
252 106 2296
253 106 3244
254 106 2469
255 106 3437
256 106 2158
257 106 2165
258 106 3011
259 106 1403
260 106 2857
261 106 1226
262 106 2170
263 106 1853
264 106 1757
265 106 3032
266 106 2831
267 106 3302
268 106 3138
269 106 2779
270 106 1970
271 106 4672
272 106 2194
273 106 2229
274 106 2616
275 106 2525
276 106 2772
277 106 2209
278 106 4666
279 106 2777
280 106 2171
281 106 4541
282 106 2163
283 106 3980
284 106 2023
285 106 2767
286 106 4828
287 106 2812
288 106 2456
289 106 2225
290 106 3370
291 106 2440
292 106 2308
293 106 2077
294 106 1644
295 106 3495
296 106 3276
297 106 1862
298 106 4097
299 106 3587
300 106 1542
301 106 2872
302 106 4017
303 106 1994
304 106 3167
305 106 2116
306 106 2334
307 106 1772
308 106 3207
309 106 1843
310 106 2326
311 106 2438
312 106 1500
313 106 4122
314 106 3154
315 106 3414
316 106 2174
317 106 1318
318 106 1914
319 106 3783
320 106 1854
321 106 2255
322 106 2976
323 106 2187
324 106 1388
325 106 2803
326 106 2857
327 106 1908
328 106 2597
329 106 2455
330 106 5502
331 106 1996
332 106 4306
333 106 3427
334 106 3209
335 106 1481
336 106 1389
337 106 3893
338 106 1876
339 106 2655
340 106 2357
341 106 2137
342 106 4241
343 106 2673
344 106 2139
345 106 2267
346 106 1272
347 106 1956
348 106 3140
349 106 1542
350 106 1837
351 106 1068
352 106 1653
353 106 3696
354 106 2516
355 106 3563
356 106 3292
357 106 4177
358 106 2630
359 106 2145
360 106 2248
361 106 2462
362 106 1400
363 106 2523
364 106 2348
365 106 2435
366 106 3102
367 106 1322
368 106 2416
369 106 1401
370 106 3247
371 106 1650
372 106 2964
373 106 1493
374 106 2544
375 106 3046
376 106 3081
377 106 1519
378 106 8148
379 106 2095
380 106 1010
381 106 1732
382 106 3717
383 106 3002
384 106 1456
385 106 3106
386 106 2344
387 106 2727
388 106 1482
389 106 3361
390 106 2486
391 106 2988
392 106 2352
393 106 3566
394 106 3096
395 106 1809
396 106 2804
397 106 2204
398 106 2414
399 106 3793
400 106 3315
401 106 2747
402 106 1625
403 106 4603
404 106 4706
405 106 1877
406 106 4216
407 106 3105
408 106 3245
409 106 1735
410 106 1764
411 106 1796
412 106 3826
413 106 5176
414 106 4157
415 106 4237
416 106 2950
417 106 2071
418 106 2311
419 106 1476
420 106 2933
421 106 4015
422 106 3337
423 106 1572
424 106 2303
425 106 1236
426 106 2654
427 106 2246
428 106 1754
429 106 3968
430 106 2815
431 106 3120
432 106 2622
433 106 2173
434 106 2295
435 106 2412
436 106 2569
437 106 2627
438 106 2500
439 106 2766
440 106 3235
441 106 1670
442 106 1374
443 106 2309
444 106 2690
445 106 2561
446 106 4563
447 106 2505
448 106 2130
449 106 2178
450 106 3315
451 106 2885
452 106 1413
453 106 2703
454 106 1857
455 106 1998
456 106 2092
457 106 2368
458 106 3571
459 106 1833
460 106 4660
461 106 1587
462 106 3467
463 106 2759
464 106 4589
465 106 1321
466 106 2392
467 106 3435
468 106 1261
469 106 4466
470 106 3292
471 106 4139
472 106 3534
473 106 3644
474 106 2027
475 106 2883
476 106 1663
477 106 1871
478 106 2441
479 106 1969
480 106 2556
481 106 3642
482 106 3989
483 106 2643
484 106 2407
485 106 1930
486 106 1724
487 106 2550
488 106 3469
489 106 2044
490 106 1550
491 106 1273
492 106 2947
493 106 2246
494 106 1470
495 106 3072
496 106 3773
497 106 3281
498 106 3435
499 106 2112
500 106 2815
1 107 4359
2 107 2039
3 107 1787
4 107 1762
5 107 1802
6 107 2530
7 107 1372
8 107 3207
9 107 3127
10 107 2024
11 107 2168
12 107 1526
13 107 2411
14 107 1374
15 107 1175
16 107 672
17 107 1079
18 107 1753
19 107 2299
20 107 2648
21 107 2998
22 107 1459
23 107 1028
24 107 2239
25 107 2015
26 107 2151
27 107 2458
28 107 1617
29 107 2028
30 107 1791
31 107 1461
32 107 3212
33 107 874
34 107 1753
35 107 2425
36 107 4433
37 107 1085
38 107 2804
39 107 4005
40 107 2044
41 107 2391
42 107 4221
43 107 2108
44 107 1741
45 107 2376
46 107 1521
47 107 1882
48 107 1910
49 107 1066
50 107 2704
51 107 1892
52 107 1748
53 107 2350
54 107 2774
55 107 1584
56 107 2007
57 107 1446
58 107 1688
59 107 3267
60 107 2645
61 107 2200
62 107 1710
63 107 1703
64 107 2655
65 107 2870
66 107 1872
67 107 1084
68 107 856
69 107 2150
70 107 2839
71 107 2870
72 107 2383
73 107 2069
74 107 2418
75 107 848
76 107 1501
77 107 1860
78 107 2155
79 107 2724
80 107 2334
81 107 2779
82 107 2493
83 107 2278
84 107 1640
85 107 1993
86 107 1823
87 107 2425
88 107 1975
89 107 2516
90 107 1779
91 107 1251
92 107 2218
93 107 1770
94 107 3130
95 107 1531
96 107 1289
97 107 1556
98 107 1807
99 107 2368
100 107 1470
101 107 4132
102 107 1777
103 107 1389
104 107 2130
105 107 672
106 107 2624
107 107 2218
108 107 2083
109 107 1599
110 107 646
111 107 1991
112 107 2840
113 107 2433
114 107 2128
115 107 1274
116 107 2611
117 107 1427
118 107 3858
119 107 4065
120 107 2309
121 107 1521
122 107 2749
123 107 2041
124 107 2941
125 107 4163
126 107 3272
127 107 2446
128 107 2924
129 107 2075
130 107 3795
131 107 1344
132 107 2308
133 107 1301
134 107 2488
135 107 2103
136 107 2614
137 107 1999
138 107 3713
139 107 1120
140 107 2240
141 107 1216
142 107 3606
143 107 2583
144 107 864
145 107 1178
146 107 1068
147 107 1291
148 107 2668
149 107 3225
150 107 2730
151 107 3869
152 107 1992
153 107 2382
154 107 1352
155 107 4838
156 107 1213
157 107 2042
158 107 2582
159 107 1872
160 107 3823
161 107 1659
162 107 3349
163 107 3189
164 107 1596
165 107 1846
166 107 2804
167 107 2190
168 107 2071
169 107 2192
170 107 1647
171 107 2045
172 107 2028
173 107 2224
174 107 834
175 107 1731
176 107 1078
177 107 2096
178 107 3077
179 107 1554
180 107 1963
181 107 3009
182 107 2694
183 107 2685
184 107 3055
185 107 1763
186 107 2586
187 107 3215
188 107 1330
189 107 2926
190 107 1740
191 107 2505
192 107 2263
193 107 2566
194 107 1795
195 107 1122
196 107 2409
197 107 2450
198 107 1103
199 107 2572
200 107 3602
201 107 1238
202 107 2766
203 107 1417
204 107 2555
205 107 2060
206 107 2439
207 107 2650
208 107 4179
209 107 1141
210 107 2533
211 107 3285
212 107 4762
213 107 2519
214 107 3622
215 107 2783
216 107 1062
217 107 4671
218 107 5396
219 107 2799
220 107 2141
221 107 1968
222 107 3560
223 107 1262
224 107 1472
225 107 1861
226 107 3394
227 107 3484
228 107 2091
229 107 1272
230 107 1558
231 107 2547
232 107 2079
233 107 3437
234 107 2377
235 107 2292
236 107 2098
237 107 1693
238 107 1500
239 107 1877
240 107 2329
241 107 1803
242 107 2253
243 107 3253
244 107 2804
245 107 2777
246 107 5803
247 107 2500
248 107 1651
249 107 1474
250 107 3149
251 107 3473
252 107 1898
253 107 2676
254 107 3280
255 107 2445
256 107 3231
257 107 1434
258 107 2509
259 107 2195
260 107 4753
261 107 1253
262 107 2220
263 107 4068
264 107 2707
265 107 3203
266 107 2175
267 107 3500
268 107 2389
269 107 4982
270 107 1475
271 107 4154
272 107 1529
273 107 2277
274 107 1540
275 107 2882
276 107 2056
277 107 3601
278 107 3551
279 107 2448
280 107 1863
281 107 3021
282 107 2471
283 107 3458
284 107 2423
285 107 2440
286 107 3143
287 107 2391
288 107 2375
289 107 2357
290 107 2142
291 107 2509
292 107 2102
293 107 1392
294 107 1581
295 107 1616
296 107 2094
297 107 2196
298 107 2382
299 107 3680
300 107 1044
301 107 2209
302 107 2353
303 107 2356
304 107 3526
305 107 1324
306 107 1800
307 107 2165
308 107 2062
309 107 954
310 107 1730
311 107 2730
312 107 2160
313 107 2414
314 107 2720
315 107 1883
316 107 1372
317 107 1474
318 107 1611
319 107 3268
320 107 2574
321 107 1918
322 107 2980
323 107 1731
324 107 1297
325 107 2037
326 107 1930
327 107 1975
328 107 1803
329 107 1286
330 107 2636
331 107 2806
332 107 3922
333 107 2548
334 107 1642
335 107 1214
336 107 1243
337 107 3902
338 107 2232
339 107 1135
340 107 4153
341 107 3936
342 107 3407
343 107 1544
344 107 2842
345 107 1508
346 107 1010
347 107 649
348 107 3667
349 107 1425
350 107 1341
351 107 1240
352 107 3870
353 107 3209
354 107 1425
355 107 2408
356 107 1412
357 107 4147
358 107 4800
359 107 2812
360 107 683
361 107 2699
362 107 2719
363 107 1372
364 107 1698
365 107 3301
366 107 2441
367 107 419
368 107 1832
369 107 2078
370 107 2010
371 107 1689
372 107 1729
373 107 1557
374 107 1674
375 107 3091
376 107 3221
377 107 1944
378 107 3676
379 107 1821
380 107 1084
381 107 2163
382 107 2538
383 107 3510
384 107 1044
385 107 1977
386 107 1113
387 107 2347
388 107 1328
389 107 1209
390 107 2486
391 107 3150
392 107 981
393 107 3392
394 107 2508
395 107 3002
396 107 1040
397 107 1526
398 107 1734
399 107 2783
400 107 1923
401 107 3856
402 107 1141
403 107 2403
404 107 2899
405 107 2258
406 107 3561
407 107 3495
408 107 3274
409 107 1973
410 107 1724
411 107 1080
412 107 2777
413 107 3801
414 107 2316
415 107 2551
416 107 1347
417 107 1498
418 107 3673
419 107 1278
420 107 1775
421 107 4102
422 107 1846
423 107 1424
424 107 2595
425 107 1013
426 107 3819
427 107 1752
428 107 1565
429 107 923
430 107 3634
431 107 1604
432 107 1376
433 107 2297
434 107 1664
435 107 2476
436 107 2478
437 107 2622
438 107 3259
439 107 943
440 107 1964
441 107 1058
442 107 1170
443 107 2420
444 107 2009
445 107 1851
446 107 2823
447 107 2668
448 107 2660
449 107 2249
450 107 1992
451 107 2039
452 107 1362
453 107 2672
454 107 2526
455 107 1249
456 107 2182
457 107 2187
458 107 2502
459 107 2896
460 107 2106
461 107 1969
462 107 2978
463 107 3725
464 107 1415
465 107 1307
466 107 1473
467 107 3416
468 107 2324
469 107 3076
470 107 2761
471 107 3162
472 107 3447
473 107 2801
474 107 2355
475 107 2313
476 107 1306
477 107 1566
478 107 3197
479 107 2020
480 107 3290
481 107 3268
482 107 3303
483 107 2210
484 107 990
485 107 1253
486 107 1622
487 107 899
488 107 3029
489 107 1133
490 107 2189
491 107 1100
492 107 2691
493 107 1676
494 107 1988
495 107 2106
496 107 2961
497 107 3489
498 107 3055
499 107 1180
500 107 1984
1 108 2367
2 108 1083
3 108 1372
4 108 867
5 108 696
6 108 446
7 108 896
8 108 632
9 108 701
10 108 1099
11 108 653
12 108 1892
13 108 991
14 108 1444
15 108 583
16 108 425
17 108 107
18 108 765
19 108 593
20 108 1012
21 108 1662
22 108 1113
23 108 384
24 108 2147
25 108 1399
26 108 673
27 108 989
28 108 930
29 108 928
30 108 282
31 108 641
32 108 914
33 108 632
34 108 698
35 108 1773
36 108 2259
37 108 778
38 108 665
39 108 2709
40 108 255
41 108 408
42 108 1532
43 108 1719
44 108 850
45 108 724
46 108 1220
47 108 790
48 108 624
49 108 586
50 108 1691
51 108 834
52 108 1476
53 108 1310
54 108 796
55 108 1203
56 108 955
57 108 1489
58 108 721
59 108 675
60 108 1499
61 108 1273
62 108 824
63 108 346
64 108 1885
65 108 315
66 108 1501
67 108 193
68 108 533
69 108 1172
70 108 1161
71 108 1162
72 108 1620
73 108 760
74 108 1582
75 108 454
76 108 501
77 108 776
78 108 1072
79 108 683
80 108 718
81 108 1138
82 108 1842
83 108 620
84 108 945
85 108 1099
86 108 1387
87 108 879
88 108 701
89 108 1761
90 108 337
91 108 557
92 108 1040
93 108 768
94 108 380
95 108 468
96 108 864
97 108 407
98 108 1143
99 108 398
100 108 353
101 108 1168
102 108 662
103 108 805
104 108 604
105 108 873
106 108 1509
107 108 529
108 108 306
109 108 663
110 108 670
111 108 1322
112 108 1304
113 108 935
114 108 1129
115 108 552
116 108 1601
117 108 374
118 108 527
119 108 858
120 108 580
121 108 1501
122 108 2201
123 108 474
124 108 1370
125 108 1420
126 108 1248
127 108 1672
128 108 1417
129 108 1011
130 108 1683
131 108 1114
132 108 265
133 108 1640
134 108 1840
135 108 883
136 108 1674
137 108 1355
138 108 524
139 108 1160
140 108 2108
141 108 773
142 108 1797
143 108 1336
144 108 488
145 108 863
146 108 604
147 108 774
148 108 955
149 108 477
150 108 2179
151 108 1268
152 108 505
153 108 922
154 108 1136
155 108 761
156 108 454
157 108 1097
158 108 1152
159 108 1042
160 108 627
161 108 665
162 108 647
163 108 1766
164 108 722
165 108 1389
166 108 247
167 108 1505
168 108 392
169 108 1076
170 108 377
171 108 579
172 108 665
173 108 411
174 108 216
175 108 1162
176 108 983
177 108 1108
178 108 895
179 108 1260
180 108 909
181 108 457
182 108 951
183 108 853
184 108 602
185 108 971
186 108 810
187 108 1216
188 108 849
189 108 1834
190 108 1471
191 108 362
192 108 1213
193 108 765
194 108 712
195 108 727
196 108 1661
197 108 830
198 108 548
199 108 838
200 108 815
201 108 509
202 108 1317
203 108 511
204 108 1729
205 108 2676
206 108 837
207 108 1025
208 108 1496
209 108 625
210 108 391
211 108 1295
212 108 678
213 108 646
214 108 1444
215 108 620
216 108 687
217 108 797
218 108 445
219 108 1328
220 108 683
221 108 719
222 108 634
223 108 769
224 108 425
225 108 747
226 108 1007
227 108 1771
228 108 782
229 108 440
230 108 1108
231 108 529
232 108 1230
233 108 2289
234 108 2168
235 108 978
236 108 1693
237 108 773
238 108 969
239 108 1631
240 108 501
241 108 720
242 108 724
243 108 627
244 108 1494
245 108 1305
246 108 1617
247 108 627
248 108 644
249 108 679
250 108 1470
251 108 1774
252 108 622
253 108 667
254 108 1560
255 108 786
256 108 389
257 108 822
258 108 1278
259 108 400
260 108 2196
261 108 643
262 108 1518
263 108 274
264 108 912
265 108 1527
266 108 861
267 108 2522
268 108 725
269 108 790
270 108 874
271 108 732
272 108 1098
273 108 1889
274 108 1667
275 108 532
276 108 928
277 108 1099
278 108 1376
279 108 596
280 108 830
281 108 1011
282 108 686
283 108 1798
284 108 804
285 108 638
286 108 724
287 108 458
288 108 499
289 108 934
290 108 1224
291 108 785
292 108 1290
293 108 1735
294 108 1357
295 108 960
296 108 421
297 108 2214
298 108 710
299 108 1003
300 108 346
301 108 1348
302 108 786
303 108 808
304 108 1301
305 108 1081
306 108 797
307 108 1508
308 108 311
309 108 474
310 108 658
311 108 1064
312 108 2327
313 108 755
314 108 1781
315 108 509
316 108 578
317 108 394
318 108 1151
319 108 603
320 108 966
321 108 1159
322 108 1244
323 108 1144
324 108 941
325 108 1046
326 108 1702
327 108 848
328 108 1506
329 108 762
330 108 1129
331 108 1361
332 108 2017
333 108 1043
334 108 706
335 108 803
336 108 1021
337 108 846
338 108 584
339 108 651
340 108 1325
341 108 1720
342 108 876
343 108 1282
344 108 998
345 108 1517
346 108 204
347 108 846
348 108 1354
349 108 809
350 108 325
351 108 488
352 108 316
353 108 1525
354 108 1414
355 108 1570
356 108 834
357 108 981
358 108 1291
359 108 1485
360 108 399
361 108 1431
362 108 310
363 108 819
364 108 412
365 108 1580
366 108 1308
367 108 314
368 108 268
369 108 334
370 108 424
371 108 733
372 108 1061
373 108 293
374 108 871
375 108 477
376 108 1977
377 108 556
378 108 1453
379 108 575
380 108 602
381 108 2243
382 108 1443
383 108 2352
384 108 380
385 108 1292
386 108 1285
387 108 1019
388 108 672
389 108 963
390 108 931
391 108 1263
392 108 269
393 108 492
394 108 607
395 108 1216
396 108 1287
397 108 1091
398 108 944
399 108 1336
400 108 969
401 108 757
402 108 1083
403 108 1040
404 108 1173
405 108 548
406 108 3008
407 108 471
408 108 1615
409 108 941
410 108 595
411 108 327
412 108 1582
413 108 1631
414 108 424
415 108 214
416 108 1595
417 108 618
418 108 1415
419 108 661
420 108 1657
421 108 349
422 108 808
423 108 586
424 108 870
425 108 198
426 108 711
427 108 1149
428 108 520
429 108 425
430 108 604
431 108 1222
432 108 997
433 108 1143
434 108 371
435 108 1044
436 108 919
437 108 860
438 108 1612
439 108 824
440 108 951
441 108 424
442 108 953
443 108 1245
444 108 1081
445 108 1390
446 108 1229
447 108 1409
448 108 1426
449 108 1485
450 108 918
451 108 925
452 108 804
453 108 824
454 108 1305
455 108 1170
456 108 471
457 108 932
458 108 785
459 108 801
460 108 558
461 108 676
462 108 1417
463 108 1584
464 108 1421
465 108 1160
466 108 1031
467 108 2569
468 108 875
469 108 1286
470 108 635
471 108 710
472 108 2223
473 108 1315
474 108 798
475 108 1556
476 108 840
477 108 463
478 108 1574
479 108 591
480 108 1343
481 108 1562
482 108 1439
483 108 1122
484 108 261
485 108 546
486 108 310
487 108 248
488 108 1408
489 108 390
490 108 839
491 108 318
492 108 893
493 108 979
494 108 898
495 108 608
496 108 1557
497 108 623
498 108 1414
499 108 826
500 108 634
1 109 7508
2 109 3337
3 109 5095
4 109 3008
5 109 6414
6 109 6278
7 109 3562
8 109 5184
9 109 4105
10 109 4208
11 109 6722
12 109 3465
13 109 7594
14 109 7880
15 109 2752
16 109 1806
17 109 6571
18 109 7578
19 109 6215
20 109 6246
21 109 5316
22 109 3685
23 109 1069
24 109 7916
25 109 6304
26 109 4459
27 109 5430
28 109 5807
29 109 4096
30 109 5347
31 109 7540
32 109 13771
33 109 2758
34 109 5546
35 109 6759
36 109 7534
37 109 3630
38 109 5905
39 109 6481
40 109 4552
41 109 6897
42 109 6203
43 109 4186
44 109 8400
45 109 7281
46 109 4758
47 109 5061
48 109 6437
49 109 2983
50 109 6929
51 109 5011
52 109 3730
53 109 5980
54 109 6328
55 109 4225
56 109 3749
57 109 4296
58 109 3155
59 109 3580
60 109 8546
61 109 10494
62 109 7138
63 109 5303
64 109 5613
65 109 7124
66 109 2518
67 109 4246
68 109 3492
69 109 6626
70 109 5386
71 109 6790
72 109 3418
73 109 6316
74 109 3390
75 109 1797
76 109 5312
77 109 4969
78 109 4450
79 109 3605
80 109 4528
81 109 4040
82 109 4025
83 109 7701
84 109 5160
85 109 4566
86 109 3330
87 109 7226
88 109 4489
89 109 4135
90 109 3174
91 109 3217
92 109 5692
93 109 3527
94 109 5140
95 109 4770
96 109 7757
97 109 2075
98 109 4069
99 109 4643
100 109 3497
101 109 4470
102 109 5296
103 109 7710
104 109 4789
105 109 6028
106 109 8537
107 109 7357
108 109 4553
109 109 5766
110 109 4082
111 109 6135
112 109 8771
113 109 6320
114 109 4798
115 109 2968
116 109 3358
117 109 2618
118 109 5284
119 109 7599
120 109 7216
121 109 5911
122 109 6460
123 109 3883
124 109 4253
125 109 8171
126 109 7110
127 109 3345
128 109 4057
129 109 6263
130 109 7750
131 109 6162
132 109 5543
133 109 5422
134 109 7514
135 109 5931
136 109 5786
137 109 6315
138 109 8033
139 109 6487
140 109 5897
141 109 5209
142 109 8793
143 109 8594
144 109 3304
145 109 8354
146 109 2799
147 109 7145
148 109 6493
149 109 4928
150 109 6346
151 109 5117
152 109 4545
153 109 7265
154 109 6297
155 109 10581
156 109 5116
157 109 9066
158 109 5169
159 109 4881
160 109 6312
161 109 6059
162 109 2861
163 109 6703
164 109 5627
165 109 4685
166 109 6135
167 109 8720
168 109 5144
169 109 5127
170 109 7300
171 109 2500
172 109 6566
173 109 2859
174 109 7455
175 109 4005
176 109 1738
177 109 8891
178 109 3422
179 109 5913
180 109 4135
181 109 7042
182 109 6407
183 109 5503
184 109 6069
185 109 5919
186 109 4526
187 109 9085
188 109 6073
189 109 8650
190 109 7442
191 109 3389
192 109 5169
193 109 5196
194 109 3836
195 109 3101
196 109 3375
197 109 2657
198 109 2455
199 109 7610
200 109 6302
201 109 7127
202 109 6407
203 109 5599
204 109 6696
205 109 11577
206 109 6354
207 109 11184
208 109 9372
209 109 5057
210 109 3344
211 109 4761
212 109 7672
213 109 4173
214 109 5225
215 109 6634
216 109 3207
217 109 7515
218 109 8671
219 109 6484
220 109 4940
221 109 6731
222 109 3787
223 109 5076
224 109 2042
225 109 3668
226 109 4080
227 109 8404
228 109 4603
229 109 2758
230 109 4777
231 109 7262
232 109 3655
233 109 8848
234 109 8083
235 109 4220
236 109 8910
237 109 5146
238 109 8575
239 109 6074
240 109 6098
241 109 5609
242 109 4071
243 109 4403
244 109 6851
245 109 5060
246 109 8413
247 109 7496
248 109 4656
249 109 5566
250 109 4435
251 109 8659
252 109 4747
253 109 6715
254 109 7021
255 109 7391
256 109 5102
257 109 2477
258 109 8423
259 109 2943
260 109 5582
261 109 3957
262 109 6692
263 109 7020
264 109 4566
265 109 7007
266 109 5546
267 109 5223
268 109 4011
269 109 10495
270 109 3668
271 109 9141
272 109 6644
273 109 6559
274 109 5448
275 109 4085
276 109 4540
277 109 8123
278 109 7225
279 109 7341
280 109 4751
281 109 9617
282 109 5558
283 109 8695
284 109 5280
285 109 7456
286 109 4067
287 109 10737
288 109 13255
289 109 2484
290 109 5967
291 109 6500
292 109 3659
293 109 6738
294 109 5093
295 109 4599
296 109 5222
297 109 7066
298 109 6242
299 109 4667
300 109 7264
301 109 3916
302 109 6148
303 109 5312
304 109 7425
305 109 6188
306 109 7649
307 109 8690
308 109 4382
309 109 4654
310 109 8219
311 109 11079
312 109 7727
313 109 6324
314 109 6935
315 109 3512
316 109 3664
317 109 2718
318 109 4176
319 109 6832
320 109 7383
321 109 4625
322 109 10118
323 109 5824
324 109 6446
325 109 6798
326 109 5418
327 109 3956
328 109 7525
329 109 5051
330 109 4553
331 109 5460
332 109 9368
333 109 3792
334 109 10201
335 109 4435
336 109 6504
337 109 6789
338 109 7205
339 109 3196
340 109 4510
341 109 7027
342 109 5964
343 109 4543
344 109 4751
345 109 4383
346 109 2027
347 109 5935
348 109 7507
349 109 7498
350 109 3002
351 109 6003
352 109 5363
353 109 5409
354 109 4262
355 109 3463
356 109 7182
357 109 7418
358 109 5129
359 109 5015
360 109 4967
361 109 3496
362 109 5362
363 109 6199
364 109 7472
365 109 7139
366 109 8409
367 109 2619
368 109 5286
369 109 4794
370 109 5190
371 109 3145
372 109 6882
373 109 3808
374 109 2520
375 109 4822
376 109 7536
377 109 7368
378 109 5398
379 109 6785
380 109 2683
381 109 6869
382 109 5555
383 109 4726
384 109 11262
385 109 7332
386 109 10026
387 109 6475
388 109 5792
389 109 8642
390 109 6238
391 109 5829
392 109 3042
393 109 2850
394 109 5196
395 109 5007
396 109 6123
397 109 4626
398 109 2603
399 109 4953
400 109 4539
401 109 7469
402 109 4556
403 109 8036
404 109 4486
405 109 5985
406 109 6975
407 109 8504
408 109 5937
409 109 4512
410 109 5463
411 109 7679
412 109 6321
413 109 7778
414 109 4766
415 109 6805
416 109 11034
417 109 4871
418 109 5208
419 109 2470
420 109 3261
421 109 9582
422 109 5131
423 109 5903
424 109 7509
425 109 2156
426 109 7436
427 109 5858
428 109 1891
429 109 6863
430 109 6685
431 109 4133
432 109 4505
433 109 3867
434 109 7589
435 109 4093
436 109 7585
437 109 9745
438 109 7171
439 109 3444
440 109 4408
441 109 9549
442 109 3561
443 109 5218
444 109 4524
445 109 4332
446 109 4338
447 109 3565
448 109 5705
449 109 6503
450 109 4363
451 109 6948
452 109 4868
453 109 9885
454 109 8485
455 109 4533
456 109 7733
457 109 5271
458 109 7431
459 109 8148
460 109 4832
461 109 4741
462 109 3899
463 109 5094
464 109 5817
465 109 4005
466 109 5032
467 109 5281
468 109 4567
469 109 4797
470 109 6613
471 109 6284
472 109 8991
473 109 6361
474 109 5507
475 109 5060
476 109 4082
477 109 4812
478 109 7212
479 109 5475
480 109 6371
481 109 5429
482 109 6397
483 109 5251
484 109 6796
485 109 4766
486 109 3473
487 109 7003
488 109 4081
489 109 2763
490 109 2952
491 109 2479
492 109 5989
493 109 3049
494 109 4821
495 109 6363
496 109 5102
497 109 8568
498 109 7201
499 109 3864
500 109 5281
1 110 7094
2 110 8868
3 110 12016
4 110 6939
5 110 7178
6 110 8551
7 110 5146
8 110 4550
9 110 12036
10 110 6870
11 110 4712
12 110 5655
13 110 8218
14 110 8394
15 110 3672
16 110 3387
17 110 5763
18 110 5129
19 110 6031
20 110 4935
21 110 6376
22 110 5547
23 110 7742
24 110 6522
25 110 8844
26 110 6472
27 110 10193
28 110 4571
29 110 8770
30 110 7628
31 110 8131
32 110 7202
33 110 23602
34 110 4358
35 110 8680
36 110 7015
37 110 9321
38 110 9957
39 110 6626
40 110 8112
41 110 5101
42 110 10446
43 110 7505
44 110 4008
45 110 8688
46 110 6659
47 110 5165
48 110 6572
49 110 17179
50 110 10793
51 110 3564
52 110 7723
53 110 9486
54 110 8144
55 110 8753
56 110 10109
57 110 5086
58 110 5427
59 110 14715
60 110 10181
61 110 9742
62 110 4119
63 110 6293
64 110 7403
65 110 5959
66 110 4355
67 110 8895
68 110 4547
69 110 5050
70 110 6893
71 110 7614
72 110 8115
73 110 11923
74 110 8157
75 110 5608
76 110 7315
77 110 3450
78 110 20030
79 110 8035
80 110 6897
81 110 10627
82 110 10411
83 110 13224
84 110 6292
85 110 9075
86 110 10552
87 110 3910
88 110 6629
89 110 10396
90 110 5839
91 110 8228
92 110 8109
93 110 10025
94 110 4778
95 110 8524
96 110 7061
97 110 4959
98 110 7585
99 110 4779
100 110 4453
101 110 5883
102 110 5865
103 110 3980
104 110 5756
105 110 4859
106 110 10118
107 110 9789
108 110 4665
109 110 8201
110 110 3362
111 110 8918
112 110 9819
113 110 6461
114 110 10424
115 110 3645
116 110 8484
117 110 2623
118 110 7558
119 110 6161
120 110 7630
121 110 8234
122 110 11922
123 110 3594
124 110 5867
125 110 5560
126 110 6536
127 110 8165
128 110 8758
129 110 6106
130 110 8388
131 110 6368
132 110 6158
133 110 5891
134 110 6983
135 110 3597
136 110 11334
137 110 8894
138 110 7064
139 110 6251
140 110 9261
141 110 5320
142 110 5852
143 110 7541
144 110 6584
145 110 6834
146 110 5045
147 110 9848
148 110 9772
149 110 8618
150 110 11785
151 110 6650
152 110 10355
153 110 4138
154 110 6541
155 110 5033
156 110 4021
157 110 7776
158 110 14494
159 110 9554
160 110 9663
161 110 7959
162 110 6561
163 110 8479
164 110 5985
165 110 4688
166 110 5856
167 110 4313
168 110 5136
169 110 7792
170 110 6532
171 110 8743
172 110 8287
173 110 11086
174 110 3889
175 110 7743
176 110 3220
177 110 7776
178 110 5477
179 110 7569
180 110 8823
181 110 11892
182 110 13170
183 110 4244
184 110 6754
185 110 15475
186 110 9703
187 110 7822
188 110 4684
189 110 6583
190 110 8051
191 110 4273
192 110 7070
193 110 5720
194 110 6381
195 110 3878
196 110 8239
197 110 7274
198 110 15626
199 110 5928
200 110 5917
201 110 5481
202 110 6823
203 110 7154
204 110 8759
205 110 5546
206 110 11928
207 110 5122
208 110 11849
209 110 5281
210 110 4321
211 110 6169
212 110 11343
213 110 7360
214 110 7526
215 110 12435
216 110 3916
217 110 7442
218 110 9549
219 110 6942
220 110 5909
221 110 7925
222 110 9076
223 110 6064
224 110 5089
225 110 7205
226 110 7456
227 110 4090
228 110 10346
229 110 8877
230 110 5660
231 110 9710
232 110 9526
233 110 11908
234 110 6090
235 110 8892
236 110 9434
237 110 6458
238 110 7297
239 110 8008
240 110 7799
241 110 4385
242 110 13089
243 110 12153
244 110 6990
245 110 7520
246 110 4522
247 110 8215
248 110 7693
249 110 8916
250 110 10747
251 110 4082
252 110 5521
253 110 12380
254 110 8151
255 110 8722
256 110 4855
257 110 2843
258 110 7711
259 110 10974
260 110 7768
261 110 8859
262 110 6773
263 110 8467
264 110 6000
265 110 10199
266 110 3938
267 110 8443
268 110 5235
269 110 5178
270 110 5089
271 110 8503
272 110 10244
273 110 3817
274 110 11556
275 110 11115
276 110 7342
277 110 6560
278 110 11664
279 110 8189
280 110 5647
281 110 10081
282 110 5184
283 110 4449
284 110 5520
285 110 8179
286 110 11970
287 110 7339
288 110 6672
289 110 8047
290 110 9949
291 110 11768
292 110 9496
293 110 8704
294 110 5191
295 110 4128
296 110 7112
297 110 5957
298 110 5316
299 110 14206
300 110 2978
301 110 3418
302 110 5519
303 110 5678
304 110 7333
305 110 6428
306 110 5219
307 110 4324
308 110 4800
309 110 4593
310 110 6123
311 110 5209
312 110 5903
313 110 5530
314 110 10761
315 110 10913
316 110 6264
317 110 2584
318 110 3023
319 110 8733
320 110 9997
321 110 4911
322 110 6711
323 110 4898
324 110 5508
325 110 8992
326 110 5195
327 110 8881
328 110 8298
329 110 5273
330 110 6824
331 110 5148
332 110 9647
333 110 10461
334 110 6886
335 110 7311
336 110 5504
337 110 10845
338 110 7569
339 110 5053
340 110 14390
341 110 9630
342 110 6938
343 110 5987
344 110 7255
345 110 13578
346 110 3102
347 110 4817
348 110 7292
349 110 3936
350 110 10548
351 110 3856
352 110 7821
353 110 7790
354 110 5155
355 110 8183
356 110 5863
357 110 10168
358 110 8334
359 110 3680
360 110 3506
361 110 7900
362 110 10894
363 110 10222
364 110 9982
365 110 8195
366 110 7735
367 110 6344
368 110 6587
369 110 5340
370 110 7029
371 110 5395
372 110 8094
373 110 10507
374 110 8256
375 110 8763
376 110 6176
377 110 3841
378 110 8495
379 110 5108
380 110 5090
381 110 6053
382 110 8680
383 110 6359
384 110 4636
385 110 6650
386 110 6397
387 110 6222
388 110 3403
389 110 6795
390 110 6572
391 110 8106
392 110 4811
393 110 7755
394 110 6698
395 110 7594
396 110 4936
397 110 7414
398 110 8505
399 110 7424
400 110 5265
401 110 8247
402 110 6944
403 110 6920
404 110 10825
405 110 8121
406 110 13638
407 110 5853
408 110 6779
409 110 3373
410 110 3556
411 110 2860
412 110 7829
413 110 8443
414 110 4898
415 110 6971
416 110 4433
417 110 4332
418 110 7569
419 110 6786
420 110 5575
421 110 9912
422 110 6649
423 110 4592
424 110 7234
425 110 3195
426 110 8224
427 110 5015
428 110 5176
429 110 8296
430 110 8787
431 110 8720
432 110 7423
433 110 6221
434 110 9796
435 110 7408
436 110 8154
437 110 12242
438 110 8210
439 110 4236
440 110 5198
441 110 6440
442 110 5259
443 110 9336
444 110 9133
445 110 3250
446 110 6993
447 110 7934
448 110 6241
449 110 5124
450 110 5180
451 110 4473
452 110 4682
453 110 12263
454 110 7533
455 110 4186
456 110 7552
457 110 10596
458 110 8639
459 110 10961
460 110 8255
461 110 6888
462 110 8699
463 110 6014
464 110 5645
465 110 8265
466 110 6544
467 110 8662
468 110 5674
469 110 5578
470 110 12653
471 110 6893
472 110 12275
473 110 8537
474 110 5570
475 110 7414
476 110 5104
477 110 4905
478 110 8302
479 110 7701
480 110 5830
481 110 7560
482 110 7733
483 110 6298
484 110 7813
485 110 6393
486 110 3483
487 110 7765
488 110 8513
489 110 6197
490 110 5484
491 110 9408
492 110 9900
493 110 4970
494 110 4474
495 110 7567
496 110 7672
497 110 12565
498 110 8975
499 110 7787
500 110 8466
1 111 2639
2 111 2148
3 111 2758
4 111 1376
5 111 2379
6 111 1676
7 111 3136
8 111 3336
9 111 3625
10 111 3935
11 111 2283
12 111 2233
13 111 2401
14 111 1868
15 111 1365
16 111 2297
17 111 2009
18 111 1044
19 111 3019
20 111 2505
21 111 2144
22 111 1557
23 111 1370
24 111 3594
25 111 2327
26 111 1788
27 111 2199
28 111 1415
29 111 1157
30 111 2685
31 111 1911
32 111 2780
33 111 573
34 111 1231
35 111 1872
36 111 2575
37 111 1198
38 111 1468
39 111 5197
40 111 1849
41 111 2234
42 111 1964
43 111 2929
44 111 2250
45 111 2508
46 111 1326
47 111 2574
48 111 2989
49 111 1737
50 111 2997
51 111 1657
52 111 1370
53 111 3981
54 111 4192
55 111 2383
56 111 1876
57 111 1375
58 111 767
59 111 2255
60 111 3348
61 111 1906
62 111 1876
63 111 2473
64 111 2623
65 111 3267
66 111 2316
67 111 1280
68 111 1388
69 111 1871
70 111 1195
71 111 1704
72 111 3043
73 111 3628
74 111 2949
75 111 1069
76 111 3431
77 111 1586
78 111 2434
79 111 2098
80 111 2557
81 111 2429
82 111 2668
83 111 2709
84 111 1679
85 111 1986
86 111 1744
87 111 1485
88 111 2442
89 111 2700
90 111 2041
91 111 2853
92 111 1165
93 111 1698
94 111 2542
95 111 1652
96 111 2173
97 111 873
98 111 2892
99 111 2111
100 111 2438
101 111 2454
102 111 1787
103 111 1667
104 111 3835
105 111 1338
106 111 3444
107 111 4809
108 111 2097
109 111 1165
110 111 1242
111 111 2407
112 111 3029
113 111 1891
114 111 3864
115 111 1103
116 111 2353
117 111 1402
118 111 1692
119 111 3172
120 111 2264
121 111 1986
122 111 1595
123 111 2063
124 111 1817
125 111 3066
126 111 2732
127 111 3094
128 111 2405
129 111 1966
130 111 2979
131 111 3514
132 111 3757
133 111 2463
134 111 3276
135 111 2984
136 111 4321
137 111 2320
138 111 5656
139 111 1401
140 111 2938
141 111 2773
142 111 2889
143 111 2131
144 111 1783
145 111 1865
146 111 1938
147 111 1253
148 111 2264
149 111 2304
150 111 1629
151 111 2043
152 111 2638
153 111 1515
154 111 3344
155 111 2297
156 111 2173
157 111 1840
158 111 2249
159 111 2134
160 111 3337
161 111 3181
162 111 2035
163 111 3353
164 111 1757
165 111 2009
166 111 2396
167 111 2421
168 111 1795
169 111 3051
170 111 2216
171 111 2401
172 111 2756
173 111 2230
174 111 1462
175 111 3017
176 111 1252
177 111 2028
178 111 2112
179 111 2349
180 111 1102
181 111 2486
182 111 4287
183 111 1819
184 111 3854
185 111 1326
186 111 1976
187 111 4073
188 111 997
189 111 3487
190 111 1917
191 111 2245
192 111 2228
193 111 2237
194 111 2145
195 111 2731
196 111 3042
197 111 1211
198 111 784
199 111 2004
200 111 1886
201 111 911
202 111 2991
203 111 1370
204 111 1872
205 111 2626
206 111 3706
207 111 1606
208 111 3518
209 111 4917
210 111 2206
211 111 3137
212 111 1452
213 111 2050
214 111 2798
215 111 3972
216 111 2692
217 111 1871
218 111 3142
219 111 3026
220 111 2929
221 111 2745
222 111 2906
223 111 1551
224 111 887
225 111 3203
226 111 1792
227 111 3175
228 111 2017
229 111 2102
230 111 1860
231 111 2418
232 111 3444
233 111 4607
234 111 2421
235 111 2271
236 111 1455
237 111 1888
238 111 3645
239 111 2911
240 111 2168
241 111 1286
242 111 2571
243 111 2577
244 111 3003
245 111 4079
246 111 2442
247 111 2439
248 111 3400
249 111 4016
250 111 2275
251 111 3229
252 111 1443
253 111 4161
254 111 2853
255 111 2481
256 111 2443
257 111 1707
258 111 2811
259 111 2235
260 111 3412
261 111 1361
262 111 1506
263 111 1461
264 111 1239
265 111 2301
266 111 1844
267 111 2540
268 111 2350
269 111 2227
270 111 3085
271 111 3552
272 111 1390
273 111 3016
274 111 3287
275 111 2201
276 111 1947
277 111 1941
278 111 2494
279 111 2452
280 111 2090
281 111 2851
282 111 2741
283 111 2304
284 111 2807
285 111 2440
286 111 3604
287 111 1870
288 111 1671
289 111 930
290 111 2606
291 111 3954
292 111 3461
293 111 2257
294 111 2799
295 111 2268
296 111 2143
297 111 1500
298 111 2051
299 111 4196
300 111 1106
301 111 3367
302 111 1989
303 111 2733
304 111 1506
305 111 2702
306 111 1012
307 111 2430
308 111 2116
309 111 2018
310 111 827
311 111 1619
312 111 3595
313 111 2017
314 111 2994
315 111 2965
316 111 1334
317 111 1464
318 111 947
319 111 2593
320 111 5173
321 111 2387
322 111 1885
323 111 2393
324 111 1324
325 111 1927
326 111 2590
327 111 1120
328 111 1868
329 111 2746
330 111 2701
331 111 1623
332 111 2157
333 111 3108
334 111 3036
335 111 1179
336 111 1285
337 111 2601
338 111 2245
339 111 1724
340 111 4391
341 111 2313
342 111 1481
343 111 1345
344 111 1681
345 111 2547
346 111 984
347 111 1415
348 111 1522
349 111 1670
350 111 2621
351 111 1070
352 111 3728
353 111 3148
354 111 1396
355 111 3098
356 111 2127
357 111 2497
358 111 3113
359 111 1388
360 111 2913
361 111 2352
362 111 3987
363 111 1590
364 111 2578
365 111 2908
366 111 2731
367 111 868
368 111 1645
369 111 1791
370 111 2160
371 111 794
372 111 2347
373 111 1954
374 111 1453
375 111 2253
376 111 2332
377 111 1054
378 111 5651
379 111 2730
380 111 1828
381 111 1496
382 111 2277
383 111 3432
384 111 1389
385 111 3091
386 111 1468
387 111 2158
388 111 1954
389 111 1893
390 111 1764
391 111 1444
392 111 1725
393 111 2696
394 111 2703
395 111 2628
396 111 1900
397 111 2092
398 111 1461
399 111 4245
400 111 2307
401 111 2736
402 111 2433
403 111 1636
404 111 2784
405 111 2000
406 111 3729
407 111 3313
408 111 3645
409 111 2199
410 111 1874
411 111 2190
412 111 1700
413 111 3016
414 111 2264
415 111 3437
416 111 1888
417 111 2085
418 111 2706
419 111 1030
420 111 2404
421 111 2951
422 111 2305
423 111 1496
424 111 1887
425 111 1018
426 111 2632
427 111 2535
428 111 1673
429 111 2743
430 111 3089
431 111 2398
432 111 2554
433 111 2298
434 111 2660
435 111 1513
436 111 2380
437 111 2615
438 111 2783
439 111 2054
440 111 2282
441 111 1521
442 111 2524
443 111 3317
444 111 1861
445 111 1584
446 111 3238
447 111 2426
448 111 1478
449 111 1554
450 111 2269
451 111 1892
452 111 1488
453 111 2618
454 111 2103
455 111 3192
456 111 2076
457 111 3882
458 111 2577
459 111 1373
460 111 2103
461 111 1401
462 111 2458
463 111 2149
464 111 1453
465 111 1930
466 111 2018
467 111 2474
468 111 2189
469 111 2571
470 111 4185
471 111 3551
472 111 4643
473 111 2573
474 111 2668
475 111 2515
476 111 1422
477 111 2669
478 111 2892
479 111 2669
480 111 3141
481 111 2994
482 111 2905
483 111 3452
484 111 2821
485 111 1225
486 111 1744
487 111 2882
488 111 2436
489 111 1757
490 111 1697
491 111 1281
492 111 3241
493 111 2047
494 111 2169
495 111 2106
496 111 3167
497 111 2442
498 111 1807
499 111 1310
500 111 2678
1 112 3325
2 112 2259
3 112 1558
4 112 1576
5 112 2890
6 112 3429
7 112 3378
8 112 1890
9 112 2714
10 112 3074
11 112 2118
12 112 1733
13 112 2562
14 112 1193
15 112 1787
16 112 1588
17 112 1735
18 112 1068
19 112 3516
20 112 2866
21 112 3313
22 112 2296
23 112 1059
24 112 3396
25 112 2386
26 112 2192
27 112 3091
28 112 2790
29 112 2217
30 112 4017
31 112 2476
32 112 2165
33 112 1222
34 112 1242
35 112 2484
36 112 3219
37 112 1934
38 112 2813
39 112 2517
40 112 2979
41 112 2828
42 112 3208
43 112 1119
44 112 3385
45 112 5037
46 112 2113
47 112 1720
48 112 2518
49 112 1003
50 112 3396
51 112 3310
52 112 1799
53 112 3013
54 112 2616
55 112 2613
56 112 3794
57 112 3455
58 112 1450
59 112 2942
60 112 1852
61 112 1806
62 112 2068
63 112 3606
64 112 2304
65 112 3810
66 112 1800
67 112 1536
68 112 1295
69 112 1400
70 112 2503
71 112 1867
72 112 3642
73 112 4075
74 112 3532
75 112 1460
76 112 4803
77 112 3243
78 112 2041
79 112 3805
80 112 1783
81 112 3103
82 112 3954
83 112 2527
84 112 3499
85 112 2308
86 112 2935
87 112 1507
88 112 2189
89 112 3884
90 112 2497
91 112 1625
92 112 2922
93 112 2033
94 112 2223
95 112 2178
96 112 1856
97 112 1312
98 112 3801
99 112 2510
100 112 1866
101 112 1954
102 112 1891
103 112 1223
104 112 3325
105 112 2084
106 112 1817
107 112 5344
108 112 2640
109 112 2750
110 112 847
111 112 2523
112 112 1817
113 112 2929
114 112 2463
115 112 1000
116 112 2472
117 112 2815
118 112 6206
119 112 2192
120 112 2424
121 112 1360
122 112 5205
123 112 1665
124 112 2853
125 112 2670
126 112 2109
127 112 3482
128 112 2799
129 112 2705
130 112 2830
131 112 2646
132 112 3058
133 112 3312
134 112 3438
135 112 2492
136 112 4653
137 112 2457
138 112 2818
139 112 2559
140 112 2194
141 112 1745
142 112 2925
143 112 1875
144 112 1782
145 112 3603
146 112 2077
147 112 1300
148 112 2530
149 112 3056
150 112 5303
151 112 2799
152 112 3663
153 112 1531
154 112 2653
155 112 3397
156 112 1503
157 112 3602
158 112 2154
159 112 3488
160 112 4395
161 112 2069
162 112 2456
163 112 2942
164 112 1550
165 112 2064
166 112 4858
167 112 3117
168 112 3415
169 112 1975
170 112 1827
171 112 3272
172 112 4147
173 112 4024
174 112 903
175 112 3956
176 112 972
177 112 3549
178 112 2170
179 112 2063
180 112 2149
181 112 1574
182 112 1776
183 112 2750
184 112 2748
185 112 2674
186 112 2746
187 112 4145
188 112 1287
189 112 2502
190 112 2744
191 112 3161
192 112 3922
193 112 2069
194 112 2907
195 112 1567
196 112 3574
197 112 1375
198 112 3044
199 112 3242
200 112 3500
201 112 1806
202 112 4235
203 112 982
204 112 2488
205 112 4528
206 112 1550
207 112 4199
208 112 4191
209 112 4260
210 112 3019
211 112 2782
212 112 3736
213 112 2171
214 112 2575
215 112 2384
216 112 1596
217 112 2498
218 112 4650
219 112 4190
220 112 1798
221 112 3044
222 112 3051
223 112 2959
224 112 1334
225 112 1717
226 112 2152
227 112 5319
228 112 2322
229 112 1375
230 112 2534
231 112 3956
232 112 4363
233 112 4458
234 112 1051
235 112 3170
236 112 3500
237 112 3083
238 112 2026
239 112 1801
240 112 3257
241 112 1283
242 112 2955
243 112 3467
244 112 2396
245 112 4728
246 112 3600
247 112 3556
248 112 2251
249 112 2359
250 112 3545
251 112 5554
252 112 3262
253 112 2369
254 112 2168
255 112 5217
256 112 2177
257 112 1181
258 112 4039
259 112 4084
260 112 3111
261 112 1669
262 112 3113
263 112 3377
264 112 1650
265 112 2039
266 112 2812
267 112 4231
268 112 1678
269 112 3349
270 112 3433
271 112 3588
272 112 2609
273 112 3356
274 112 3522
275 112 3545
276 112 1870
277 112 2966
278 112 3449
279 112 3630
280 112 3256
281 112 4845
282 112 4475
283 112 3181
284 112 1912
285 112 3565
286 112 2636
287 112 2355
288 112 2150
289 112 2018
290 112 3649
291 112 1603
292 112 4425
293 112 4098
294 112 2612
295 112 2243
296 112 2912
297 112 2065
298 112 2226
299 112 3921
300 112 1518
301 112 2155
302 112 2257
303 112 1950
304 112 5433
305 112 2103
306 112 1082
307 112 3092
308 112 2546
309 112 1506
310 112 1276
311 112 4169
312 112 2374
313 112 2302
314 112 3416
315 112 2096
316 112 1136
317 112 2797
318 112 1821
319 112 3505
320 112 3166
321 112 2334
322 112 2831
323 112 3504
324 112 1756
325 112 2400
326 112 2123
327 112 2230
328 112 2840
329 112 1679
330 112 2598
331 112 3653
332 112 3550
333 112 1732
334 112 1853
335 112 2520
336 112 1703
337 112 2409
338 112 2433
339 112 1458
340 112 3041
341 112 2717
342 112 3756
343 112 1648
344 112 2529
345 112 3906
346 112 1435
347 112 2127
348 112 5339
349 112 1296
350 112 2020
351 112 1178
352 112 4493
353 112 2976
354 112 3395
355 112 3490
356 112 2922
357 112 5004
358 112 2246
359 112 3063
360 112 5192
361 112 2514
362 112 2735
363 112 2118
364 112 2763
365 112 2080
366 112 4030
367 112 872
368 112 2630
369 112 1301
370 112 2803
371 112 1384
372 112 2057
373 112 2713
374 112 1708
375 112 3063
376 112 2174
377 112 1192
378 112 5083
379 112 1834
380 112 2098
381 112 2050
382 112 2487
383 112 2523
384 112 1127
385 112 2565
386 112 3472
387 112 3407
388 112 1689
389 112 3548
390 112 2831
391 112 3906
392 112 1769
393 112 2574
394 112 2467
395 112 2158
396 112 1996
397 112 2915
398 112 1716
399 112 4722
400 112 2234
401 112 3789
402 112 2605
403 112 3811
404 112 3212
405 112 3361
406 112 3978
407 112 4261
408 112 3588
409 112 1059
410 112 1867
411 112 1664
412 112 2303
413 112 2812
414 112 2448
415 112 4400
416 112 2347
417 112 1794
418 112 2613
419 112 1549
420 112 2706
421 112 6127
422 112 2647
423 112 1406
424 112 2498
425 112 1450
426 112 3632
427 112 3429
428 112 1671
429 112 3050
430 112 4625
431 112 2584
432 112 2565
433 112 1951
434 112 2785
435 112 2132
436 112 2551
437 112 1823
438 112 2231
439 112 1551
440 112 2228
441 112 1852
442 112 3571
443 112 2554
444 112 2366
445 112 2763
446 112 3884
447 112 2652
448 112 3079
449 112 2549
450 112 2312
451 112 2872
452 112 1764
453 112 1832
454 112 1826
455 112 1051
456 112 2637
457 112 3234
458 112 5061
459 112 2167
460 112 1989
461 112 2201
462 112 2904
463 112 2764
464 112 3546
465 112 1689
466 112 2834
467 112 4182
468 112 1416
469 112 3807
470 112 2376
471 112 3245
472 112 4477
473 112 4736
474 112 1927
475 112 2448
476 112 1494
477 112 2422
478 112 2155
479 112 2184
480 112 2745
481 112 2962
482 112 1954
483 112 3435
484 112 2518
485 112 1362
486 112 1894
487 112 2364
488 112 2823
489 112 1555
490 112 2491
491 112 1668
492 112 2392
493 112 3405
494 112 3620
495 112 2500
496 112 4040
497 112 3432
498 112 3213
499 112 3690
500 112 2949
1 113 4867
2 113 4309
3 113 3693
4 113 2039
5 113 2688
6 113 6474
7 113 2613
8 113 2473
9 113 2418
10 113 3774
11 113 2037
12 113 3962
13 113 3775
14 113 4607
15 113 1915
16 113 1787
17 113 3361
18 113 3052
19 113 3319
20 113 3766
21 113 3875
22 113 1956
23 113 1423
24 113 4581
25 113 4461
26 113 3227
27 113 4657
28 113 4392
29 113 1914
30 113 5505
31 113 3664
32 113 6865
33 113 2734
34 113 3203
35 113 4476
36 113 4964
37 113 2138
38 113 4054
39 113 5678
40 113 5671
41 113 4424
42 113 6614
43 113 2872
44 113 2093
45 113 2222
46 113 3023
47 113 4866
48 113 4134
49 113 1922
50 113 2921
51 113 3295
52 113 1790
53 113 6973
54 113 3615
55 113 2503
56 113 5784
57 113 2329
58 113 2933
59 113 5488
60 113 4930
61 113 4537
62 113 3232
63 113 3931
64 113 5372
65 113 3168
66 113 3735
67 113 1375
68 113 2634
69 113 3054
70 113 6802
71 113 4353
72 113 4055
73 113 5945
74 113 4071
75 113 1704
76 113 4294
77 113 3364
78 113 4245
79 113 2627
80 113 3243
81 113 6134
82 113 3759
83 113 4909
84 113 2454
85 113 4741
86 113 3410
87 113 2973
88 113 5894
89 113 3713
90 113 3512
91 113 1748
92 113 4092
93 113 2163
94 113 2952
95 113 3364
96 113 3487
97 113 3206
98 113 4192
99 113 2809
100 113 1987
101 113 3587
102 113 4194
103 113 1559
104 113 4962
105 113 1971
106 113 4823
107 113 3731
108 113 4412
109 113 6504
110 113 4517
111 113 4272
112 113 2040
113 113 3312
114 113 5263
115 113 2454
116 113 5150
117 113 3359
118 113 4855
119 113 4262
120 113 3549
121 113 4441
122 113 3030
123 113 3823
124 113 4150
125 113 3084
126 113 6049
127 113 4052
128 113 4173
129 113 3465
130 113 7154
131 113 5406
132 113 3211
133 113 5528
134 113 4095
135 113 2501
136 113 5880
137 113 4314
138 113 4291
139 113 3618
140 113 5589
141 113 3744
142 113 5503
143 113 4651
144 113 1667
145 113 3533
146 113 1643
147 113 2969
148 113 3201
149 113 3597
150 113 3036
151 113 2559
152 113 5258
153 113 2889
154 113 5540
155 113 4075
156 113 3078
157 113 3627
158 113 4976
159 113 4485
160 113 5275
161 113 5115
162 113 4291
163 113 5898
164 113 2281
165 113 3786
166 113 4164
167 113 4143
168 113 4235
169 113 4449
170 113 5778
171 113 6649
172 113 5274
173 113 5728
174 113 1568
175 113 4213
176 113 1579
177 113 3600
178 113 4315
179 113 3668
180 113 1861
181 113 3461
182 113 7145
183 113 2619
184 113 4165
185 113 3236
186 113 4057
187 113 4746
188 113 3493
189 113 3761
190 113 2960
191 113 3250
192 113 2134
193 113 3331
194 113 2438
195 113 1866
196 113 3972
197 113 2821
198 113 2082
199 113 3270
200 113 3772
201 113 2054
202 113 4405
203 113 2915
204 113 4539
205 113 4215
206 113 3463
207 113 7460
208 113 6200
209 113 4766
210 113 3291
211 113 3429
212 113 3749
213 113 2776
214 113 6432
215 113 4508
216 113 1928
217 113 4070
218 113 5083
219 113 4408
220 113 4069
221 113 3828
222 113 5707
223 113 1974
224 113 3209
225 113 5198
226 113 4016
227 113 3953
228 113 3318
229 113 2918
230 113 3303
231 113 3684
232 113 4325
233 113 6354
234 113 4595
235 113 6726
236 113 4794
237 113 2765
238 113 6000
239 113 4645
240 113 3961
241 113 3180
242 113 4020
243 113 3475
244 113 5051
245 113 4136
246 113 5493
247 113 4181
248 113 3764
249 113 4988
250 113 5404
251 113 3978
252 113 3539
253 113 4591
254 113 5516
255 113 2280
256 113 3027
257 113 2418
258 113 3773
259 113 5736
260 113 4662
261 113 2175
262 113 2433
263 113 6385
264 113 4614
265 113 3890
266 113 4986
267 113 6712
268 113 4347
269 113 4054
270 113 2540
271 113 4123
272 113 2561
273 113 3663
274 113 5723
275 113 5566
276 113 2974
277 113 3661
278 113 4839
279 113 4148
280 113 3339
281 113 8461
282 113 5690
283 113 5365
284 113 4531
285 113 4127
286 113 2284
287 113 4740
288 113 3355
289 113 3345
290 113 2854
291 113 3659
292 113 4279
293 113 3746
294 113 6633
295 113 2991
296 113 4137
297 113 3925
298 113 3199
299 113 3652
300 113 2646
301 113 3415
302 113 3233
303 113 4684
304 113 3311
305 113 2294
306 113 3102
307 113 4145
308 113 4329
309 113 3560
310 113 3842
311 113 7508
312 113 5489
313 113 3314
314 113 2939
315 113 4504
316 113 2012
317 113 3227
318 113 1962
319 113 4509
320 113 5613
321 113 3603
322 113 4810
323 113 4238
324 113 3333
325 113 2586
326 113 3271
327 113 1934
328 113 2928
329 113 3632
330 113 4308
331 113 6108
332 113 3611
333 113 3996
334 113 4309
335 113 3150
336 113 3363
337 113 4122
338 113 3531
339 113 3085
340 113 2641
341 113 4566
342 113 6896
343 113 3970
344 113 4339
345 113 7673
346 113 1923
347 113 2006
348 113 3286
349 113 1697
350 113 3045
351 113 2474
352 113 5102
353 113 5523
354 113 2310
355 113 4055
356 113 3202
357 113 4886
358 113 4579
359 113 7828
360 113 3917
361 113 6126
362 113 5693
363 113 1985
364 113 3565
365 113 5212
366 113 3883
367 113 3119
368 113 2309
369 113 1687
370 113 4152
371 113 2868
372 113 4472
373 113 3294
374 113 1616
375 113 3743
376 113 7933
377 113 3661
378 113 5514
379 113 4240
380 113 1586
381 113 3837
382 113 3643
383 113 4871
384 113 1506
385 113 2743
386 113 3245
387 113 3882
388 113 3664
389 113 3603
390 113 3422
391 113 6316
392 113 3048
393 113 2979
394 113 2393
395 113 2114
396 113 3959
397 113 7123
398 113 1572
399 113 4135
400 113 3786
401 113 5098
402 113 3364
403 113 4453
404 113 3090
405 113 3919
406 113 4234
407 113 4306
408 113 4239
409 113 2202
410 113 3161
411 113 3211
412 113 4961
413 113 7194
414 113 2838
415 113 7434
416 113 2614
417 113 2025
418 113 6379
419 113 1367
420 113 2425
421 113 6669
422 113 3885
423 113 3947
424 113 2864
425 113 2055
426 113 5146
427 113 4376
428 113 1427
429 113 5186
430 113 7009
431 113 2448
432 113 2732
433 113 3479
434 113 3517
435 113 3258
436 113 3651
437 113 3143
438 113 5159
439 113 2082
440 113 3786
441 113 4065
442 113 3778
443 113 3536
444 113 4770
445 113 6355
446 113 4706
447 113 6124
448 113 2259
449 113 3861
450 113 3743
451 113 4450
452 113 3112
453 113 3168
454 113 4525
455 113 2473
456 113 3794
457 113 2852
458 113 2140
459 113 5209
460 113 5304
461 113 2779
462 113 4312
463 113 4729
464 113 8588
465 113 3222
466 113 3300
467 113 6665
468 113 2991
469 113 4376
470 113 4647
471 113 5000
472 113 6277
473 113 2567
474 113 4668
475 113 6165
476 113 3448
477 113 3639
478 113 5269
479 113 2673
480 113 4746
481 113 5589
482 113 5015
483 113 5583
484 113 6106
485 113 1924
486 113 2241
487 113 6086
488 113 4131
489 113 2769
490 113 3079
491 113 996
492 113 6346
493 113 2516
494 113 2506
495 113 3492
496 113 3954
497 113 4083
498 113 5345
499 113 3833
500 113 2912
1 114 5369
2 114 4842
3 114 7318
4 114 3076
5 114 7991
6 114 8118
7 114 6991
8 114 5581
9 114 4989
10 114 7624
11 114 6433
12 114 9117
13 114 6098
14 114 16801
15 114 4267
16 114 5113
17 114 5294
18 114 4092
19 114 8589
20 114 5123
21 114 5708
22 114 5377
23 114 3953
24 114 14682
25 114 4914
26 114 5966
27 114 8980
28 114 6090
29 114 4748
30 114 8117
31 114 8799
32 114 8176
33 114 4642
34 114 8604
35 114 9849
36 114 5486
37 114 7281
38 114 7192
39 114 9998
40 114 7045
41 114 9942
42 114 5547
43 114 9400
44 114 4042
45 114 8611
46 114 4672
47 114 6950
48 114 3896
49 114 7362
50 114 5187
51 114 14695
52 114 6389
53 114 9674
54 114 10740
55 114 6919
56 114 6653
57 114 6263
58 114 3787
59 114 5427
60 114 8996
61 114 3384
62 114 14318
63 114 14047
64 114 6491
65 114 12745
66 114 4127
67 114 5061
68 114 4279
69 114 5281
70 114 8507
71 114 5587
72 114 5925
73 114 5567
74 114 5888
75 114 3907
76 114 6926
77 114 14717
78 114 6736
79 114 8140
80 114 7074
81 114 8483
82 114 7069
83 114 7613
84 114 7639
85 114 17954
86 114 4911
87 114 11399
88 114 6216
89 114 7107
90 114 4071
91 114 4761
92 114 5861
93 114 4085
94 114 5686
95 114 6260
96 114 9929
97 114 2176
98 114 4523
99 114 10239
100 114 12180
101 114 7522
102 114 5069
103 114 3541
104 114 5971
105 114 4407
106 114 8994
107 114 9303
108 114 8203
109 114 7034
110 114 4867
111 114 4977
112 114 5212
113 114 13407
114 114 6741
115 114 9454
116 114 8204
117 114 4806
118 114 5500
119 114 9050
120 114 8091
121 114 9172
122 114 4380
123 114 4898
124 114 13394
125 114 9713
126 114 5558
127 114 5846
128 114 5869
129 114 6324
130 114 8509
131 114 4377
132 114 5860
133 114 7158
134 114 9533
135 114 6178
136 114 8499
137 114 4857
138 114 8069
139 114 5195
140 114 9450
141 114 3870
142 114 6875
143 114 5908
144 114 4709
145 114 8663
146 114 6420
147 114 14533
148 114 9485
149 114 5245
150 114 4276
151 114 5254
152 114 6356
153 114 11253
154 114 4358
155 114 9849
156 114 8243
157 114 6955
158 114 9432
159 114 7323
160 114 11654
161 114 8394
162 114 8013
163 114 8514
164 114 7411
165 114 5160
166 114 10730
167 114 14748
168 114 7502
169 114 6811
170 114 5551
171 114 4996
172 114 8398
173 114 6317
174 114 10731
175 114 4370
176 114 16034
177 114 7045
178 114 7641
179 114 15254
180 114 4658
181 114 8304
182 114 17791
183 114 6274
184 114 7923
185 114 12907
186 114 16964
187 114 10105
188 114 5725
189 114 9486
190 114 8494
191 114 4373
192 114 5037
193 114 9215
194 114 5959
195 114 4030
196 114 5895
197 114 6080
198 114 7268
199 114 8927
200 114 6810
201 114 6902
202 114 8039
203 114 5397
204 114 9809
205 114 12228
206 114 5461
207 114 15578
208 114 7589
209 114 6756
210 114 4482
211 114 5848
212 114 8558
213 114 7543
214 114 8077
215 114 7098
216 114 3938
217 114 9347
218 114 6097
219 114 8121
220 114 10756
221 114 6234
222 114 8134
223 114 9839
224 114 2055
225 114 5928
226 114 6806
227 114 7322
228 114 4741
229 114 8354
230 114 4371
231 114 8312
232 114 4234
233 114 9226
234 114 6745
235 114 13132
236 114 11473
237 114 7720
238 114 8967
239 114 6340
240 114 7106
241 114 8573
242 114 10695
243 114 8797
244 114 11494
245 114 10131
246 114 9133
247 114 7783
248 114 6170
249 114 8436
250 114 7162
251 114 7143
252 114 8210
253 114 7148
254 114 8492
255 114 8709
256 114 5559
257 114 5305
258 114 9747
259 114 6360
260 114 7952
261 114 6121
262 114 9667
263 114 8047
264 114 4496
265 114 9300
266 114 6617
267 114 8891
268 114 5300
269 114 9861
270 114 6904
271 114 8685
272 114 3242
273 114 8284
274 114 7719
275 114 7749
276 114 4744
277 114 4793
278 114 6883
279 114 8024
280 114 6401
281 114 9936
282 114 7391
283 114 6517
284 114 4125
285 114 7864
286 114 4986
287 114 7184
288 114 8691
289 114 8943
290 114 7958
291 114 5380
292 114 4144
293 114 10674
294 114 6628
295 114 5495
296 114 5167
297 114 7202
298 114 9358
299 114 4869
300 114 6426
301 114 8297
302 114 9246
303 114 4074
304 114 5989
305 114 14964
306 114 3977
307 114 14542
308 114 8343
309 114 9344
310 114 5857
311 114 15635
312 114 8651
313 114 9423
314 114 5335
315 114 7978
316 114 4367
317 114 4968
318 114 8545
319 114 8670
320 114 8979
321 114 8297
322 114 4139
323 114 9385
324 114 5001
325 114 6457
326 114 20236
327 114 4783
328 114 8520
329 114 4001
330 114 5893
331 114 6639
332 114 6113
333 114 6675
334 114 6661
335 114 10264
336 114 5024
337 114 9128
338 114 8192
339 114 3378
340 114 5917
341 114 7118
342 114 4138
343 114 6788
344 114 11808
345 114 4617
346 114 3698
347 114 4527
348 114 6017
349 114 3420
350 114 6724
351 114 4731
352 114 9497
353 114 6071
354 114 6409
355 114 5847
356 114 9765
357 114 13441
358 114 6116
359 114 6302
360 114 4518
361 114 7103
362 114 5419
363 114 9242
364 114 5110
365 114 8430
366 114 9684
367 114 3345
368 114 8520
369 114 12659
370 114 5152
371 114 3657
372 114 4470
373 114 3745
374 114 6662
375 114 5221
376 114 6237
377 114 3803
378 114 8028
379 114 6803
380 114 6304
381 114 7030
382 114 7214
383 114 6803
384 114 5676
385 114 6820
386 114 8723
387 114 4456
388 114 2877
389 114 8713
390 114 13460
391 114 6648
392 114 4989
393 114 4930
394 114 6815
395 114 9931
396 114 6803
397 114 6240
398 114 6645
399 114 10174
400 114 6918
401 114 7156
402 114 6357
403 114 9365
404 114 7066
405 114 7033
406 114 8368
407 114 9790
408 114 7311
409 114 4090
410 114 5062
411 114 5902
412 114 6943
413 114 8540
414 114 10383
415 114 5452
416 114 4822
417 114 9082
418 114 8104
419 114 2493
420 114 6417
421 114 9396
422 114 5378
423 114 3755
424 114 6400
425 114 3737
426 114 7007
427 114 9405
428 114 9000
429 114 9134
430 114 10270
431 114 7013
432 114 6855
433 114 4770
434 114 5178
435 114 5464
436 114 5935
437 114 6980
438 114 8558
439 114 7195
440 114 6775
441 114 9195
442 114 8066
443 114 4643
444 114 18169
445 114 7369
446 114 5919
447 114 7014
448 114 17294
449 114 5799
450 114 6877
451 114 6268
452 114 4835
453 114 7054
454 114 6112
455 114 11092
456 114 7314
457 114 12102
458 114 8595
459 114 12328
460 114 4897
461 114 3694
462 114 5783
463 114 7284
464 114 12426
465 114 6879
466 114 5362
467 114 8895
468 114 6006
469 114 6992
470 114 7096
471 114 8183
472 114 9383
473 114 9506
474 114 4013
475 114 8253
476 114 4839
477 114 6734
478 114 8372
479 114 8531
480 114 10305
481 114 6046
482 114 9143
483 114 5205
484 114 13470
485 114 3784
486 114 4017
487 114 13440
488 114 5749
489 114 7981
490 114 7744
491 114 6768
492 114 9804
493 114 6768
494 114 4307
495 114 2933
496 114 8091
497 114 7943
498 114 4859
499 114 3228
500 114 6151
1 115 8318
2 115 5047
3 115 9259
4 115 2661
5 115 5205
6 115 5644
7 115 20605
8 115 12664
9 115 12070
10 115 8800
11 115 6366
12 115 8692
13 115 5844
14 115 6820
15 115 3965
16 115 4364
17 115 7265
18 115 4069
19 115 7074
20 115 7328
21 115 5462
22 115 4871
23 115 3546
24 115 8295
25 115 5167
26 115 11669
27 115 9879
28 115 4186
29 115 2865
30 115 9431
31 115 3892
32 115 8179
33 115 3236
34 115 9361
35 115 10804
36 115 8545
37 115 4179
38 115 7417
39 115 8680
40 115 11559
41 115 8649
42 115 5580
43 115 3957
44 115 6193
45 115 4708
46 115 12575
47 115 4395
48 115 2967
49 115 3183
50 115 9110
51 115 3649
52 115 4125
53 115 7555
54 115 7739
55 115 7594
56 115 7556
57 115 6458
58 115 6185
59 115 4246
60 115 6859
61 115 4818
62 115 8772
63 115 6397
64 115 6905
65 115 6019
66 115 11512
67 115 3714
68 115 5243
69 115 4862
70 115 6194
71 115 6486
72 115 5296
73 115 9792
74 115 5269
75 115 3839
76 115 5634
77 115 3590
78 115 9059
79 115 7561
80 115 11347
81 115 7181
82 115 5982
83 115 7125
84 115 4133
85 115 8964
86 115 6442
87 115 8708
88 115 5571
89 115 6015
90 115 5479
91 115 3997
92 115 6542
93 115 6800
94 115 9080
95 115 3298
96 115 8153
97 115 7097
98 115 12609
99 115 8084
100 115 9132
101 115 9059
102 115 6943
103 115 11243
104 115 4621
105 115 5227
106 115 6859
107 115 10975
108 115 15921
109 115 8968
110 115 6104
111 115 5120
112 115 8178
113 115 4744
114 115 4565
115 115 4985
116 115 8695
117 115 13996
118 115 9922
119 115 6386
120 115 10012
121 115 4230
122 115 5018
123 115 6814
124 115 7309
125 115 6082
126 115 6702
127 115 5257
128 115 9271
129 115 5043
130 115 8711
131 115 9206
132 115 5153
133 115 4497
134 115 7090
135 115 5477
136 115 6144
137 115 5093
138 115 5666
139 115 8505
140 115 8158
141 115 4123
142 115 4708
143 115 4572
144 115 4073
145 115 5753
146 115 4869
147 115 4608
148 115 5675
149 115 5895
150 115 4984
151 115 8059
152 115 5877
153 115 8611
154 115 9480
155 115 6825
156 115 7034
157 115 5701
158 115 8729
159 115 5072
160 115 7766
161 115 12243
162 115 3555
163 115 7959
164 115 11534
165 115 7112
166 115 4786
167 115 7603
168 115 7018
169 115 12190
170 115 6187
171 115 4977
172 115 6629
173 115 5709
174 115 3812
175 115 12559
176 115 6901
177 115 5831
178 115 7417
179 115 11563
180 115 2926
181 115 6696
182 115 5274
183 115 7078
184 115 9831
185 115 10167
186 115 6692
187 115 8229
188 115 6029
189 115 10221
190 115 11473
191 115 5647
192 115 5456
193 115 9174
194 115 5582
195 115 12394
196 115 5226
197 115 4152
198 115 10175
199 115 8636
200 115 5907
201 115 8807
202 115 8425
203 115 4383
204 115 11019
205 115 11562
206 115 4916
207 115 6771
208 115 7503
209 115 6627
210 115 5906
211 115 14684
212 115 7880
213 115 6770
214 115 7169
215 115 6162
216 115 12357
217 115 7300
218 115 11066
219 115 8526
220 115 10157
221 115 6443
222 115 6298
223 115 4331
224 115 6940
225 115 6479
226 115 5280
227 115 8695
228 115 5088
229 115 4150
230 115 5752
231 115 8294
232 115 8717
233 115 7383
234 115 5190
235 115 6855
236 115 7004
237 115 5968
238 115 7549
239 115 5963
240 115 7940
241 115 9336
242 115 7268
243 115 6213
244 115 8594
245 115 5571
246 115 5389
247 115 10889
248 115 7167
249 115 14868
250 115 6677
251 115 8688
252 115 7218
253 115 6076
254 115 11700
255 115 4629
256 115 8948
257 115 14241
258 115 7415
259 115 5545
260 115 6555
261 115 5045
262 115 5710
263 115 5240
264 115 5575
265 115 6486
266 115 7028
267 115 6002
268 115 5042
269 115 6715
270 115 20408
271 115 5485
272 115 5183
273 115 8316
274 115 7613
275 115 7599
276 115 8297
277 115 5430
278 115 5507
279 115 10971
280 115 7899
281 115 8442
282 115 5145
283 115 7381
284 115 4162
285 115 10826
286 115 12006
287 115 7602
288 115 4466
289 115 6165
290 115 10352
291 115 4899
292 115 8693
293 115 11933
294 115 5811
295 115 4142
296 115 7740
297 115 4900
298 115 6336
299 115 6205
300 115 15498
301 115 8302
302 115 6371
303 115 4309
304 115 11666
305 115 6458
306 115 4064
307 115 7737
308 115 16225
309 115 4730
310 115 5661
311 115 6519
312 115 6125
313 115 6475
314 115 8807
315 115 7427
316 115 4387
317 115 13898
318 115 2534
319 115 5006
320 115 6644
321 115 8841
322 115 6105
323 115 4077
324 115 6665
325 115 6540
326 115 9122
327 115 2949
328 115 11254
329 115 4091
330 115 7190
331 115 5642
332 115 6581
333 115 7077
334 115 4180
335 115 3466
336 115 6817
337 115 5472
338 115 9890
339 115 1795
340 115 6760
341 115 7635
342 115 9773
343 115 3792
344 115 5007
345 115 5853
346 115 6798
347 115 5159
348 115 11456
349 115 11261
350 115 7553
351 115 3509
352 115 8401
353 115 7681
354 115 6361
355 115 5235
356 115 7236
357 115 7886
358 115 9216
359 115 8627
360 115 5494
361 115 7030
362 115 9082
363 115 6067
364 115 5939
365 115 12031
366 115 7392
367 115 5435
368 115 6022
369 115 5764
370 115 7745
371 115 6130
372 115 5988
373 115 7549
374 115 4755
375 115 5839
376 115 11336
377 115 4775
378 115 5460
379 115 6267
380 115 4768
381 115 4861
382 115 7604
383 115 6450
384 115 5467
385 115 6064
386 115 4922
387 115 6080
388 115 8660
389 115 5737
390 115 4716
391 115 8523
392 115 6246
393 115 7531
394 115 7528
395 115 10729
396 115 3604
397 115 3692
398 115 4738
399 115 5446
400 115 4474
401 115 6339
402 115 5501
403 115 13304
404 115 10158
405 115 7882
406 115 11530
407 115 6575
408 115 8364
409 115 7314
410 115 3069
411 115 10265
412 115 5579
413 115 8740
414 115 7884
415 115 10377
416 115 3742
417 115 3653
418 115 7222
419 115 3706
420 115 3110
421 115 13169
422 115 11398
423 115 3184
424 115 3470
425 115 7132
426 115 6443
427 115 4013
428 115 4394
429 115 9813
430 115 8149
431 115 7591
432 115 6984
433 115 8589
434 115 6010
435 115 5072
436 115 5740
437 115 7848
438 115 11856
439 115 7153
440 115 4442
441 115 4766
442 115 3868
443 115 4014
444 115 9073
445 115 10212
446 115 5677
447 115 7160
448 115 10125
449 115 5911
450 115 4654
451 115 6981
452 115 5237
453 115 7859
454 115 4429
455 115 3691
456 115 9265
457 115 9623
458 115 4880
459 115 8970
460 115 7038
461 115 2350
462 115 9297
463 115 5455
464 115 9038
465 115 8485
466 115 7178
467 115 5915
468 115 9304
469 115 15818
470 115 6161
471 115 6017
472 115 7445
473 115 6087
474 115 4309
475 115 4515
476 115 6740
477 115 5976
478 115 11778
479 115 7073
480 115 5321
481 115 7855
482 115 9591
483 115 6867
484 115 3758
485 115 5560
486 115 2798
487 115 3702
488 115 9202
489 115 9723
490 115 10074
491 115 6331
492 115 8628
493 115 3341
494 115 11261
495 115 5809
496 115 4109
497 115 4027
498 115 10614
499 115 5501
500 115 6767
1 116 4
2 116 29
3 116 33
4 116 11
5 116 23
6 116 5
7 116 45
9 116 15
10 116 21
11 116 16
12 116 6
13 116 26
14 116 18
15 116 6
17 116 12
18 116 11
19 116 40
20 116 11
21 116 33
22 116 44
23 116 1
24 116 4
25 116 2
27 116 11
28 116 13
29 116 11
30 116 33
32 116 16
33 116 19
34 116 12
35 116 5
36 116 1
37 116 14
38 116 56
39 116 17
40 116 30
41 116 61
42 116 19
43 116 1
44 116 2
45 116 1
46 116 9
47 116 38
48 116 15
50 116 17
51 116 32
52 116 1
53 116 47
54 116 13
55 116 3
56 116 33
58 116 30
59 116 6
60 116 23
61 116 9
62 116 4
63 116 13
64 116 49
65 116 37
66 116 5
67 116 4
68 116 10
69 116 12
70 116 3
71 116 55
72 116 35
73 116 11
74 116 30
75 116 4
77 116 27
78 116 26
79 116 7
80 116 2
81 116 5
82 116 4
84 116 14
86 116 4
87 116 46
88 116 4
89 116 8
90 116 5
91 116 32
92 116 7
93 116 1
94 116 7
95 116 13
96 116 7
97 116 12
98 116 6
99 116 61
100 116 23
102 116 4
103 116 9
104 116 42
105 116 7
106 116 15
107 116 13
108 116 4
109 116 7
110 116 22
111 116 2
112 116 4
113 116 3
114 116 12
115 116 6
116 116 7
118 116 24
119 116 44
120 116 20
121 116 63
122 116 34
123 116 25
124 116 3
125 116 5
126 116 34
127 116 26
128 116 41
129 116 9
130 116 15
131 116 35
132 116 15
133 116 73
134 116 28
135 116 7
136 116 21
137 116 2
138 116 51
139 116 16
140 116 11
141 116 41
142 116 10
143 116 33
144 116 3
145 116 5
146 116 3
147 116 42
148 116 6
149 116 19
150 116 50
151 116 40
152 116 4
153 116 48
154 116 36
155 116 24
156 116 44
157 116 33
158 116 50
159 116 6
160 116 70
161 116 32
162 116 41
163 116 40
164 116 16
165 116 12
166 116 13
167 116 21
168 116 28
169 116 22
170 116 81
171 116 12
172 116 9
173 116 3
174 116 5
175 116 5
176 116 2
177 116 36
179 116 19
180 116 14
181 116 8
182 116 6
183 116 9
184 116 27
185 116 7
186 116 14
187 116 4
188 116 19
189 116 41
190 116 23
191 116 6
192 116 12
193 116 36
194 116 14
195 116 3
196 116 34
197 116 20
198 116 8
199 116 21
200 116 26
201 116 11
202 116 32
203 116 7
204 116 9
205 116 66
206 116 10
207 116 15
209 116 16
210 116 5
211 116 17
212 116 11
213 116 21
214 116 18
215 116 22
216 116 6
217 116 35
218 116 12
219 116 23
220 116 47
221 116 3
222 116 7
223 116 9
224 116 10
225 116 2
226 116 38
227 116 48
228 116 9
229 116 13
231 116 27
232 116 6
233 116 51
234 116 12
235 116 38
236 116 40
237 116 6
238 116 6
239 116 12
240 116 77
241 116 13
242 116 9
243 116 31
244 116 85
245 116 5
246 116 52
247 116 6
248 116 4
249 116 36
250 116 32
251 116 53
252 116 6
253 116 31
254 116 26
255 116 4
256 116 7
257 116 5
258 116 18
259 116 7
260 116 8
261 116 7
262 116 4
263 116 22
264 116 24
265 116 33
266 116 28
267 116 29
268 116 26
269 116 30
270 116 46
271 116 14
272 116 6
273 116 9
274 116 43
275 116 1
276 116 19
277 116 6
278 116 23
279 116 13
280 116 18
281 116 39
282 116 19
283 116 5
284 116 3
285 116 8
286 116 16
287 116 3
288 116 3
289 116 23
290 116 20
291 116 5
292 116 10
293 116 16
294 116 21
295 116 2
296 116 18
297 116 19
298 116 31
299 116 24
300 116 3
302 116 39
304 116 14
305 116 10
306 116 10
307 116 19
308 116 10
309 116 27
310 116 14
311 116 3
313 116 44
314 116 20
315 116 38
316 116 10
318 116 8
319 116 10
320 116 28
321 116 45
322 116 12
323 116 15
324 116 13
325 116 12
326 116 31
327 116 12
328 116 23
329 116 45
330 116 42
331 116 12
332 116 18
333 116 8
334 116 26
335 116 2
336 116 12
337 116 24
338 116 28
339 116 13
341 116 15
342 116 67
343 116 3
344 116 39
345 116 30
346 116 4
347 116 10
348 116 27
349 116 7
350 116 1
351 116 5
352 116 22
353 116 4
355 116 29
356 116 3
357 116 11
358 116 49
360 116 7
361 116 36
362 116 33
363 116 4
364 116 34
365 116 22
366 116 26
367 116 2
368 116 31
369 116 27
370 116 22
371 116 23
372 116 77
373 116 5
375 116 23
376 116 10
377 116 20
378 116 7
379 116 34
381 116 33
382 116 6
383 116 44
384 116 1
385 116 13
386 116 8
387 116 4
388 116 26
389 116 7
390 116 5
391 116 11
392 116 10
393 116 2
394 116 42
395 116 20
396 116 2
397 116 4
399 116 5
400 116 33
401 116 6
402 116 41
403 116 5
404 116 21
405 116 64
406 116 12
407 116 30
408 116 12
409 116 15
410 116 42
411 116 14
412 116 10
413 116 16
414 116 55
415 116 28
416 116 22
417 116 39
418 116 20
419 116 2
420 116 3
421 116 10
422 116 13
423 116 11
424 116 11
425 116 6
426 116 8
427 116 11
428 116 16
429 116 1
430 116 51
431 116 3
432 116 37
433 116 2
434 116 33
435 116 34
436 116 21
437 116 21
438 116 30
439 116 3
440 116 31
441 116 4
442 116 10
443 116 8
445 116 11
446 116 33
447 116 42
448 116 6
449 116 2
450 116 28
451 116 34
452 116 12
453 116 23
454 116 33
455 116 41
456 116 17
457 116 46
458 116 8
459 116 15
460 116 6
461 116 9
462 116 37
463 116 6
464 116 1
465 116 10
466 116 16
467 116 21
468 116 5
469 116 6
470 116 23
471 116 10
472 116 41
473 116 8
474 116 5
475 116 8
476 116 23
477 116 3
478 116 38
479 116 14
480 116 8
481 116 6
482 116 9
483 116 62
484 116 32
485 116 4
486 116 9
487 116 36
488 116 47
489 116 34
491 116 4
492 116 7
493 116 17
494 116 7
495 116 25
496 116 3
497 116 6
498 116 41
499 116 21
500 116 45
1 117 64
2 117 25
3 117 50
4 117 13
5 117 67
6 117 23
7 117 11
8 117 40
9 117 28
10 117 52
11 117 11
12 117 40
13 117 36
14 117 9
15 117 12
16 117 23
17 117 30
18 117 14
19 117 35
20 117 54
21 117 49
22 117 39
23 117 3
24 117 3
25 117 24
26 117 9
27 117 15
28 117 40
29 117 2
30 117 78
31 117 13
32 117 22
33 117 11
34 117 52
35 117 11
36 117 47
37 117 10
38 117 13
39 117 10
40 117 6
41 117 36
42 117 83
43 117 4
44 117 21
45 117 8
46 117 8
47 117 47
48 117 25
49 117 18
50 117 28
51 117 9
52 117 6
53 117 6
54 117 22
56 117 4
57 117 7
58 117 25
59 117 3
60 117 10
61 117 41
62 117 9
63 117 23
64 117 27
65 117 27
66 117 31
67 117 9
68 117 7
69 117 16
70 117 56
71 117 72
72 117 60
73 117 8
74 117 58
75 117 2
76 117 25
77 117 12
78 117 12
79 117 48
80 117 42
81 117 46
82 117 39
83 117 55
84 117 13
85 117 17
86 117 27
87 117 28
88 117 23
89 117 40
90 117 8
92 117 6
93 117 14
95 117 16
96 117 2
97 117 10
98 117 2
99 117 25
100 117 16
101 117 21
102 117 24
103 117 15
104 117 36
105 117 30
106 117 12
108 117 5
109 117 2
110 117 5
111 117 10
112 117 20
113 117 38
114 117 19
115 117 35
116 117 19
117 117 14
118 117 30
119 117 22
120 117 15
121 117 10
122 117 38
123 117 42
124 117 6
125 117 10
126 117 20
127 117 67
128 117 42
129 117 16
130 117 24
131 117 29
132 117 12
133 117 7
134 117 28
135 117 19
136 117 26
137 117 13
138 117 18
139 117 9
141 117 18
142 117 58
143 117 18
144 117 2
145 117 2
146 117 13
147 117 28
148 117 9
149 117 33
150 117 31
151 117 51
152 117 48
153 117 13
154 117 30
155 117 48
156 117 7
157 117 42
158 117 10
159 117 47
160 117 48
161 117 54
162 117 26
163 117 76
164 117 36
166 117 17
167 117 17
168 117 8
169 117 30
170 117 14
171 117 12
172 117 49
173 117 23
174 117 4
175 117 1
176 117 3
177 117 35
178 117 9
179 117 30
180 117 5
181 117 46
182 117 28
184 117 11
185 117 21
186 117 51
187 117 36
188 117 4
189 117 19
190 117 16
191 117 9
192 117 22
193 117 2
194 117 11
195 117 1
196 117 47
197 117 14
198 117 26
199 117 89
200 117 3
201 117 13
202 117 11
203 117 12
204 117 12
205 117 10
206 117 13
207 117 9
209 117 43
210 117 13
211 117 2
212 117 5
213 117 21
214 117 4
215 117 17
216 117 6
217 117 3
218 117 23
219 117 9
220 117 10
221 117 11
222 117 4
223 117 1
224 117 11
225 117 36
226 117 44
227 117 48
228 117 7
229 117 9
230 117 36
231 117 19
232 117 6
233 117 8
234 117 2
235 117 39
236 117 47
237 117 41
238 117 20
239 117 10
240 117 28
241 117 60
242 117 38
243 117 10
244 117 21
245 117 2
246 117 8
247 117 36
248 117 18
249 117 43
250 117 40
251 117 48
252 117 6
253 117 21
254 117 42
255 117 5
257 117 12
258 117 8
259 117 10
260 117 13
261 117 7
262 117 9
263 117 14
264 117 36
265 117 13
266 117 6
267 117 14
268 117 13
269 117 56
270 117 8
271 117 3
272 117 7
273 117 11
274 117 4
275 117 40
276 117 8
277 117 17
278 117 62
279 117 20
280 117 12
281 117 103
282 117 36
284 117 30
285 117 21
286 117 34
287 117 37
288 117 10
289 117 25
290 117 12
291 117 13
292 117 8
293 117 39
294 117 18
295 117 13
296 117 10
297 117 8
298 117 34
299 117 26
300 117 3
301 117 11
302 117 32
303 117 28
304 117 25
305 117 7
306 117 11
307 117 20
308 117 10
309 117 11
310 117 5
311 117 11
313 117 39
314 117 33
315 117 41
316 117 8
317 117 20
318 117 10
319 117 6
320 117 75
321 117 42
322 117 16
323 117 10
324 117 1
325 117 24
326 117 38
327 117 3
328 117 24
329 117 15
330 117 28
331 117 1
332 117 36
333 117 13
334 117 19
335 117 4
336 117 2
337 117 5
338 117 11
339 117 2
340 117 4
341 117 10
342 117 23
343 117 6
344 117 4
345 117 22
346 117 16
347 117 23
348 117 19
349 117 13
350 117 29
351 117 7
352 117 12
353 117 13
354 117 15
355 117 63
356 117 37
357 117 29
358 117 59
359 117 6
360 117 18
361 117 25
362 117 76
363 117 1
364 117 39
365 117 45
366 117 10
367 117 20
368 117 18
369 117 1
370 117 6
371 117 19
372 117 35
373 117 24
374 117 24
375 117 23
376 117 46
377 117 9
378 117 8
379 117 2
380 117 11
381 117 6
382 117 26
383 117 45
384 117 9
385 117 22
386 117 8
387 117 6
388 117 18
389 117 4
390 117 28
391 117 35
392 117 4
393 117 15
394 117 8
395 117 30
396 117 10
397 117 18
398 117 33
399 117 7
400 117 18
401 117 12
402 117 19
404 117 17
405 117 39
406 117 13
407 117 17
408 117 11
409 117 26
410 117 8
411 117 19
412 117 5
413 117 26
414 117 25
415 117 30
416 117 18
417 117 38
418 117 6
419 117 5
420 117 6
421 117 38
422 117 5
423 117 10
424 117 15
425 117 16
426 117 9
427 117 5
428 117 2
429 117 10
430 117 29
432 117 11
433 117 28
434 117 41
435 117 35
436 117 42
437 117 14
438 117 66
439 117 3
440 117 30
441 117 33
442 117 15
443 117 33
444 117 22
445 117 5
446 117 23
447 117 24
448 117 6
449 117 17
450 117 21
451 117 10
452 117 29
453 117 16
454 117 15
455 117 24
456 117 21
457 117 5
458 117 10
459 117 12
460 117 29
461 117 5
462 117 40
463 117 39
464 117 17
465 117 10
466 117 6
467 117 20
469 117 48
470 117 22
471 117 18
472 117 14
473 117 6
474 117 26
475 117 3
476 117 23
477 117 6
478 117 50
479 117 37
480 117 7
481 117 15
482 117 23
483 117 35
484 117 14
485 117 9
486 117 13
487 117 14
488 117 41
489 117 16
490 117 6
491 117 18
492 117 51
493 117 12
495 117 15
496 117 15
497 117 39
498 117 58
499 117 17
500 117 19
1 118 4539
2 118 2460
3 118 3703
4 118 3245
5 118 2449
6 118 2286
7 118 3291
8 118 2626
9 118 3573
10 118 2559
11 118 2012
12 118 1631
13 118 2024
14 118 2431
15 118 1743
16 118 931
17 118 1307
18 118 1470
19 118 1682
20 118 4551
21 118 4720
22 118 2211
23 118 1724
24 118 4625
25 118 2095
26 118 1749
27 118 3730
28 118 3331
29 118 1494
30 118 4234
31 118 2635
32 118 2564
33 118 2022
34 118 1752
35 118 4656
36 118 4504
37 118 1475
38 118 3518
39 118 4258
40 118 2916
41 118 3666
42 118 2925
43 118 2020
44 118 1778
45 118 1774
46 118 2505
47 118 3670
48 118 3806
49 118 2100
50 118 2273
51 118 3247
52 118 3585
53 118 2836
54 118 3949
55 118 3109
56 118 2699
57 118 1721
58 118 1927
59 118 3403
60 118 3808
61 118 2484
62 118 2596
63 118 4861
64 118 2601
65 118 3841
66 118 2661
67 118 1464
68 118 1492
69 118 1866
70 118 3930
71 118 2910
72 118 2752
73 118 2513
74 118 2726
75 118 796
76 118 2650
77 118 3321
78 118 3233
79 118 2758
80 118 1853
81 118 3166
82 118 1751
83 118 3412
84 118 1704
85 118 3834
86 118 2338
87 118 3702
88 118 3510
89 118 1686
90 118 1749
91 118 1368
92 118 2863
93 118 1631
94 118 2373
95 118 2984
96 118 2326
97 118 1290
98 118 3390
99 118 5443
100 118 1914
101 118 2526
102 118 2138
103 118 2041
104 118 3057
105 118 2587
106 118 3848
107 118 3388
108 118 3366
109 118 4518
110 118 1479
111 118 2226
112 118 2412
113 118 2055
114 118 4198
115 118 1943
116 118 2452
117 118 819
118 118 3688
119 118 3849
120 118 4406
121 118 3091
122 118 4975
123 118 2049
124 118 2640
125 118 2410
126 118 3815
127 118 2774
128 118 4025
129 118 1623
130 118 4666
131 118 3905
132 118 2369
133 118 3467
134 118 4918
135 118 1923
136 118 3287
137 118 2179
138 118 6561
139 118 1685
140 118 4254
141 118 3082
142 118 2911
143 118 3038
144 118 2947
145 118 2253
146 118 983
147 118 1530
148 118 2398
149 118 4029
150 118 4967
151 118 2568
152 118 3266
153 118 3620
154 118 3834
155 118 2190
156 118 2434
157 118 2978
158 118 2853
159 118 3043
160 118 4999
161 118 4122
162 118 2971
163 118 4776
164 118 2282
165 118 4517
166 118 2097
167 118 2231
168 118 3039
169 118 3029
170 118 2205
171 118 2462
172 118 5194
173 118 1849
174 118 1319
175 118 3291
176 118 2223
177 118 2941
178 118 2707
179 118 3413
180 118 1495
181 118 2537
182 118 2943
183 118 2945
184 118 3522
185 118 2628
186 118 2690
187 118 4506
188 118 1360
189 118 3061
190 118 2879
191 118 2931
192 118 1378
193 118 2924
194 118 2113
195 118 1973
196 118 2816
197 118 1456
198 118 2270
199 118 5424
200 118 4938
201 118 1674
202 118 4175
203 118 1442
204 118 4650
205 118 5181
206 118 2864
207 118 4976
208 118 2750
209 118 3853
210 118 2934
211 118 2568
212 118 3532
213 118 3093
214 118 2270
215 118 3756
216 118 1969
217 118 3594
218 118 4767
219 118 4177
220 118 1968
221 118 4062
222 118 2545
223 118 1984
224 118 1199
225 118 3111
226 118 3329
227 118 2059
228 118 3507
229 118 2762
230 118 2162
231 118 4076
232 118 2683
233 118 3524
234 118 2539
235 118 3685
236 118 3205
237 118 2029
238 118 3853
239 118 4102
240 118 4916
241 118 1839
242 118 3243
243 118 2997
244 118 3154
245 118 2530
246 118 3116
247 118 3080
248 118 4141
249 118 4698
250 118 5998
251 118 2049
252 118 1272
253 118 3911
254 118 3147
255 118 1732
256 118 2340
257 118 2460
258 118 1911
259 118 1970
260 118 4445
261 118 1673
262 118 2730
263 118 2907
264 118 1758
265 118 2962
266 118 2514
267 118 2312
268 118 3019
269 118 2253
270 118 3247
271 118 3060
272 118 1203
273 118 2974
274 118 2296
275 118 4046
276 118 2503
277 118 1657
278 118 5085
279 118 3062
280 118 3130
281 118 4411
282 118 3237
283 118 2397
284 118 3062
285 118 3065
286 118 3488
287 118 3494
288 118 3289
289 118 4117
290 118 2972
291 118 2856
292 118 2630
293 118 3613
294 118 2760
295 118 2532
296 118 2629
297 118 2224
298 118 3125
299 118 1829
300 118 1752
301 118 2793
302 118 3089
303 118 3101
304 118 3100
305 118 1996
306 118 1439
307 118 2315
308 118 3358
309 118 2525
310 118 3191
311 118 4962
312 118 3455
313 118 3136
314 118 2250
315 118 3156
316 118 1179
317 118 772
318 118 2164
319 118 3546
320 118 3241
321 118 4083
322 118 2806
323 118 4554
324 118 2866
325 118 1676
326 118 3549
327 118 1502
328 118 2990
329 118 3100
330 118 2778
331 118 4556
332 118 3494
333 118 2688
334 118 2335
335 118 3169
336 118 2781
337 118 4503
338 118 4373
339 118 1481
340 118 4088
341 118 3390
342 118 5717
343 118 1137
344 118 2216
345 118 2524
346 118 1286
347 118 2586
348 118 3185
349 118 1964
350 118 2926
351 118 2766
352 118 4423
353 118 3352
354 118 1785
355 118 2716
356 118 1875
357 118 4926
358 118 4770
359 118 2122
360 118 4516
361 118 2856
362 118 3508
363 118 2166
364 118 3410
365 118 3120
366 118 1914
367 118 1226
368 118 3306
369 118 3068
370 118 2717
371 118 1972
372 118 2326
373 118 2089
374 118 1426
375 118 4079
376 118 2603
377 118 1154
378 118 3010
379 118 2201
380 118 984
381 118 2212
382 118 3296
383 118 3455
384 118 1492
385 118 3169
386 118 2686
387 118 1107
388 118 1448
389 118 2287
390 118 2106
391 118 4092
392 118 2980
393 118 3381
394 118 2915
395 118 1675
396 118 2011
397 118 2912
398 118 1452
399 118 2455
400 118 2232
401 118 2929
402 118 3102
403 118 4639
404 118 3336
405 118 5211
406 118 4158
407 118 3506
408 118 4251
409 118 1442
410 118 2197
411 118 1979
412 118 2746
413 118 4525
414 118 5462
415 118 3868
416 118 2152
417 118 3295
418 118 2228
419 118 1079
420 118 2617
421 118 5657
422 118 4817
423 118 1213
424 118 2768
425 118 1347
426 118 3075
427 118 4578
428 118 1456
429 118 2437
430 118 3059
431 118 3083
432 118 4023
433 118 2641
434 118 3396
435 118 1862
436 118 1994
437 118 2494
438 118 3086
439 118 1437
440 118 2318
441 118 1536
442 118 2739
443 118 3568
444 118 3719
445 118 1569
446 118 4057
447 118 2850
448 118 3574
449 118 1489
450 118 2237
451 118 3611
452 118 1768
453 118 2529
454 118 3070
455 118 2086
456 118 2934
457 118 2951
458 118 1779
459 118 1654
460 118 4100
461 118 1622
462 118 3956
463 118 4139
464 118 4157
465 118 2629
466 118 2084
467 118 2231
468 118 2141
469 118 2862
470 118 3776
471 118 3195
472 118 3636
473 118 2485
474 118 3061
475 118 3497
476 118 1193
477 118 2945
478 118 3049
479 118 1975
480 118 2792
481 118 3468
482 118 2277
483 118 2686
484 118 4789
485 118 3258
486 118 2039
487 118 4776
488 118 4050
489 118 2381
490 118 2783
491 118 1441
492 118 2528
493 118 1524
494 118 3057
495 118 1451
496 118 4194
497 118 1982
498 118 5629
499 118 2622
500 118 2757
64 119 5
114 119 2
115 119 4
161 119 5
162 119 6
174 119 2
186 119 2
189 119 5
217 119 5
281 119 3
483 119 3
1 120 1050
2 120 1790
3 120 1788
4 120 1490
5 120 1058
6 120 1576
7 120 2129
8 120 2314
9 120 876
10 120 1412
11 120 1156
12 120 680
13 120 957
14 120 1888
15 120 1147
16 120 799
17 120 312
18 120 1396
19 120 1039
20 120 1538
21 120 1263
22 120 1185
23 120 461
24 120 882
25 120 2313
26 120 1170
27 120 1536
28 120 2090
29 120 789
30 120 2682
31 120 708
32 120 1373
33 120 1232
34 120 495
35 120 1849
36 120 1001
37 120 721
38 120 2267
39 120 1768
40 120 1246
41 120 2662
42 120 1790
43 120 1580
44 120 1725
45 120 1729
46 120 958
47 120 1413
48 120 1343
49 120 579
50 120 1064
51 120 1365
52 120 1032
53 120 982
54 120 732
55 120 1364
56 120 1640
57 120 1653
58 120 1194
59 120 1973
60 120 732
61 120 879
62 120 1787
63 120 1082
64 120 514
65 120 857
66 120 1242
67 120 744
68 120 914
69 120 1495
70 120 1667
71 120 552
72 120 1825
73 120 450
74 120 1777
75 120 756
76 120 973
77 120 1328
78 120 1872
79 120 1574
80 120 1226
81 120 1041
82 120 650
83 120 1414
84 120 1097
85 120 1625
86 120 1337
87 120 799
88 120 1273
89 120 680
90 120 793
91 120 1072
92 120 1080
93 120 757
94 120 1544
95 120 882
96 120 1192
97 120 1114
98 120 1359
99 120 2279
100 120 1582
101 120 1280
102 120 1596
103 120 1094
104 120 1334
105 120 893
106 120 719
107 120 1715
108 120 1278
109 120 1670
110 120 770
111 120 2341
112 120 2686
113 120 1325
114 120 1603
115 120 1625
116 120 925
117 120 868
118 120 2491
119 120 3000
120 120 1234
121 120 1393
122 120 1800
123 120 2129
124 120 1709
125 120 3462
126 120 1177
127 120 1835
128 120 1679
129 120 1776
130 120 1263
131 120 2528
132 120 1290
133 120 1310
134 120 1270
135 120 1389
136 120 1710
137 120 2401
138 120 1492
139 120 909
140 120 1179
141 120 328
142 120 1454
143 120 1048
144 120 1490
145 120 1818
146 120 472
147 120 1007
148 120 506
149 120 911
150 120 1913
151 120 1323
152 120 1655
153 120 870
154 120 2430
155 120 1186
156 120 1508
157 120 1401
158 120 1295
159 120 1865
160 120 1715
161 120 3346
162 120 1760
163 120 2870
164 120 489
165 120 968
166 120 2521
167 120 1001
168 120 1479
169 120 1640
170 120 1184
171 120 1149
172 120 1963
173 120 878
174 120 428
175 120 1388
176 120 503
177 120 1353
178 120 1214
179 120 535
180 120 762
181 120 1786
182 120 1248
183 120 1512
184 120 1778
185 120 946
186 120 1095
187 120 1363
188 120 1106
189 120 2230
190 120 1071
191 120 787
192 120 2337
193 120 1943
194 120 2271
195 120 448
196 120 1846
197 120 633
198 120 1070
199 120 2493
200 120 1050
201 120 748
202 120 680
203 120 711
204 120 1825
205 120 1487
206 120 1213
207 120 1874
208 120 1604
209 120 454
210 120 810
211 120 2276
212 120 2582
213 120 617
214 120 1507
215 120 1735
216 120 488
217 120 873
218 120 1866
219 120 732
220 120 882
221 120 1533
222 120 2287
223 120 979
224 120 1138
225 120 872
226 120 1203
227 120 1464
228 120 1165
229 120 642
230 120 1445
231 120 780
232 120 612
233 120 2645
234 120 1082
235 120 2070
236 120 1692
237 120 939
238 120 1738
239 120 1474
240 120 1019
241 120 540
242 120 1207
243 120 1382
244 120 1118
245 120 1863
246 120 1384
247 120 1398
248 120 1068
249 120 1665
250 120 1955
251 120 1524
252 120 1362
253 120 1712
254 120 2481
255 120 1744
256 120 1636
257 120 842
258 120 1168
259 120 894
260 120 1414
261 120 680
262 120 1837
263 120 962
264 120 202
265 120 2410
266 120 1872
267 120 1001
268 120 1394
269 120 1161
270 120 2091
271 120 793
272 120 562
273 120 1739
274 120 1059
275 120 1941
276 120 1402
277 120 2090
278 120 2198
279 120 1396
280 120 1750
281 120 2485
282 120 971
283 120 1140
284 120 1281
285 120 1442
286 120 885
287 120 1974
288 120 1166
289 120 1242
290 120 1183
291 120 1233
292 120 644
293 120 1464
294 120 947
295 120 1133
296 120 1062
297 120 863
298 120 701
299 120 1696
300 120 893
301 120 1208
302 120 731
303 120 1310
304 120 2369
305 120 1104
306 120 1469
307 120 1086
308 120 1224
309 120 1453
310 120 2121
311 120 1847
312 120 1377
313 120 733
314 120 1073
315 120 1877
316 120 948
317 120 913
318 120 946
319 120 1314
320 120 1968
321 120 2152
322 120 1751
323 120 1375
324 120 1068
325 120 1070
326 120 1089
327 120 753
328 120 1069
329 120 295
330 120 2300
331 120 1288
332 120 1045
333 120 1350
334 120 1606
335 120 1304
336 120 1052
337 120 2456
338 120 1306
339 120 1184
340 120 2266
341 120 1469
342 120 2124
343 120 955
344 120 1286
345 120 746
346 120 467
347 120 890
348 120 2442
349 120 1097
350 120 899
351 120 343
352 120 1793
353 120 1957
354 120 1635
355 120 1886
356 120 1427
357 120 1644
358 120 1561
359 120 1415
360 120 1170
361 120 2057
362 120 824
363 120 457
364 120 872
365 120 2644
366 120 1197
367 120 538
368 120 1122
369 120 1635
370 120 1063
371 120 1208
372 120 1120
373 120 1013
374 120 1137
375 120 996
376 120 908
377 120 896
378 120 1317
379 120 1362
380 120 482
381 120 897
382 120 1144
383 120 825
384 120 663
385 120 1335
386 120 1720
387 120 1701
388 120 1350
389 120 1873
390 120 1344
391 120 2438
392 120 362
393 120 2188
394 120 2678
395 120 772
396 120 1668
397 120 1096
398 120 1101
399 120 1828
400 120 399
401 120 1442
402 120 1490
403 120 976
404 120 1945
405 120 991
406 120 2535
407 120 2532
408 120 3067
409 120 673
410 120 876
411 120 877
412 120 1723
413 120 1192
414 120 2188
415 120 2698
416 120 1396
417 120 1234
418 120 1473
419 120 638
420 120 832
421 120 1404
422 120 2291
423 120 994
424 120 773
425 120 449
426 120 1482
427 120 1366
428 120 1406
429 120 1559
430 120 1483
431 120 1323
432 120 1877
433 120 1769
434 120 877
435 120 1607
436 120 1033
437 120 2108
438 120 2562
439 120 671
440 120 404
441 120 1293
442 120 810
443 120 1457
444 120 1593
445 120 1623
446 120 1591
447 120 1976
448 120 1103
449 120 1156
450 120 401
451 120 1138
452 120 1405
453 120 2088
454 120 1119
455 120 1313
456 120 674
457 120 1365
458 120 1738
459 120 1777
460 120 2436
461 120 929
462 120 1706
463 120 1076
464 120 1760
465 120 1166
466 120 1844
467 120 970
468 120 1385
469 120 2042
470 120 1710
471 120 1778
472 120 2723
473 120 2625
474 120 1352
475 120 836
476 120 443
477 120 2395
478 120 2639
479 120 154
480 120 1697
481 120 1906
482 120 1821
483 120 1449
484 120 1176
485 120 741
486 120 1320
487 120 1111
488 120 1786
489 120 1320
490 120 1380
491 120 743
492 120 1624
493 120 762
494 120 1353
495 120 1327
496 120 1422
497 120 1220
498 120 2618
499 120 1156
500 120 1118
2 121 1
3 121 5
4 121 5
5 121 5
14 121 4
30 121 4
34 121 1
40 121 5
52 121 2
56 121 3
59 121 2
61 121 6
62 121 3
68 121 4
71 121 3
76 121 5
78 121 2
82 121 4
89 121 3
92 121 4
94 121 3
114 121 5
139 121 4
143 121 3
149 121 3
159 121 3
161 121 4
163 121 10
167 121 6
186 121 4
191 121 7
194 121 4
205 121 6
210 121 5
221 121 3
241 121 4
243 121 8
248 121 3
256 121 3
277 121 2
293 121 6
294 121 5
307 121 3
326 121 2
334 121 4
346 121 4
359 121 5
372 121 2
375 121 8
394 121 9
404 121 9
407 121 10
425 121 2
430 121 5
432 121 3
441 121 2
443 121 5
451 121 3
454 121 4
455 121 2
477 121 5
482 121 1
490 121 5
1 122 5688
2 122 10512
3 122 13269
4 122 8402
5 122 7595
6 122 8103
7 122 18116
8 122 8468
9 122 8604
10 122 8110
11 122 4315
12 122 7139
13 122 7153
14 122 5832
15 122 7767
16 122 15525
17 122 8738
18 122 6356
19 122 7382
20 122 14827
21 122 5327
22 122 5652
23 122 6533
24 122 9368
25 122 5929
26 122 3101
27 122 10509
28 122 8272
29 122 6212
30 122 13108
31 122 9451
32 122 10742
33 122 3198
34 122 7727
35 122 4333
36 122 5637
37 122 6114
38 122 10810
39 122 9553
40 122 5220
41 122 9098
42 122 8397
43 122 10074
44 122 7659
45 122 8056
46 122 7665
47 122 12157
48 122 8945
49 122 18230
50 122 6264
51 122 8728
52 122 12463
53 122 9080
54 122 10484
55 122 12124
56 122 5371
57 122 6411
58 122 15995
59 122 8967
60 122 7309
61 122 14443
62 122 8086
63 122 12399
64 122 5928
65 122 14618
66 122 10416
67 122 3335
68 122 8772
69 122 6101
70 122 9286
71 122 12889
72 122 10810
73 122 11122
74 122 11058
75 122 13151
76 122 6817
77 122 8798
78 122 9853
79 122 6348
80 122 9249
81 122 5880
82 122 5306
83 122 9863
84 122 7294
85 122 8058
86 122 8010
87 122 12691
88 122 8764
89 122 5372
90 122 13082
91 122 11205
92 122 6635
93 122 5543
94 122 6023
95 122 14991
96 122 4198
97 122 10429
98 122 11420
99 122 5302
100 122 13547
101 122 13032
102 122 18453
103 122 9313
104 122 8110
105 122 7417
106 122 7253
107 122 10974
108 122 7850
109 122 13056
110 122 8151
111 122 5952
112 122 12655
113 122 7655
114 122 7434
115 122 14161
116 122 6314
117 122 8118
118 122 20329
119 122 7329
120 122 9236
121 122 12899
122 122 12226
123 122 13537
124 122 11345
125 122 7607
126 122 12210
127 122 10825
128 122 7318
129 122 6399
130 122 9367
131 122 9127
132 122 12180
133 122 7827
134 122 6390
135 122 5721
136 122 8729
137 122 5924
138 122 8721
139 122 10680
140 122 15032
141 122 5580
142 122 12680
143 122 21528
144 122 8013
145 122 8888
146 122 6676
147 122 6520
148 122 12353
149 122 9183
150 122 12436
151 122 11931
152 122 8971
153 122 12437
154 122 8926
155 122 15004
156 122 7308
157 122 9062
158 122 5753
159 122 11127
160 122 7171
161 122 12859
162 122 6726
163 122 12097
164 122 6921
165 122 8809
166 122 10431
167 122 9089
168 122 10900
169 122 8562
170 122 7794
171 122 5867
172 122 11792
173 122 10206
174 122 5257
175 122 11148
176 122 5548
177 122 8953
178 122 15425
179 122 5901
180 122 6138
181 122 13001
182 122 8314
183 122 12064
184 122 10245
185 122 6755
186 122 14915
187 122 8390
188 122 7509
189 122 7073
190 122 12627
191 122 4943
192 122 9514
193 122 9936
194 122 30709
195 122 4642
196 122 10713
197 122 4731
198 122 8722
199 122 6751
200 122 9871
201 122 3188
202 122 8755
203 122 5111
204 122 4605
205 122 12268
206 122 5820
207 122 14941
208 122 9552
209 122 6906
210 122 4908
211 122 7179
212 122 16057
213 122 8343
214 122 7934
215 122 8386
216 122 4539
217 122 12802
218 122 8182
219 122 8456
220 122 6839
221 122 8557
222 122 5288
223 122 6518
224 122 10380
225 122 6748
226 122 8926
227 122 13740
228 122 4854
229 122 3263
230 122 21108
231 122 12100
232 122 7202
233 122 15965
234 122 11946
235 122 9788
236 122 13924
237 122 11131
238 122 7250
239 122 12173
240 122 15119
241 122 7985
242 122 13663
243 122 13803
244 122 5165
245 122 9763
246 122 9933
247 122 9771
248 122 6610
249 122 7215
250 122 28804
251 122 13440
252 122 9069
253 122 8312
254 122 7605
255 122 7848
256 122 6068
257 122 6764
258 122 4898
259 122 10147
260 122 10097
261 122 3796
262 122 8744
263 122 13284
264 122 14130
265 122 10493
266 122 5062
267 122 8197
268 122 7496
269 122 14577
270 122 18037
271 122 11298
272 122 11131
273 122 5693
274 122 10011
275 122 10667
276 122 17812
277 122 7720
278 122 6778
279 122 9919
280 122 13521
281 122 10944
282 122 13920
283 122 7040
284 122 9324
285 122 9871
286 122 8373
287 122 14974
288 122 16449
289 122 12574
290 122 5783
291 122 5860
292 122 7190
293 122 6368
294 122 4545
295 122 7781
296 122 8966
297 122 9101
298 122 10106
299 122 9439
300 122 2941
301 122 8981
302 122 9924
303 122 9528
304 122 6464
305 122 8766
306 122 6532
307 122 9169
308 122 7967
309 122 7270
310 122 6891
311 122 14793
312 122 7563
313 122 10145
314 122 6246
315 122 15709
316 122 8924
317 122 8188
318 122 7853
319 122 8677
320 122 12747
321 122 7572
322 122 5758
323 122 6484
324 122 12835
325 122 8023
326 122 6952
327 122 6298
328 122 12655
329 122 5535
330 122 5966
331 122 12316
332 122 8905
333 122 6539
334 122 10470
335 122 9922
336 122 13152
337 122 10909
338 122 9448
339 122 7491
340 122 7847
341 122 8368
342 122 6907
343 122 15173
344 122 7252
345 122 11337
346 122 9075
347 122 7477
348 122 6404
349 122 9295
350 122 8460
351 122 2624
352 122 16536
353 122 15252
354 122 6292
355 122 10993
356 122 6014
357 122 7666
358 122 15513
359 122 8632
360 122 9679
361 122 9112
362 122 10942
363 122 13794
364 122 9804
365 122 7773
366 122 4821
367 122 2933
368 122 7276
369 122 4051
370 122 8976
371 122 15800
372 122 8870
373 122 6011
374 122 10231
375 122 9332
376 122 9740
377 122 9216
378 122 10149
379 122 7125
380 122 6669
381 122 9342
382 122 8125
383 122 8235
384 122 6593
385 122 7333
386 122 8895
387 122 7922
388 122 6297
389 122 8810
390 122 7763
391 122 11811
392 122 4697
393 122 7080
394 122 8112
395 122 6836
396 122 7093
397 122 6706
398 122 10045
399 122 9624
400 122 9810
401 122 10694
402 122 8654
403 122 12888
404 122 6254
405 122 15164
406 122 11802
407 122 9427
408 122 12968
409 122 7413
410 122 9593
411 122 3967
412 122 6736
413 122 9637
414 122 5387
415 122 7382
416 122 12677
417 122 17467
418 122 8219
419 122 9235
420 122 7459
421 122 22194
422 122 9080
423 122 6538
424 122 6084
425 122 9310
426 122 10759
427 122 6312
428 122 14284
429 122 6390
430 122 8294
431 122 12346
432 122 14840
433 122 6417
434 122 9886
435 122 13552
436 122 7201
437 122 6219
438 122 7702
439 122 3648
440 122 9659
441 122 9599
442 122 8615
443 122 7249
444 122 8099
445 122 10226
446 122 8914
447 122 8947
448 122 11452
449 122 10807
450 122 9605
451 122 4571
452 122 26873
453 122 6210
454 122 21437
455 122 6402
456 122 9948
457 122 6627
458 122 8144
459 122 12932
460 122 6192
461 122 8774
462 122 7482
463 122 8810
464 122 8212
465 122 7932
466 122 12510
467 122 8263
468 122 9295
469 122 7272
470 122 8427
471 122 7073
472 122 16340
473 122 5635
474 122 9423
475 122 9296
476 122 6550
477 122 6358
478 122 7769
479 122 8446
480 122 8724
481 122 15363
482 122 7941
483 122 12001
484 122 6274
485 122 10594
486 122 6747
487 122 5953
488 122 7376
489 122 7346
490 122 13196
491 122 5712
492 122 9256
493 122 9128
494 122 15589
495 122 9455
496 122 6706
497 122 8824
498 122 7603
499 122 5212
500 122 10710
1 123 67
2 123 36
3 123 554
4 123 36
5 123 171
6 123 69
7 123 111
8 123 28
9 123 19
10 123 222
11 123 101
12 123 71
13 123 223
14 123 68
15 123 176
16 123 133
17 123 131
18 123 30
19 123 166
20 123 137
21 123 217
22 123 288
23 123 25
24 123 83
25 123 63
26 123 135
27 123 36
28 123 195
29 123 119
30 123 872
31 123 70
32 123 356
33 123 131
34 123 71
35 123 293
36 123 61
37 123 61
38 123 244
39 123 104
40 123 102
41 123 203
42 123 110
43 123 209
44 123 81
45 123 132
46 123 115
47 123 47
48 123 30
49 123 339
50 123 158
51 123 111
52 123 376
53 123 564
54 123 121
55 123 228
56 123 346
57 123 53
58 123 78
59 123 236
60 123 206
61 123 207
62 123 42
63 123 156
64 123 375
65 123 50
66 123 120
67 123 66
68 123 20
69 123 43
70 123 69
71 123 685
72 123 159
73 123 351
74 123 179
75 123 168
76 123 36
77 123 107
78 123 429
79 123 61
80 123 214
81 123 210
82 123 226
83 123 86
84 123 40
85 123 105
86 123 42
87 123 95
88 123 276
89 123 253
90 123 55
91 123 58
92 123 126
93 123 82
94 123 57
95 123 37
96 123 271
97 123 77
98 123 115
99 123 141
100 123 86
101 123 71
102 123 25
103 123 147
104 123 29
105 123 121
106 123 238
107 123 152
108 123 126
109 123 181
110 123 61
111 123 58
112 123 95
113 123 91
114 123 762
115 123 271
116 123 231
117 123 110
118 123 125
119 123 654
120 123 163
121 123 283
122 123 356
123 123 66
124 123 100
125 123 48
126 123 210
127 123 136
128 123 106
129 123 37
130 123 110
131 123 133
132 123 130
133 123 107
134 123 206
135 123 313
136 123 118
137 123 54
138 123 229
139 123 44
140 123 114
141 123 169
142 123 122
143 123 146
144 123 95
145 123 110
146 123 48
147 123 226
148 123 155
149 123 168
150 123 375
151 123 115
152 123 132
153 123 110
154 123 122
155 123 189
156 123 146
157 123 146
158 123 343
159 123 103
160 123 91
161 123 274
162 123 514
163 123 112
164 123 351
165 123 65
166 123 45
167 123 106
168 123 70
169 123 44
170 123 37
171 123 93
172 123 204
173 123 63
174 123 35
175 123 94
176 123 157
177 123 165
178 123 77
179 123 510
180 123 134
181 123 182
182 123 108
183 123 33
184 123 72
185 123 111
186 123 384
187 123 101
188 123 65
189 123 512
190 123 101
191 123 42
192 123 118
193 123 345
194 123 57
195 123 325
196 123 153
197 123 65
198 123 71
199 123 90
200 123 84
201 123 63
202 123 128
203 123 66
204 123 285
205 123 187
206 123 58
207 123 208
208 123 69
209 123 75
210 123 44
211 123 131
212 123 140
213 123 104
214 123 438
215 123 116
216 123 330
217 123 53
218 123 225
219 123 135
220 123 66
221 123 76
222 123 60
223 123 124
224 123 68
225 123 63
226 123 277
227 123 86
228 123 246
229 123 50
230 123 45
231 123 46
232 123 86
233 123 71
234 123 152
235 123 163
236 123 127
237 123 20
238 123 151
239 123 117
240 123 485
241 123 64
242 123 119
243 123 90
244 123 372
245 123 43
246 123 238
247 123 194
248 123 163
249 123 212
250 123 74
251 123 85
252 123 46
253 123 115
254 123 170
255 123 138
256 123 55
257 123 160
258 123 50
259 123 72
260 123 364
261 123 361
262 123 194
263 123 63
264 123 39
265 123 60
266 123 430
267 123 182
268 123 37
269 123 191
270 123 136
271 123 56
272 123 206
273 123 106
274 123 76
275 123 131
276 123 457
277 123 77
278 123 78
279 123 191
280 123 140
281 123 726
282 123 479
283 123 28
284 123 745
285 123 180
286 123 25
287 123 196
288 123 242
289 123 82
290 123 96
291 123 65
292 123 93
293 123 63
294 123 49
295 123 148
296 123 182
297 123 201
298 123 120
299 123 77
300 123 68
301 123 55
302 123 103
303 123 789
304 123 153
305 123 144
306 123 35
307 123 141
308 123 127
309 123 100
310 123 8
311 123 212
312 123 54
313 123 106
314 123 163
315 123 170
316 123 99
317 123 84
318 123 61
319 123 435
320 123 119
321 123 154
322 123 81
323 123 75
324 123 32
325 123 100
326 123 124
327 123 130
328 123 122
329 123 150
330 123 62
331 123 410
332 123 87
333 123 90
334 123 118
335 123 107
336 123 39
337 123 165
338 123 183
339 123 65
340 123 152
341 123 304
342 123 95
343 123 108
344 123 306
345 123 68
346 123 52
347 123 115
348 123 129
349 123 111
350 123 404
351 123 38
352 123 67
353 123 65
354 123 51
355 123 165
356 123 106
357 123 106
358 123 76
359 123 155
360 123 727
361 123 148
362 123 134
363 123 108
364 123 74
365 123 169
366 123 59
367 123 408
368 123 89
369 123 148
370 123 169
371 123 104
372 123 226
373 123 58
374 123 89
375 123 155
376 123 41
377 123 159
378 123 123
379 123 36
380 123 42
381 123 216
382 123 146
383 123 64
384 123 236
385 123 123
386 123 204
387 123 104
388 123 133
389 123 104
390 123 101
391 123 99
392 123 21
393 123 110
394 123 125
395 123 101
396 123 57
397 123 43
398 123 97
399 123 50
400 123 136
401 123 274
402 123 72
403 123 354
404 123 108
405 123 437
406 123 304
407 123 107
408 123 91
409 123 223
410 123 60
411 123 99
412 123 63
413 123 128
414 123 139
415 123 893
416 123 194
417 123 132
418 123 420
419 123 102
420 123 131
421 123 464
422 123 107
423 123 189
424 123 44
425 123 34
426 123 262
427 123 76
428 123 772
429 123 42
430 123 152
431 123 202
432 123 100
433 123 154
434 123 74
435 123 58
436 123 233
437 123 84
438 123 187
439 123 44
440 123 136
441 123 184
442 123 184
443 123 181
444 123 102
445 123 196
446 123 81
447 123 164
448 123 161
449 123 71
450 123 144
451 123 261
452 123 33
453 123 88
454 123 155
455 123 90
456 123 104
457 123 109
458 123 125
459 123 84
460 123 200
461 123 65
462 123 91
463 123 76
464 123 123
465 123 305
466 123 70
467 123 201
468 123 249
469 123 66
470 123 125
471 123 228
472 123 63
473 123 84
474 123 796
475 123 46
476 123 84
477 123 78
478 123 168
479 123 46
480 123 160
481 123 60
482 123 384
483 123 166
484 123 112
485 123 302
486 123 77
487 123 153
488 123 97
489 123 238
490 123 291
491 123 222
492 123 155
493 123 222
494 123 176
495 123 196
496 123 62
497 123 126
498 123 60
499 123 219
500 123 124
1 124 3849
2 124 3450
3 124 6387
4 124 2784
5 124 2755
6 124 4288
7 124 3630
8 124 3930
9 124 5229
10 124 4657
11 124 3037
12 124 2215
13 124 4364
14 124 4450
15 124 2024
16 124 2167
17 124 2043
18 124 3564
19 124 3818
20 124 4054
21 124 3950
22 124 2558
23 124 3982
24 124 5049
25 124 3813
26 124 2299
27 124 3573
28 124 4691
29 124 3460
30 124 5533
31 124 5116
32 124 3815
33 124 1579
34 124 2093
35 124 4562
36 124 3904
37 124 3756
38 124 3025
39 124 6518
40 124 4175
41 124 4629
42 124 6414
43 124 5162
44 124 3526
45 124 5719
46 124 2366
47 124 3664
48 124 3862
49 124 6359
50 124 3949
51 124 5646
52 124 3068
53 124 6054
54 124 3875
55 124 3575
56 124 3322
57 124 4553
58 124 3810
59 124 5411
60 124 6065
61 124 2592
62 124 2745
63 124 4185
64 124 5808
65 124 2768
66 124 5309
67 124 1408
68 124 3457
69 124 2947
70 124 3619
71 124 6095
72 124 4374
73 124 5768
74 124 4345
75 124 1558
76 124 5614
77 124 5364
78 124 3411
79 124 2771
80 124 3828
81 124 5675
82 124 3220
83 124 3099
84 124 2322
85 124 5055
86 124 6910
87 124 5532
88 124 5363
89 124 3285
90 124 5344
91 124 2637
92 124 7945
93 124 1948
94 124 3388
95 124 3922
96 124 3406
97 124 1681
98 124 3649
99 124 5054
100 124 2073
101 124 3045
102 124 7151
103 124 2416
104 124 7445
105 124 2316
106 124 6045
107 124 4090
108 124 4867
109 124 4689
110 124 3226
111 124 3756
112 124 4514
113 124 3458
114 124 5683
115 124 2048
116 124 2314
117 124 2565
118 124 5523
119 124 5828
120 124 4273
121 124 4323
122 124 3697
123 124 2743
124 124 3991
125 124 3797
126 124 3559
127 124 4269
128 124 5072
129 124 4729
130 124 5535
131 124 4950
132 124 6258
133 124 5434
134 124 5789
135 124 3166
136 124 5009
137 124 3838
138 124 7313
139 124 3015
140 124 4414
141 124 3974
142 124 3777
143 124 3587
144 124 2023
145 124 6513
146 124 3302
147 124 3161
148 124 4477
149 124 4117
150 124 3673
151 124 5967
152 124 5824
153 124 5693
154 124 4934
155 124 6091
156 124 4379
157 124 5125
158 124 3225
159 124 7385
160 124 4784
161 124 4712
162 124 3170
163 124 11533
164 124 3491
165 124 6976
166 124 6072
167 124 3022
168 124 3531
169 124 3432
170 124 6506
171 124 4924
172 124 7359
173 124 3687
174 124 6468
175 124 3622
176 124 1969
177 124 5091
178 124 3757
179 124 4512
180 124 3487
181 124 5081
182 124 6237
183 124 5056
184 124 8154
185 124 3420
186 124 4207
187 124 5674
188 124 2601
189 124 5228
190 124 5352
191 124 3777
192 124 5098
193 124 3325
194 124 3454
195 124 2065
196 124 4372
197 124 3063
198 124 2389
199 124 7148
200 124 4693
201 124 1749
202 124 5897
203 124 2520
204 124 4543
205 124 7563
206 124 5075
207 124 3959
208 124 6195
209 124 4764
210 124 3791
211 124 6902
212 124 5021
213 124 3798
214 124 3218
215 124 2823
216 124 2034
217 124 4931
218 124 3972
219 124 5883
220 124 4478
221 124 4328
222 124 3988
223 124 3079
224 124 1653
225 124 4355
226 124 3705
227 124 4464
228 124 4029
229 124 3217
230 124 4514
231 124 7158
232 124 4690
233 124 2797
234 124 2864
235 124 5294
236 124 4674
237 124 2011
238 124 6014
239 124 3930
240 124 5845
241 124 2133
242 124 2468
243 124 5498
244 124 3215
245 124 3144
246 124 3049
247 124 5808
248 124 4294
249 124 6140
250 124 7274
251 124 4435
252 124 5351
253 124 2757
254 124 4901
255 124 5537
256 124 3576
257 124 2673
258 124 4049
259 124 3748
260 124 6504
261 124 2332
262 124 6949
263 124 4299
264 124 3171
265 124 4544
266 124 4215
267 124 4707
268 124 4174
269 124 6140
270 124 3614
271 124 4354
272 124 2957
273 124 9352
274 124 4064
275 124 4551
276 124 3768
277 124 4091
278 124 5138
279 124 5784
280 124 4487
281 124 7607
282 124 6039
283 124 7212
284 124 4375
285 124 5909
286 124 5001
287 124 5237
288 124 3458
289 124 2810
290 124 5423
291 124 5134
292 124 4691
293 124 3346
294 124 5083
295 124 3397
296 124 2531
297 124 5860
298 124 3435
299 124 6805
300 124 3089
301 124 5578
302 124 3481
303 124 4426
304 124 7579
305 124 2366
306 124 3573
307 124 2966
308 124 4860
309 124 2965
310 124 2960
311 124 3839
312 124 2696
313 124 3541
314 124 4008
315 124 3177
316 124 2574
317 124 2524
318 124 1663
319 124 3307
320 124 5794
321 124 3200
322 124 5061
323 124 4107
324 124 2349
325 124 6274
326 124 2334
327 124 3423
328 124 5361
329 124 4091
330 124 6135
331 124 3167
332 124 4651
333 124 3982
334 124 5413
335 124 2459
336 124 2390
337 124 4558
338 124 4243
339 124 2333
340 124 7415
341 124 3611
342 124 4912
343 124 3988
344 124 3844
345 124 4686
346 124 4417
347 124 2211
348 124 7604
349 124 2418
350 124 2325
351 124 914
352 124 6433
353 124 4865
354 124 4549
355 124 4296
356 124 2926
357 124 4988
358 124 4336
359 124 5748
360 124 6117
361 124 7160
362 124 3770
363 124 2304
364 124 4908
365 124 4854
366 124 4064
367 124 2340
368 124 3030
369 124 2656
370 124 2528
371 124 3993
372 124 5333
373 124 4026
374 124 2989
375 124 3994
376 124 4404
377 124 2407
378 124 5540
379 124 3873
380 124 3251
381 124 5918
382 124 3958
383 124 2895
384 124 4913
385 124 3855
386 124 4992
387 124 5183
388 124 3478
389 124 6335
390 124 3426
391 124 3390
392 124 2421
393 124 6766
394 124 4082
395 124 3627
396 124 3473
397 124 4038
398 124 3022
399 124 3081
400 124 3442
401 124 3714
402 124 3007
403 124 5676
404 124 6632
405 124 5870
406 124 7697
407 124 5090
408 124 5017
409 124 2195
410 124 4115
411 124 1864
412 124 5343
413 124 5559
414 124 4832
415 124 6627
416 124 2601
417 124 5131
418 124 3394
419 124 1715
420 124 3031
421 124 5911
422 124 4122
423 124 2712
424 124 4853
425 124 4693
426 124 3730
427 124 4172
428 124 2696
429 124 4476
430 124 6140
431 124 3502
432 124 6076
433 124 7538
434 124 5011
435 124 4305
436 124 4394
437 124 3135
438 124 4889
439 124 2702
440 124 3460
441 124 2776
442 124 1808
443 124 4131
444 124 5100
445 124 3778
446 124 5385
447 124 7050
448 124 4020
449 124 3304
450 124 3575
451 124 3903
452 124 3405
453 124 3110
454 124 3578
455 124 4638
456 124 5079
457 124 3907
458 124 5650
459 124 3858
460 124 4665
461 124 3188
462 124 5065
463 124 6328
464 124 4798
465 124 6200
466 124 4146
467 124 4664
468 124 2399
469 124 5269
470 124 2822
471 124 6079
472 124 3044
473 124 2737
474 124 4439
475 124 3531
476 124 2146
477 124 3211
478 124 4934
479 124 3665
480 124 3022
481 124 4897
482 124 5318
483 124 4148
484 124 4698
485 124 2247
486 124 3941
487 124 4424
488 124 5022
489 124 3424
490 124 5064
491 124 1477
492 124 5511
493 124 7305
494 124 3973
495 124 6088
496 124 4883
497 124 5906
498 124 4901
499 124 2936
500 124 3605
1 125 3770
2 125 2808
3 125 3164
4 125 1473
5 125 3718
6 125 2555
7 125 2180
8 125 2460
9 125 2885
10 125 3964
11 125 1600
12 125 1531
13 125 2876
14 125 2848
15 125 1237
16 125 1447
17 125 2019
18 125 2098
19 125 1895
20 125 2327
21 125 4020
22 125 1187
23 125 1482
24 125 3554
25 125 3343
26 125 2695
27 125 3770
28 125 2997
29 125 659
30 125 2133
31 125 3546
32 125 3166
33 125 1118
34 125 1609
35 125 2717
36 125 3824
37 125 1782
38 125 3113
39 125 2349
40 125 2725
41 125 3485
42 125 4312
43 125 1779
44 125 1908
45 125 2551
46 125 2397
47 125 4259
48 125 2447
49 125 1420
50 125 3987
51 125 2048
52 125 1041
53 125 4485
54 125 2526
55 125 3110
56 125 2775
57 125 1892
58 125 1842
59 125 2028
60 125 2573
61 125 2060
62 125 1396
63 125 1878
64 125 3303
65 125 3199
66 125 1950
67 125 669
68 125 1936
69 125 2432
70 125 2134
71 125 2841
72 125 2395
73 125 2186
74 125 2496
75 125 1945
76 125 3638
77 125 2094
78 125 2002
79 125 2574
80 125 1995
81 125 2744
82 125 1967
83 125 4566
84 125 1570
85 125 3210
86 125 1737
87 125 1812
88 125 2257
89 125 1974
90 125 1106
91 125 1273
92 125 3069
93 125 879
94 125 2714
95 125 1820
96 125 1782
97 125 1432
98 125 2520
99 125 2774
100 125 1888
101 125 2821
102 125 3147
103 125 1359
104 125 2196
105 125 2522
106 125 2524
107 125 4003
108 125 2344
109 125 2027
110 125 1581
111 125 3389
112 125 3375
113 125 2317
114 125 1922
115 125 1351
116 125 2626
117 125 1751
118 125 3425
119 125 4111
120 125 2483
121 125 2533
122 125 2666
123 125 2243
124 125 2115
125 125 3347
126 125 3113
127 125 2546
128 125 2117
129 125 2928
130 125 4257
131 125 1785
132 125 2711
133 125 2669
134 125 4708
135 125 1727
136 125 3352
137 125 3356
138 125 4974
139 125 1714
140 125 2137
141 125 2907
142 125 3989
143 125 1365
144 125 1851
145 125 3434
146 125 2410
147 125 1953
148 125 2386
149 125 2434
150 125 2645
151 125 2683
152 125 4656
153 125 1883
154 125 1774
155 125 3398
156 125 4260
157 125 3551
158 125 2107
159 125 1863
160 125 3545
161 125 3495
162 125 1751
163 125 3202
164 125 2115
165 125 2662
166 125 3208
167 125 2427
168 125 2496
169 125 2378
170 125 2614
171 125 2650
172 125 3883
173 125 2639
174 125 1343
175 125 2564
176 125 1027
177 125 3599
178 125 3763
179 125 2050
180 125 659
181 125 2374
182 125 2260
183 125 2631
184 125 3331
185 125 3164
186 125 1719
187 125 2268
188 125 1048
189 125 2793
190 125 2607
191 125 2618
192 125 3673
193 125 2669
194 125 2359
195 125 1806
196 125 2495
197 125 1663
198 125 1902
199 125 2113
200 125 2964
201 125 1382
202 125 3877
203 125 1338
204 125 2670
205 125 1809
206 125 2603
207 125 2980
208 125 2081
209 125 2740
210 125 2571
211 125 1356
212 125 2732
213 125 2757
214 125 2573
215 125 3821
216 125 1743
217 125 1645
218 125 2191
219 125 3921
220 125 1436
221 125 1871
222 125 4038
223 125 2709
224 125 1489
225 125 2725
226 125 3715
227 125 2805
228 125 2734
229 125 1714
230 125 2387
231 125 3199
232 125 2181
233 125 4083
234 125 2464
235 125 1687
236 125 2600
237 125 967
238 125 2495
239 125 3896
240 125 3394
241 125 1590
242 125 2617
243 125 3952
244 125 2647
245 125 3864
246 125 2182
247 125 3154
248 125 2780
249 125 3556
250 125 2524
251 125 2874
252 125 2104
253 125 3895
254 125 3873
255 125 2596
256 125 2761
257 125 1384
258 125 2933
259 125 2680
260 125 2541
261 125 1259
262 125 963
263 125 2806
264 125 2466
265 125 3861
266 125 2508
267 125 4291
268 125 2123
269 125 3407
270 125 2201
271 125 2179
272 125 2027
273 125 3311
274 125 1730
275 125 2143
276 125 2920
277 125 3147
278 125 4501
279 125 3175
280 125 3071
281 125 2907
282 125 1928
283 125 3017
284 125 1810
285 125 3199
286 125 2976
287 125 2693
288 125 3295
289 125 3171
290 125 2613
291 125 2530
292 125 2145
293 125 5030
294 125 4335
295 125 1437
296 125 1974
297 125 4098
298 125 2373
299 125 2795
300 125 2317
301 125 3121
302 125 2318
303 125 1897
304 125 4184
305 125 1321
306 125 2297
307 125 2413
308 125 2346
309 125 1224
310 125 1709
311 125 2974
312 125 4922
313 125 2380
314 125 3904
315 125 4178
316 125 1209
317 125 1774
318 125 1814
319 125 3153
320 125 3535
321 125 2248
322 125 1789
323 125 2650
324 125 2298
325 125 1835
326 125 2764
327 125 725
328 125 2430
329 125 2857
330 125 2757
331 125 2922
332 125 4164
333 125 1955
334 125 2368
335 125 1465
336 125 2235
337 125 3737
338 125 2604
339 125 1530
340 125 2255
341 125 4480
342 125 3691
343 125 2828
344 125 3409
345 125 2797
346 125 1276
347 125 2502
348 125 4327
349 125 1286
350 125 2954
351 125 1666
352 125 4214
353 125 2085
354 125 1906
355 125 2380
356 125 3349
357 125 4102
358 125 4164
359 125 2662
360 125 4082
361 125 3078
362 125 2483
363 125 2688
364 125 4070
365 125 3974
366 125 3022
367 125 1128
368 125 2316
369 125 1501
370 125 1949
371 125 1754
372 125 2654
373 125 3137
374 125 2437
375 125 2470
376 125 4523
377 125 1435
378 125 3040
379 125 2624
380 125 2406
381 125 4255
382 125 3198
383 125 3829
384 125 675
385 125 3091
386 125 4191
387 125 4397
388 125 2281
389 125 3431
390 125 2396
391 125 3672
392 125 2093
393 125 3424
394 125 3709
395 125 3657
396 125 2831
397 125 2023
398 125 2511
399 125 3846
400 125 2883
401 125 4109
402 125 2344
403 125 2244
404 125 3674
405 125 3463
406 125 3606
407 125 4010
408 125 3201
409 125 2641
410 125 1586
411 125 1589
412 125 2648
413 125 4204
414 125 2674
415 125 4877
416 125 2237
417 125 5253
418 125 2562
419 125 1912
420 125 2109
421 125 4911
422 125 2536
423 125 2843
424 125 2256
425 125 1257
426 125 4082
427 125 2702
428 125 778
429 125 1955
430 125 2239
431 125 2997
432 125 1623
433 125 1633
434 125 4070
435 125 1718
436 125 2758
437 125 3036
438 125 3913
439 125 1381
440 125 2972
441 125 2124
442 125 1893
443 125 5213
444 125 3241
445 125 4047
446 125 2912
447 125 3041
448 125 2001
449 125 1823
450 125 2868
451 125 2939
452 125 3130
453 125 3020
454 125 1383
455 125 2353
456 125 3180
457 125 2335
458 125 2640
459 125 1617
460 125 2183
461 125 1364
462 125 2183
463 125 2253
464 125 1234
465 125 3018
466 125 3456
467 125 4140
468 125 1813
469 125 3588
470 125 3915
471 125 2916
472 125 4212
473 125 3151
474 125 1924
475 125 3457
476 125 1167
477 125 3124
478 125 3954
479 125 2393
480 125 2180
481 125 2040
482 125 3519
483 125 2568
484 125 4180
485 125 1750
486 125 2362
487 125 4172
488 125 2182
489 125 1343
490 125 3520
491 125 735
492 125 2449
493 125 1309
494 125 3195
495 125 1740
496 125 1846
497 125 4490
498 125 4618
499 125 3130
500 125 672
