%%MatrixMarket matrix coordinate integer general
500 141 47456
1 1 1285
2 1 1739
3 1 793
4 1 560
5 1 538
6 1 1532
7 1 909
8 1 545
9 1 489
10 1 1382
11 1 770
12 1 1393
13 1 915
14 1 744
15 1 445
16 1 763
17 1 933
18 1 1141
19 1 2215
20 1 343
21 1 1235
22 1 622
23 1 217
24 1 2214
25 1 704
26 1 987
27 1 730
28 1 784
29 1 1191
30 1 776
31 1 1530
32 1 569
33 1 387
34 1 786
35 1 409
36 1 784
37 1 533
38 1 1338
39 1 1717
40 1 595
41 1 1371
42 1 908
43 1 621
44 1 194
45 1 1983
46 1 579
47 1 1089
48 1 731
49 1 761
50 1 709
51 1 703
52 1 1479
53 1 917
54 1 430
55 1 845
56 1 537
57 1 427
58 1 384
59 1 725
60 1 638
61 1 1659
62 1 304
63 1 834
64 1 817
65 1 1215
66 1 1228
67 1 1597
68 1 919
69 1 691
70 1 1469
71 1 409
72 1 545
73 1 202
74 1 1039
75 1 732
76 1 878
77 1 405
78 1 1181
79 1 1369
80 1 596
81 1 1065
82 1 738
83 1 1688
84 1 696
85 1 1185
86 1 552
87 1 1083
88 1 630
89 1 496
90 1 832
91 1 658
92 1 174
93 1 135
94 1 1368
95 1 655
96 1 1652
97 1 1560
98 1 1236
99 1 1231
100 1 1512
101 1 1092
102 1 1442
103 1 576
104 1 888
105 1 499
106 1 756
107 1 466
108 1 1911
109 1 236
110 1 1517
111 1 1307
112 1 194
113 1 427
114 1 840
115 1 372
116 1 2129
117 1 1200
118 1 1550
119 1 528
120 1 597
121 1 1609
122 1 974
123 1 490
124 1 119
125 1 608
126 1 384
127 1 658
128 1 1566
129 1 460
130 1 1297
131 1 467
132 1 2013
133 1 498
134 1 1043
135 1 1016
136 1 408
137 1 862
138 1 721
139 1 1372
140 1 903
141 1 1079
142 1 679
143 1 757
144 1 1363
145 1 1141
146 1 2289
147 1 986
148 1 1060
149 1 315
150 1 377
151 1 973
152 1 697
153 1 468
154 1 1362
155 1 951
156 1 1114
157 1 446
158 1 1208
159 1 531
160 1 653
161 1 544
162 1 515
163 1 550
164 1 985
165 1 939
166 1 209
167 1 432
168 1 881
169 1 743
170 1 1091
171 1 401
172 1 217
173 1 773
174 1 815
175 1 528
176 1 339
177 1 1582
178 1 1120
179 1 466
180 1 385
181 1 1554
182 1 861
183 1 570
184 1 975
185 1 2039
186 1 1292
187 1 1036
188 1 771
189 1 1681
190 1 539
191 1 952
192 1 489
193 1 830
194 1 823
195 1 2084
196 1 2127
197 1 1129
198 1 322
199 1 542
200 1 412
201 1 450
202 1 1024
203 1 972
204 1 1890
205 1 1547
206 1 1532
207 1 1516
208 1 881
209 1 1254
210 1 1000
211 1 681
212 1 1194
213 1 555
214 1 1452
215 1 629
216 1 598
217 1 1869
218 1 885
219 1 540
220 1 1726
221 1 290
222 1 529
223 1 558
224 1 709
225 1 1056
226 1 1292
227 1 1076
228 1 1076
229 1 1508
230 1 846
231 1 1405
232 1 1063
233 1 1007
234 1 325
235 1 1370
236 1 736
237 1 984
238 1 495
239 1 1386
240 1 1012
241 1 759
242 1 1167
243 1 1027
244 1 459
245 1 431
246 1 1890
247 1 1369
248 1 349
249 1 525
250 1 738
251 1 1374
252 1 497
253 1 785
254 1 1201
255 1 1218
256 1 476
257 1 1480
258 1 2006
259 1 1986
260 1 1757
261 1 1256
262 1 704
263 1 1481
264 1 1549
265 1 1267
266 1 222
267 1 222
268 1 1203
269 1 1068
270 1 400
271 1 1075
272 1 843
273 1 464
274 1 547
275 1 937
276 1 648
277 1 956
278 1 742
279 1 1326
280 1 424
281 1 447
282 1 146
283 1 1009
284 1 1155
285 1 1461
286 1 632
287 1 1466
288 1 1189
289 1 981
290 1 137
291 1 1065
292 1 1033
293 1 1365
294 1 1480
295 1 1334
296 1 833
297 1 607
298 1 1234
299 1 576
300 1 727
301 1 895
302 1 1071
303 1 887
304 1 411
305 1 739
306 1 708
307 1 1439
308 1 1838
309 1 400
310 1 1182
311 1 1197
312 1 1131
313 1 1854
314 1 728
315 1 281
316 1 2334
317 1 1882
318 1 1225
319 1 1114
320 1 933
321 1 609
322 1 473
323 1 1566
324 1 922
325 1 1398
326 1 1053
327 1 696
328 1 433
329 1 406
330 1 859
331 1 1088
332 1 612
333 1 89
334 1 840
335 1 552
336 1 1055
337 1 494
338 1 1532
339 1 756
340 1 624
341 1 511
342 1 434
343 1 597
344 1 1287
345 1 553
346 1 691
347 1 1034
348 1 1756
349 1 1236
350 1 1123
351 1 411
352 1 1775
353 1 655
354 1 2077
355 1 707
356 1 607
357 1 381
358 1 343
359 1 1397
360 1 1393
361 1 2046
362 1 851
363 1 318
364 1 1143
365 1 705
366 1 879
367 1 978
368 1 811
369 1 1690
370 1 516
371 1 1296
372 1 1482
373 1 2391
374 1 783
375 1 611
376 1 774
377 1 773
378 1 700
379 1 1055
380 1 790
381 1 2036
382 1 1479
383 1 915
384 1 1422
385 1 897
386 1 690
387 1 512
388 1 1423
389 1 1043
390 1 1348
391 1 1533
392 1 973
393 1 2151
394 1 1480
395 1 735
396 1 548
397 1 179
398 1 817
399 1 637
400 1 658
401 1 1028
402 1 1379
403 1 1133
404 1 1175
405 1 1220
406 1 771
407 1 329
408 1 588
409 1 640
410 1 980
411 1 406
412 1 1681
413 1 1719
414 1 1233
415 1 813
416 1 970
417 1 1392
418 1 1857
419 1 1490
420 1 908
421 1 527
422 1 603
423 1 1349
424 1 280
425 1 1148
426 1 1753
427 1 1349
428 1 1672
429 1 757
430 1 129
431 1 298
432 1 1094
433 1 1592
434 1 1201
435 1 683
436 1 1258
437 1 1156
438 1 526
439 1 898
440 1 1630
441 1 688
442 1 1793
443 1 634
444 1 1728
445 1 525
446 1 953
447 1 541
448 1 831
449 1 1824
450 1 1742
451 1 767
452 1 790
453 1 548
454 1 1233
455 1 696
456 1 673
457 1 782
458 1 614
459 1 940
460 1 1326
461 1 785
462 1 1074
463 1 540
464 1 2206
465 1 813
466 1 765
467 1 764
468 1 454
469 1 1448
470 1 774
471 1 498
472 1 538
473 1 587
474 1 1717
475 1 1200
476 1 1225
477 1 536
478 1 798
479 1 1809
480 1 538
481 1 572
482 1 1083
483 1 2098
484 1 567
485 1 748
486 1 342
487 1 1217
488 1 510
489 1 898
490 1 1547
491 1 383
492 1 792
493 1 323
494 1 865
495 1 860
496 1 530
497 1 85
498 1 2008
499 1 702
500 1 1122
1 2 1451
2 2 2219
3 2 1980
4 2 1169
5 2 2022
6 2 3328
7 2 2644
8 2 2772
9 2 2656
10 2 2396
11 2 1730
12 2 2346
13 2 811
14 2 1563
15 2 2928
16 2 2127
17 2 1862
18 2 1322
19 2 1544
20 2 835
21 2 4127
22 2 2563
23 2 2117
24 2 1903
25 2 415
26 2 2625
27 2 2079
28 2 3284
29 2 2119
30 2 2159
31 2 2382
32 2 2252
33 2 2195
34 2 3198
35 2 1574
36 2 1310
37 2 3057
38 2 3122
39 2 2247
40 2 2094
41 2 3414
42 2 1918
43 2 2499
44 2 1380
45 2 2948
46 2 3518
47 2 1236
48 2 3141
49 2 1947
50 2 915
51 2 2246
52 2 2206
53 2 2066
54 2 1277
55 2 2502
56 2 1550
57 2 878
58 2 1438
59 2 2254
60 2 2069
61 2 2714
62 2 776
63 2 2185
64 2 1306
65 2 1828
66 2 2059
67 2 1965
68 2 1513
69 2 1463
70 2 1320
71 2 1305
72 2 1343
73 2 2075
74 2 1654
75 2 2188
76 2 1366
77 2 1140
78 2 1943
79 2 2411
80 2 762
81 2 2679
82 2 1053
83 2 1212
84 2 2993
85 2 754
86 2 2260
87 2 2938
88 2 959
89 2 4596
90 2 3160
91 2 1034
92 2 2501
93 2 1314
94 2 3099
95 2 2479
96 2 3193
97 2 2448
98 2 1880
99 2 1633
100 2 2350
101 2 3220
102 2 2187
103 2 1155
104 2 2466
105 2 1363
106 2 2267
107 2 1045
108 2 1457
109 2 1094
110 2 2354
111 2 2970
112 2 608
113 2 1431
114 2 1946
115 2 1091
116 2 2308
117 2 1083
118 2 1449
119 2 619
120 2 905
121 2 2972
122 2 1992
123 2 1301
124 2 2229
125 2 1936
126 2 2079
127 2 2570
128 2 2607
129 2 3184
130 2 2941
131 2 2531
132 2 2906
133 2 2085
134 2 1445
135 2 1281
136 2 1287
137 2 1903
138 2 2015
139 2 1214
140 2 987
141 2 2950
142 2 1763
143 2 2526
144 2 2706
145 2 3713
146 2 1595
147 2 2066
148 2 1551
149 2 3407
150 2 2163
151 2 832
152 2 1390
153 2 1513
154 2 2034
155 2 2772
156 2 2744
157 2 2047
158 2 1837
159 2 1351
160 2 3637
161 2 2197
162 2 2752
163 2 1277
164 2 1797
165 2 3279
166 2 1069
167 2 968
168 2 1229
169 2 2108
170 2 1378
171 2 1371
172 2 1396
173 2 1476
174 2 1652
175 2 1291
176 2 1379
177 2 1048
178 2 1810
179 2 2469
180 2 1048
181 2 2067
182 2 3825
183 2 954
184 2 1174
185 2 2906
186 2 2716
187 2 2704
188 2 2340
189 2 4096
190 2 1601
191 2 2103
192 2 1221
193 2 1903
194 2 2212
195 2 2892
196 2 2091
197 2 1269
198 2 1384
199 2 2629
200 2 1993
201 2 925
202 2 1038
203 2 4130
204 2 1765
205 2 2590
206 2 1404
207 2 2685
208 2 1921
209 2 2958
210 2 689
211 2 2033
212 2 2004
213 2 2692
214 2 2260
215 2 1766
216 2 2702
217 2 1215
218 2 3236
219 2 1043
220 2 1215
221 2 757
222 2 1344
223 2 2300
224 2 3135
225 2 1347
226 2 2231
227 2 1557
228 2 1362
229 2 2990
230 2 1131
231 2 2378
232 2 3116
233 2 3289
234 2 2489
235 2 3000
236 2 583
237 2 1801
238 2 1017
239 2 4109
240 2 3525
241 2 1921
242 2 3009
243 2 3388
244 2 831
245 2 1160
246 2 4649
247 2 2368
248 2 1083
249 2 1016
250 2 1540
251 2 2085
252 2 1852
253 2 2280
254 2 1549
255 2 3069
256 2 1773
257 2 4083
258 2 2924
259 2 2942
260 2 2004
261 2 2728
262 2 863
263 2 2860
264 2 4136
265 2 2220
266 2 1357
267 2 1055
268 2 3146
269 2 2884
270 2 1919
271 2 1718
272 2 2108
273 2 1995
274 2 2208
275 2 2629
276 2 1990
277 2 1558
278 2 3118
279 2 2981
280 2 2194
281 2 2098
282 2 1551
283 2 2141
284 2 1578
285 2 2851
286 2 1301
287 2 2298
288 2 3058
289 2 2646
290 2 1639
291 2 2408
292 2 2227
293 2 4213
294 2 1789
295 2 1842
296 2 2010
297 2 2132
298 2 2847
299 2 1909
300 2 3361
301 2 1701
302 2 2971
303 2 2460
304 2 2607
305 2 3309
306 2 869
307 2 2652
308 2 2940
309 2 2070
310 2 1688
311 2 3039
312 2 1163
313 2 2025
314 2 2580
315 2 760
316 2 3832
317 2 1719
318 2 1864
319 2 2718
320 2 1991
321 2 2137
322 2 1439
323 2 2405
324 2 1554
325 2 2561
326 2 2624
327 2 2317
328 2 1222
329 2 2080
330 2 1597
331 2 3032
332 2 3168
333 2 1858
334 2 2062
335 2 1040
336 2 1569
337 2 2135
338 2 2174
339 2 1988
340 2 2232
341 2 866
342 2 1310
343 2 3409
344 2 3004
345 2 2289
346 2 1719
347 2 1903
348 2 2264
349 2 2507
350 2 1415
351 2 1396
352 2 2102
353 2 2386
354 2 2908
355 2 1991
356 2 2040
357 2 2339
358 2 986
359 2 1512
360 2 2182
361 2 2827
362 2 1142
363 2 1649
364 2 2480
365 2 1971
366 2 2087
367 2 2196
368 2 2582
369 2 2622
370 2 1663
371 2 1820
372 2 2149
373 2 3796
374 2 2212
375 2 1558
376 2 1178
377 2 2154
378 2 1526
379 2 1681
380 2 1627
381 2 2986
382 2 2833
383 2 1523
384 2 1466
385 2 1397
386 2 2707
387 2 657
388 2 1711
389 2 1472
390 2 4159
391 2 3238
392 2 1137
393 2 2428
394 2 2403
395 2 2047
396 2 1278
397 2 2359
398 2 2194
399 2 2067
400 2 3314
401 2 472
402 2 1554
403 2 2695
404 2 1649
405 2 1530
406 2 1676
407 2 1419
408 2 502
409 2 1125
410 2 1186
411 2 1278
412 2 1243
413 2 2246
414 2 2665
415 2 1453
416 2 684
417 2 1996
418 2 2050
419 2 2045
420 2 3563
421 2 938
422 2 1543
423 2 4230
424 2 900
425 2 1292
426 2 3431
427 2 2237
428 2 2579
429 2 2661
430 2 1352
431 2 2907
432 2 1898
433 2 2763
434 2 2044
435 2 2269
436 2 2009
437 2 3273
438 2 1251
439 2 1987
440 2 1980
441 2 1805
442 2 2003
443 2 1929
444 2 3394
445 2 1143
446 2 2585
447 2 1012
448 2 1900
449 2 2687
450 2 2029
451 2 3358
452 2 1840
453 2 1977
454 2 2112
455 2 2100
456 2 899
457 2 2821
458 2 899
459 2 2688
460 2 2921
461 2 1245
462 2 1596
463 2 2762
464 2 3047
465 2 2130
466 2 2169
467 2 3287
468 2 697
469 2 1977
470 2 1182
471 2 1796
472 2 2283
473 2 1244
474 2 1591
475 2 2022
476 2 1633
477 2 2315
478 2 2228
479 2 3922
480 2 3012
481 2 1482
482 2 3070
483 2 2621
484 2 991
485 2 2123
486 2 2105
487 2 1675
488 2 1381
489 2 1848
490 2 2950
491 2 1438
492 2 2281
493 2 1256
494 2 3809
495 2 1409
496 2 1254
497 2 1965
498 2 2193
499 2 2121
500 2 1707
1 3 885
2 3 1897
3 3 1368
4 3 440
5 3 1182
6 3 789
7 3 1440
8 3 1768
9 3 866
10 3 1693
11 3 877
12 3 1246
13 3 1208
14 3 316
15 3 2051
16 3 884
17 3 1177
18 3 671
19 3 3039
20 3 489
21 3 1228
22 3 1088
23 3 687
24 3 1318
25 3 501
26 3 1441
27 3 2184
28 3 1487
29 3 1221
30 3 1524
31 3 598
32 3 931
33 3 1798
34 3 1829
35 3 337
36 3 1446
37 3 1300
38 3 2261
39 3 797
40 3 3181
41 3 2597
42 3 1127
43 3 276
44 3 812
45 3 2592
46 3 1237
47 3 453
48 3 1594
49 3 1558
50 3 1159
51 3 1582
52 3 838
53 3 478
54 3 624
55 3 1238
56 3 557
57 3 1192
58 3 1562
59 3 1494
60 3 831
61 3 1677
62 3 892
63 3 1244
64 3 1077
65 3 842
66 3 1174
67 3 1678
68 3 900
69 3 892
70 3 1281
71 3 408
72 3 1111
73 3 1294
74 3 2358
75 3 1532
76 3 734
77 3 347
78 3 1394
79 3 1886
80 3 288
81 3 1350
82 3 1343
83 3 1257
84 3 1277
85 3 1200
86 3 2564
87 3 1818
88 3 467
89 3 1234
90 3 1034
91 3 732
92 3 566
93 3 564
94 3 1558
95 3 1454
96 3 3007
97 3 954
98 3 820
99 3 1369
100 3 659
101 3 1619
102 3 2142
103 3 372
104 3 1044
105 3 731
106 3 1559
107 3 319
108 3 1315
109 3 1195
110 3 1249
111 3 2416
112 3 952
113 3 220
114 3 1566
115 3 1023
116 3 1255
117 3 1031
118 3 1451
119 3 637
120 3 719
121 3 722
122 3 902
123 3 382
124 3 1825
125 3 1350
126 3 1225
127 3 1442
128 3 1381
129 3 1631
130 3 2464
131 3 1939
132 3 1393
133 3 1512
134 3 1516
135 3 227
136 3 490
137 3 585
138 3 604
139 3 1468
140 3 773
141 3 658
142 3 1730
143 3 1040
144 3 1050
145 3 789
146 3 3235
147 3 213
148 3 2335
149 3 1751
150 3 1884
151 3 1102
152 3 441
153 3 1607
154 3 841
155 3 1356
156 3 1449
157 3 648
158 3 818
159 3 1167
160 3 1412
161 3 2438
162 3 1407
163 3 608
164 3 1141
165 3 1449
166 3 1134
167 3 485
168 3 1699
169 3 914
170 3 1558
171 3 592
172 3 429
173 3 981
174 3 2388
175 3 1068
176 3 699
177 3 1538
178 3 762
179 3 2016
180 3 920
181 3 2388
182 3 859
183 3 586
184 3 564
185 3 1499
186 3 1068
187 3 1379
188 3 1638
189 3 988
190 3 1619
191 3 1435
192 3 1174
193 3 565
194 3 1296
195 3 1337
196 3 1543
197 3 644
198 3 839
199 3 2273
200 3 1427
201 3 895
202 3 1964
203 3 1524
204 3 2028
205 3 1230
206 3 968
207 3 1375
208 3 592
209 3 2411
210 3 1152
211 3 905
212 3 948
213 3 664
214 3 782
215 3 1708
216 3 1423
217 3 896
218 3 1010
219 3 1157
220 3 1298
221 3 568
222 3 1047
223 3 860
224 3 1044
225 3 767
226 3 991
227 3 1639
228 3 258
229 3 615
230 3 1168
231 3 1332
232 3 1580
233 3 1633
234 3 1889
235 3 2228
236 3 423
237 3 1089
238 3 272
239 3 1421
240 3 299
241 3 1846
242 3 2187
243 3 1384
244 3 360
245 3 374
246 3 1139
247 3 1163
248 3 848
249 3 1188
250 3 475
251 3 980
252 3 931
253 3 1571
254 3 1801
255 3 4917
256 3 828
257 3 1457
258 3 1474
259 3 1582
260 3 836
261 3 1390
262 3 1086
263 3 1614
264 3 1403
265 3 1007
266 3 426
267 3 1107
268 3 1810
269 3 644
270 3 477
271 3 1693
272 3 307
273 3 1332
274 3 2496
275 3 1458
276 3 1706
277 3 1122
278 3 1717
279 3 2369
280 3 902
281 3 1072
282 3 671
283 3 1061
284 3 539
285 3 832
286 3 655
287 3 935
288 3 393
289 3 1475
290 3 762
291 3 2268
292 3 948
293 3 1490
294 3 874
295 3 1292
296 3 1202
297 3 1248
298 3 1553
299 3 1640
300 3 2495
301 3 313
302 3 1089
303 3 1353
304 3 1223
305 3 1673
306 3 818
307 3 1114
308 3 2351
309 3 1528
310 3 924
311 3 2129
312 3 456
313 3 1389
314 3 439
315 3 500
316 3 1021
317 3 1173
318 3 1411
319 3 1422
320 3 892
321 3 1201
322 3 836
323 3 663
324 3 934
325 3 1906
326 3 1108
327 3 1225
328 3 503
329 3 405
330 3 2203
331 3 1816
332 3 1060
333 3 534
334 3 2165
335 3 311
336 3 1632
337 3 862
338 3 744
339 3 1072
340 3 1378
341 3 806
342 3 496
343 3 857
344 3 2401
345 3 2539
346 3 2584
347 3 1086
348 3 1906
349 3 1110
350 3 754
351 3 635
352 3 846
353 3 830
354 3 1508
355 3 1513
356 3 3191
357 3 1954
358 3 754
359 3 1767
360 3 2603
361 3 1572
362 3 609
363 3 712
364 3 2787
365 3 625
366 3 1417
367 3 1640
368 3 1176
369 3 3042
370 3 1912
371 3 1239
372 3 2517
373 3 990
374 3 1497
375 3 1232
376 3 515
377 3 2309
378 3 1743
379 3 1739
380 3 1145
381 3 1472
382 3 1627
383 3 1718
384 3 1856
385 3 709
386 3 2009
387 3 584
388 3 1462
389 3 803
390 3 1499
391 3 1559
392 3 851
393 3 1279
394 3 638
395 3 1353
396 3 771
397 3 774
398 3 636
399 3 1650
400 3 745
401 3 1524
402 3 1662
403 3 754
404 3 215
405 3 1107
406 3 664
407 3 873
408 3 467
409 3 395
410 3 1335
411 3 505
412 3 1344
413 3 2248
414 3 1274
415 3 1490
416 3 1128
417 3 602
418 3 1594
419 3 835
420 3 1332
421 3 609
422 3 606
423 3 1495
424 3 1112
425 3 726
426 3 3149
427 3 1410
428 3 3018
429 3 464
430 3 557
431 3 2002
432 3 1058
433 3 1752
434 3 644
435 3 1841
436 3 672
437 3 1769
438 3 456
439 3 1574
440 3 532
441 3 1678
442 3 1325
443 3 1001
444 3 3159
445 3 491
446 3 1489
447 3 503
448 3 1883
449 3 3036
450 3 828
451 3 2449
452 3 1841
453 3 1317
454 3 951
455 3 1885
456 3 591
457 3 1100
458 3 322
459 3 1481
460 3 2356
461 3 1168
462 3 563
463 3 1771
464 3 1936
465 3 2268
466 3 2342
467 3 1254
468 3 484
469 3 2661
470 3 832
471 3 956
472 3 2489
473 3 1115
474 3 1154
475 3 1103
476 3 1321
477 3 2532
478 3 1404
479 3 1688
480 3 807
481 3 657
482 3 1142
483 3 898
484 3 604
485 3 1372
486 3 1285
487 3 1900
488 3 1106
489 3 1348
490 3 1233
491 3 1515
492 3 1757
493 3 547
494 3 649
495 3 493
496 3 1099
497 3 485
498 3 2114
499 3 943
500 3 2631
1 4 3886
2 4 3202
3 4 2458
4 4 1597
5 4 2831
6 4 4446
7 4 4934
8 4 5319
9 4 2309
10 4 4608
11 4 1469
12 4 3332
13 4 3018
14 4 1678
15 4 2780
16 4 4711
17 4 3198
18 4 3309
19 4 8529
20 4 3537
21 4 5364
22 4 4003
23 4 4176
24 4 3917
25 4 1825
26 4 4967
27 4 3486
28 4 4559
29 4 3036
30 4 3453
31 4 5507
32 4 1899
33 4 5416
34 4 6353
35 4 1707
36 4 2885
37 4 2180
38 4 5758
39 4 1871
40 4 3456
41 4 6867
42 4 5339
43 4 2692
44 4 1505
45 4 3389
46 4 5199
47 4 5058
48 4 2723
49 4 4262
50 4 2638
51 4 4831
52 4 1467
53 4 3721
54 4 1798
55 4 4497
56 4 2520
57 4 2694
58 4 5002
59 4 3384
60 4 3101
61 4 4708
62 4 1646
63 4 3942
64 4 3047
65 4 3893
66 4 2577
67 4 2372
68 4 2984
69 4 3915
70 4 2838
71 4 1916
72 4 3706
73 4 3031
74 4 2933
75 4 3415
76 4 4687
77 4 3933
78 4 2484
79 4 5697
80 4 1685
81 4 2750
82 4 3077
83 4 2644
84 4 4379
85 4 5519
86 4 6882
87 4 3143
88 4 2678
89 4 4077
90 4 3248
91 4 1099
92 4 3989
93 4 3425
94 4 3934
95 4 5727
96 4 4744
97 4 4857
98 4 4182
99 4 1948
100 4 5418
101 4 4288
102 4 4458
103 4 2274
104 4 4371
105 4 2234
106 4 3414
107 4 1176
108 4 3026
109 4 1750
110 4 1806
111 4 7431
112 4 1421
113 4 3096
114 4 3993
115 4 2065
116 4 3666
117 4 2156
118 4 3249
119 4 794
120 4 771
121 4 3448
122 4 3316
123 4 2134
124 4 2728
125 4 3159
126 4 4441
127 4 3386
128 4 4104
129 4 3354
130 4 7425
131 4 7434
132 4 3611
133 4 5714
134 4 2445
135 4 1941
136 4 2938
137 4 7600
138 4 1519
139 4 3650
140 4 2917
141 4 5209
142 4 3880
143 4 2879
144 4 4374
145 4 5299
146 4 8492
147 4 3077
148 4 2804
149 4 8593
150 4 4143
151 4 3350
152 4 4635
153 4 1943
154 4 3478
155 4 5015
156 4 3157
157 4 2494
158 4 4664
159 4 3712
160 4 3545
161 4 6870
162 4 3001
163 4 2513
164 4 7477
165 4 5229
166 4 3743
167 4 2210
168 4 1465
169 4 4716
170 4 2432
171 4 1784
172 4 2732
173 4 6061
174 4 3172
175 4 3588
176 4 3536
177 4 4158
178 4 2268
179 4 7449
180 4 1926
181 4 3142
182 4 4107
183 4 1954
184 4 1682
185 4 3927
186 4 3672
187 4 2672
188 4 3611
189 4 4754
190 4 5102
191 4 4328
192 4 1792
193 4 7435
194 4 3454
195 4 4154
196 4 4546
197 4 2395
198 4 1486
199 4 4332
200 4 2249
201 4 2000
202 4 2451
203 4 3569
204 4 4353
205 4 5252
206 4 1788
207 4 2452
208 4 7406
209 4 7593
210 4 2800
211 4 3006
212 4 2480
213 4 3864
214 4 3629
215 4 3747
216 4 3698
217 4 2933
218 4 5124
219 4 1658
220 4 2666
221 4 1235
222 4 3671
223 4 1930
224 4 3897
225 4 3335
226 4 3562
227 4 2740
228 4 2064
229 4 5322
230 4 2927
231 4 3595
232 4 4173
233 4 2155
234 4 2493
235 4 5917
236 4 2113
237 4 2002
238 4 2994
239 4 3504
240 4 3696
241 4 2810
242 4 3743
243 4 1890
244 4 1644
245 4 3998
246 4 3371
247 4 4221
248 4 1695
249 4 1613
250 4 2690
251 4 2384
252 4 4240
253 4 3293
254 4 2865
255 4 5919
256 4 3444
257 4 2418
258 4 4743
259 4 3932
260 4 5383
261 4 5616
262 4 2568
263 4 5033
264 4 2404
265 4 3654
266 4 2738
267 4 3775
268 4 6360
269 4 5282
270 4 2948
271 4 3328
272 4 10107
273 4 2401
274 4 6804
275 4 4998
276 4 2821
277 4 3521
278 4 3500
279 4 7427
280 4 4922
281 4 2697
282 4 982
283 4 1870
284 4 3460
285 4 3824
286 4 3977
287 4 1573
288 4 3703
289 4 4846
290 4 2568
291 4 2485
292 4 2178
293 4 3460
294 4 2977
295 4 3484
296 4 3876
297 4 2045
298 4 3916
299 4 2760
300 4 3456
301 4 2193
302 4 4128
303 4 3977
304 4 6003
305 4 6012
306 4 3179
307 4 4380
308 4 2666
309 4 5948
310 4 2297
311 4 3729
312 4 5024
313 4 3127
314 4 2518
315 4 1320
316 4 3360
317 4 4443
318 4 2491
319 4 3237
320 4 5882
321 4 2077
322 4 3739
323 4 5348
324 4 2974
325 4 1800
326 4 3141
327 4 3476
328 4 2888
329 4 2670
330 4 4483
331 4 6363
332 4 4014
333 4 1888
334 4 4659
335 4 1122
336 4 2740
337 4 2831
338 4 3138
339 4 3870
340 4 3195
341 4 1309
342 4 2984
343 4 2630
344 4 7464
345 4 6913
346 4 2889
347 4 3366
348 4 3303
349 4 3142
350 4 3331
351 4 1715
352 4 5558
353 4 3124
354 4 3918
355 4 3287
356 4 3509
357 4 5779
358 4 2965
359 4 1165
360 4 4669
361 4 4086
362 4 6111
363 4 1885
364 4 3955
365 4 1487
366 4 3096
367 4 3643
368 4 3498
369 4 3988
370 4 3009
371 4 3463
372 4 4727
373 4 3384
374 4 3397
375 4 2409
376 4 2801
377 4 5497
378 4 4813
379 4 2845
380 4 2914
381 4 4038
382 4 5658
383 4 1511
384 4 2799
385 4 1953
386 4 3874
387 4 2230
388 4 2310
389 4 1746
390 4 3431
391 4 3409
392 4 1787
393 4 3663
394 4 5473
395 4 2498
396 4 1519
397 4 4056
398 4 3624
399 4 4487
400 4 4280
401 4 4455
402 4 1151
403 4 5535
404 4 2066
405 4 3105
406 4 1360
407 4 1469
408 4 803
409 4 2364
410 4 1606
411 4 3042
412 4 2640
413 4 7555
414 4 4461
415 4 4057
416 4 2873
417 4 2559
418 4 3494
419 4 2394
420 4 4756
421 4 2269
422 4 1414
423 4 3489
424 4 3261
425 4 3559
426 4 4793
427 4 3588
428 4 4020
429 4 2570
430 4 3405
431 4 6006
432 4 3427
433 4 4575
434 4 2996
435 4 4592
436 4 3032
437 4 6277
438 4 2849
439 4 3952
440 4 3372
441 4 3767
442 4 3863
443 4 4545
444 4 4829
445 4 1288
446 4 4840
447 4 1458
448 4 2808
449 4 4632
450 4 5493
451 4 3445
452 4 3740
453 4 2445
454 4 5485
455 4 2792
456 4 4959
457 4 4324
458 4 2845
459 4 4887
460 4 7457
461 4 2352
462 4 3510
463 4 5154
464 4 4755
465 4 5717
466 4 5606
467 4 2983
468 4 2597
469 4 3798
470 4 2636
471 4 3252
472 4 6906
473 4 3722
474 4 3927
475 4 2595
476 4 3322
477 4 6952
478 4 3433
479 4 5953
480 4 2032
481 4 3296
482 4 4079
483 4 3460
484 4 2837
485 4 3469
486 4 2488
487 4 3495
488 4 3651
489 4 6366
490 4 6108
491 4 4920
492 4 4262
493 4 2634
494 4 1818
495 4 2390
496 4 3758
497 4 2022
498 4 3695
499 4 3491
500 4 4316
1 5 1534
2 5 892
3 5 973
4 5 617
5 5 1134
6 5 415
7 5 1293
8 5 1234
9 5 1623
10 5 187
11 5 496
12 5 1051
13 5 567
14 5 647
15 5 902
16 5 631
17 5 986
18 5 1006
19 5 2264
20 5 320
21 5 516
22 5 1016
23 5 232
24 5 758
25 5 696
26 5 1315
27 5 831
28 5 654
29 5 769
30 5 549
31 5 601
32 5 691
33 5 484
34 5 2359
35 5 174
36 5 631
37 5 833
38 5 1806
39 5 1674
40 5 982
41 5 423
42 5 1949
43 5 692
44 5 924
45 5 641
46 5 1234
47 5 838
48 5 710
49 5 1115
50 5 921
51 5 2050
52 5 1158
53 5 1511
54 5 803
55 5 342
56 5 1113
57 5 1662
58 5 1348
59 5 532
60 5 715
61 5 607
62 5 1180
63 5 643
64 5 560
65 5 528
66 5 328
67 5 698
68 5 1549
69 5 1389
70 5 465
71 5 772
72 5 828
73 5 581
74 5 659
75 5 501
76 5 814
77 5 931
78 5 133
79 5 2315
80 5 147
81 5 1026
82 5 655
83 5 1283
84 5 2084
85 5 1673
86 5 1744
87 5 982
88 5 325
89 5 955
90 5 1002
91 5 686
92 5 1031
93 5 551
94 5 1396
95 5 1030
96 5 1534
97 5 637
98 5 541
99 5 982
100 5 558
101 5 1822
102 5 952
103 5 606
104 5 1354
105 5 1811
106 5 550
107 5 402
108 5 834
109 5 524
110 5 1139
111 5 2022
112 5 309
113 5 523
114 5 668
115 5 848
116 5 895
117 5 875
118 5 1134
119 5 620
120 5 480
121 5 1789
122 5 987
123 5 669
124 5 600
125 5 246
126 5 1448
127 5 476
128 5 1383
129 5 1117
130 5 2003
131 5 973
132 5 878
133 5 783
134 5 846
135 5 718
136 5 1291
137 5 192
138 5 161
139 5 1012
140 5 674
141 5 1013
142 5 580
143 5 502
144 5 644
145 5 1607
146 5 2283
147 5 1188
148 5 684
149 5 722
150 5 1631
151 5 893
152 5 1400
153 5 1244
154 5 637
155 5 1234
156 5 922
157 5 697
158 5 818
159 5 796
160 5 812
161 5 1714
162 5 530
163 5 541
164 5 538
165 5 1550
166 5 802
167 5 446
168 5 1015
169 5 698
170 5 855
171 5 817
172 5 617
173 5 1853
174 5 2498
175 5 799
176 5 1532
177 5 1348
178 5 120
179 5 998
180 5 618
181 5 1590
182 5 1179
183 5 351
184 5 784
185 5 2598
186 5 684
187 5 1093
188 5 583
189 5 1122
190 5 1590
191 5 1076
192 5 532
193 5 228
194 5 1133
195 5 1682
196 5 570
197 5 757
198 5 513
199 5 507
200 5 960
201 5 285
202 5 1003
203 5 1768
204 5 1134
205 5 948
206 5 1080
207 5 504
208 5 240
209 5 2015
210 5 1413
211 5 1113
212 5 320
213 5 535
214 5 2419
215 5 572
216 5 1276
217 5 298
218 5 1440
219 5 410
220 5 1360
221 5 354
222 5 771
223 5 698
224 5 770
225 5 1049
226 5 1005
227 5 1510
228 5 751
229 5 1268
230 5 268
231 5 1048
232 5 895
233 5 1602
234 5 901
235 5 1801
236 5 714
237 5 888
238 5 585
239 5 284
240 5 1678
241 5 559
242 5 687
243 5 465
244 5 568
245 5 959
246 5 1413
247 5 1014
248 5 642
249 5 436
250 5 1069
251 5 1194
252 5 1118
253 5 514
254 5 530
255 5 322
256 5 730
257 5 626
258 5 2199
259 5 2589
260 5 1545
261 5 2137
262 5 838
263 5 760
264 5 628
265 5 967
266 5 629
267 5 790
268 5 1685
269 5 1039
270 5 1012
271 5 1744
272 5 847
273 5 2118
274 5 1682
275 5 1315
276 5 484
277 5 1051
278 5 483
279 5 2058
280 5 2319
281 5 1258
282 5 447
283 5 572
284 5 1177
285 5 1200
286 5 180
287 5 1082
288 5 514
289 5 1317
290 5 859
291 5 2753
292 5 1907
293 5 286
294 5 596
295 5 1301
296 5 1352
297 5 464
298 5 758
299 5 1258
300 5 1500
301 5 343
302 5 884
303 5 1457
304 5 1498
305 5 1090
306 5 869
307 5 644
308 5 742
309 5 1138
310 5 1606
311 5 712
312 5 829
313 5 377
314 5 958
315 5 302
316 5 1256
317 5 2391
318 5 132
319 5 846
320 5 932
321 5 408
322 5 609
323 5 566
324 5 1607
325 5 1650
326 5 1274
327 5 666
328 5 1262
329 5 1083
330 5 1245
331 5 1014
332 5 847
333 5 464
334 5 754
335 5 524
336 5 1430
337 5 1489
338 5 422
339 5 517
340 5 376
341 5 603
342 5 1301
343 5 1315
344 5 2058
345 5 1767
346 5 622
347 5 290
348 5 847
349 5 923
350 5 1029
351 5 843
352 5 1549
353 5 532
354 5 2576
355 5 339
356 5 1020
357 5 303
358 5 272
359 5 240
360 5 1098
361 5 2593
362 5 990
363 5 507
364 5 1601
365 5 162
366 5 795
367 5 2480
368 5 1060
369 5 1251
370 5 411
371 5 362
372 5 1000
373 5 1249
374 5 543
375 5 941
376 5 761
377 5 1393
378 5 568
379 5 721
380 5 1012
381 5 2565
382 5 736
383 5 378
384 5 1330
385 5 426
386 5 643
387 5 552
388 5 427
389 5 448
390 5 320
391 5 1166
392 5 531
393 5 857
394 5 554
395 5 982
396 5 813
397 5 898
398 5 602
399 5 1251
400 5 1047
401 5 270
402 5 237
403 5 1693
404 5 871
405 5 1171
406 5 1089
407 5 502
408 5 278
409 5 616
410 5 327
411 5 1334
412 5 1299
413 5 1608
414 5 1975
415 5 1540
416 5 1394
417 5 497
418 5 588
419 5 708
420 5 990
421 5 610
422 5 404
423 5 299
424 5 702
425 5 913
426 5 1585
427 5 977
428 5 1242
429 5 914
430 5 584
431 5 2577
432 5 275
433 5 663
434 5 359
435 5 1450
436 5 330
437 5 1670
438 5 921
439 5 728
440 5 781
441 5 575
442 5 1088
443 5 1105
444 5 1585
445 5 1006
446 5 1294
447 5 602
448 5 550
449 5 1423
450 5 1554
451 5 1561
452 5 802
453 5 967
454 5 1474
455 5 925
456 5 948
457 5 1724
458 5 367
459 5 1301
460 5 2005
461 5 780
462 5 1135
463 5 1212
464 5 1087
465 5 1412
466 5 1440
467 5 1672
468 5 718
469 5 828
470 5 610
471 5 1785
472 5 1768
473 5 811
474 5 1273
475 5 295
476 5 924
477 5 1835
478 5 1231
479 5 1682
480 5 1564
481 5 676
482 5 910
483 5 571
484 5 541
485 5 1198
486 5 1857
487 5 1796
488 5 829
489 5 943
490 5 1030
491 5 1440
492 5 1293
493 5 116
494 5 990
495 5 236
496 5 859
497 5 477
498 5 1523
499 5 991
500 5 1415
1 6 1934
2 6 1656
3 6 2772
4 6 1430
5 6 2395
6 6 2208
7 6 3090
8 6 3875
9 6 2666
10 6 1621
11 6 3297
12 6 3257
13 6 1416
14 6 2210
15 6 738
16 6 1197
17 6 2353
18 6 1154
19 6 4466
20 6 1378
21 6 2664
22 6 2835
23 6 1533
24 6 2113
25 6 1298
26 6 3197
27 6 1819
28 6 2624
29 6 431
30 6 3674
31 6 4838
32 6 1421
33 6 2446
34 6 4208
35 6 863
36 6 1399
37 6 3922
38 6 3539
39 6 1594
40 6 2859
41 6 2992
42 6 3068
43 6 1986
44 6 3427
45 6 1995
46 6 4373
47 6 2541
48 6 1465
49 6 2231
50 6 1590
51 6 2666
52 6 8051
53 6 3166
54 6 477
55 6 3085
56 6 1353
57 6 1931
58 6 6337
59 6 3681
60 6 2844
61 6 2109
62 6 1901
63 6 2423
64 6 728
65 6 2351
66 6 1854
67 6 4190
68 6 1851
69 6 2315
70 6 1821
71 6 1080
72 6 4368
73 6 1988
74 6 1977
75 6 3714
76 6 2367
77 6 1610
78 6 1529
79 6 2983
80 6 945
81 6 2505
82 6 2523
83 6 3590
84 6 2116
85 6 2540
86 6 2319
87 6 1514
88 6 1208
89 6 3152
90 6 1510
91 6 1568
92 6 2539
93 6 2707
94 6 1493
95 6 1998
96 6 4334
97 6 1617
98 6 2254
99 6 946
100 6 4734
101 6 4812
102 6 1828
103 6 1809
104 6 1801
105 6 1335
106 6 3712
107 6 1031
108 6 1598
109 6 2720
110 6 2060
111 6 2661
112 6 893
113 6 1417
114 6 1946
115 6 2499
116 6 1866
117 6 2125
118 6 2600
119 6 991
120 6 2070
121 6 2758
122 6 3453
123 6 1317
124 6 2399
125 6 2388
126 6 2611
127 6 2197
128 6 2905
129 6 1762
130 6 2715
131 6 2334
132 6 2277
133 6 2977
134 6 1930
135 6 860
136 6 1571
137 6 741
138 6 1711
139 6 4701
140 6 1670
141 6 3490
142 6 1781
143 6 2431
144 6 2339
145 6 3225
146 6 4442
147 6 2343
148 6 2080
149 6 2615
150 6 5572
151 6 1576
152 6 2009
153 6 1372
154 6 1885
155 6 2090
156 6 2193
157 6 912
158 6 2496
159 6 4199
160 6 1130
161 6 2188
162 6 2513
163 6 2598
164 6 2511
165 6 3243
166 6 2895
167 6 921
168 6 2116
169 6 1239
170 6 2101
171 6 466
172 6 1319
173 6 3639
174 6 4554
175 6 4317
176 6 2588
177 6 3259
178 6 979
179 6 2347
180 6 3185
181 6 2511
182 6 2337
183 6 2308
184 6 594
185 6 3481
186 6 4514
187 6 2574
188 6 2509
189 6 4270
190 6 2772
191 6 2355
192 6 1812
193 6 779
194 6 2848
195 6 3935
196 6 1228
197 6 1110
198 6 1347
199 6 2964
200 6 2593
201 6 1836
202 6 1942
203 6 3115
204 6 1867
205 6 1933
206 6 1496
207 6 2981
208 6 766
209 6 2698
210 6 2592
211 6 2526
212 6 1897
213 6 3811
214 6 4375
215 6 1750
216 6 2381
217 6 3514
218 6 2447
219 6 1579
220 6 3633
221 6 820
222 6 4325
223 6 1403
224 6 2884
225 6 1110
226 6 663
227 6 4195
228 6 842
229 6 2400
230 6 1779
231 6 3298
232 6 1722
233 6 2150
234 6 1891
235 6 3609
236 6 1175
237 6 1526
238 6 2297
239 6 4217
240 6 2401
241 6 3322
242 6 2718
243 6 3509
244 6 1423
245 6 1553
246 6 3322
247 6 2628
248 6 1789
249 6 1697
250 6 3432
251 6 3688
252 6 2729
253 6 3670
254 6 1451
255 6 4306
256 6 1304
257 6 2572
258 6 2731
259 6 3610
260 6 2823
261 6 4025
262 6 1584
263 6 2811
264 6 2627
265 6 606
266 6 1362
267 6 2950
268 6 1718
269 6 3530
270 6 1788
271 6 1509
272 6 2221
273 6 2023
274 6 2188
275 6 3034
276 6 1847
277 6 1792
278 6 3169
279 6 2657
280 6 2351
281 6 2430
282 6 1913
283 6 1043
284 6 2031
285 6 2265
286 6 999
287 6 8208
288 6 1726
289 6 2969
290 6 1113
291 6 3009
292 6 2871
293 6 4370
294 6 1614
295 6 1089
296 6 1896
297 6 1645
298 6 3303
299 6 2206
300 6 4081
301 6 1564
302 6 1364
303 6 3340
304 6 4017
305 6 2942
306 6 1427
307 6 2350
308 6 2580
309 6 3010
310 6 1967
311 6 2829
312 6 2595
313 6 2842
314 6 2283
315 6 845
316 6 3855
317 6 3037
318 6 1394
319 6 2226
320 6 1774
321 6 1704
322 6 3318
323 6 4703
324 6 1759
325 6 2249
326 6 2257
327 6 810
328 6 1614
329 6 1081
330 6 2283
331 6 1002
332 6 2929
333 6 1308
334 6 1328
335 6 758
336 6 4144
337 6 1939
338 6 2526
339 6 2998
340 6 2541
341 6 1108
342 6 1663
343 6 3528
344 6 2743
345 6 2208
346 6 1516
347 6 2323
348 6 1618
349 6 4379
350 6 1114
351 6 441
352 6 2726
353 6 1333
354 6 3561
355 6 1825
356 6 2897
357 6 1473
358 6 1956
359 6 1558
360 6 2582
361 6 3586
362 6 1712
363 6 716
364 6 3029
365 6 1723
366 6 2747
367 6 4184
368 6 2235
369 6 3236
370 6 2435
371 6 1237
372 6 2595
373 6 3875
374 6 3635
375 6 3196
376 6 1183
377 6 2148
378 6 1961
379 6 1901
380 6 1488
381 6 3541
382 6 3551
383 6 713
384 6 2715
385 6 1764
386 6 1860
387 6 962
388 6 2325
389 6 2613
390 6 4408
391 6 4350
392 6 1950
393 6 1849
394 6 4804
395 6 2809
396 6 4086
397 6 2410
398 6 2201
399 6 3709
400 6 3553
401 6 1927
402 6 1606
403 6 2691
404 6 2666
405 6 2088
406 6 1160
407 6 1336
408 6 1628
409 6 1827
410 6 2403
411 6 1658
412 6 3557
413 6 2634
414 6 3922
415 6 4806
416 6 2667
417 6 3133
418 6 3962
419 6 1570
420 6 1870
421 6 1119
422 6 1869
423 6 4258
424 6 2056
425 6 3369
426 6 4555
427 6 2744
428 6 3346
429 6 2310
430 6 2587
431 6 2940
432 6 2265
433 6 2179
434 6 2533
435 6 2563
436 6 2631
437 6 1657
438 6 1105
439 6 1947
440 6 2246
441 6 1810
442 6 2733
443 6 2122
444 6 4414
445 6 1085
446 6 2983
447 6 1800
448 6 3395
449 6 2926
450 6 2778
451 6 4189
452 6 2821
453 6 5075
454 6 3935
455 6 4240
456 6 2333
457 6 1695
458 6 830
459 6 2934
460 6 2683
461 6 1496
462 6 2073
463 6 4007
464 6 3096
465 6 2126
466 6 2213
467 6 3223
468 6 1835
469 6 3766
470 6 1527
471 6 2137
472 6 2271
473 6 4394
474 6 3038
475 6 1894
476 6 2470
477 6 2279
478 6 2889
479 6 4339
480 6 1550
481 6 1108
482 6 1399
483 6 2561
484 6 1338
485 6 2839
486 6 2723
487 6 2429
488 6 4351
489 6 1765
490 6 2323
491 6 6291
492 6 2767
493 6 888
494 6 2827
495 6 2245
496 6 4263
497 6 1301
498 6 2982
499 6 2227
500 6 3902
1 7 1680
2 7 1431
3 7 2676
4 7 1018
5 7 1383
6 7 1562
7 7 1373
8 7 1857
9 7 1602
10 7 1844
11 7 3208
12 7 1513
13 7 1329
14 7 846
15 7 1624
16 7 2154
17 7 2100
18 7 553
19 7 2810
21 7 3683
22 7 1766
23 7 940
24 7 1725
25 7 1129
26 7 1418
27 7 3405
28 7 2340
29 7 1382
30 7 2342
31 7 2738
32 7 1882
33 7 2408
34 7 3361
35 7 552
36 7 1299
37 7 2751
38 7 2706
39 7 1403
40 7 3435
41 7 3757
42 7 1481
43 7 665
44 7 1536
45 7 1330
46 7 1202
47 7 1102
48 7 1090
49 7 1829
50 7 1420
51 7 3462
52 7 1794
53 7 1743
54 7 617
55 7 2351
56 7 2417
57 7 1778
58 7 2673
59 7 2261
60 7 3080
61 7 2546
62 7 1319
63 7 3001
64 7 782
65 7 3129
66 7 581
67 7 2846
68 7 1645
69 7 1424
70 7 3211
71 7 1420
72 7 3321
73 7 5514
74 7 1618
75 7 2383
76 7 1525
77 7 1949
78 7 2526
79 7 2878
81 7 2006
82 7 846
83 7 976
84 7 3292
85 7 2325
86 7 2327
87 7 2918
88 7 1846
89 7 796
90 7 1748
91 7 1325
92 7 1350
93 7 1521
94 7 1997
95 7 1389
96 7 3317
97 7 2338
98 7 3042
99 7 1509
100 7 2737
101 7 2923
102 7 3292
103 7 1239
104 7 2394
105 7 1760
106 7 2311
107 7 1273
108 7 1247
109 7 1896
110 7 2252
111 7 1776
112 7 589
113 7 2232
114 7 1194
115 7 1890
116 7 2345
117 7 1688
118 7 2440
119 7 827
120 7 1138
121 7 2207
122 7 3513
123 7 1118
124 7 4433
125 7 1522
126 7 3037
127 7 2218
128 7 2641
129 7 1917
130 7 1774
131 7 2244
132 7 2388
133 7 956
134 7 1694
135 7 999
136 7 1935
137 7 1850
138 7 1169
139 7 3552
140 7 1116
141 7 1500
142 7 913
143 7 2691
144 7 2093
145 7 3586
146 7 2917
147 7 1918
148 7 1673
149 7 1934
150 7 1556
151 7 1159
152 7 1860
153 7 2082
154 7 1802
155 7 2432
156 7 2538
157 7 1563
158 7 2928
159 7 3255
160 7 2069
161 7 2293
162 7 1867
163 7 3679
164 7 2083
165 7 1505
166 7 1576
167 7 1015
168 7 1608
169 7 2086
170 7 1730
171 7 623
172 7 1673
173 7 2401
174 7 1954
175 7 3389
176 7 2292
177 7 3149
178 7 1333
179 7 2296
180 7 3649
181 7 2162
182 7 3004
183 7 770
184 7 1357
185 7 1975
186 7 3220
187 7 2077
188 7 1595
189 7 2608
190 7 2651
191 7 2365
192 7 1233
193 7 1837
194 7 1252
195 7 2825
196 7 1450
197 7 483
198 7 1390
199 7 1286
200 7 1969
201 7 1767
202 7 2745
203 7 2325
204 7 692
205 7 3680
206 7 1538
207 7 2547
208 7 1815
209 7 1755
210 7 1039
211 7 2805
212 7 2216
213 7 2424
214 7 2215
215 7 935
216 7 1313
217 7 2664
218 7 1144
219 7 2440
220 7 915
222 7 3405
223 7 1866
224 7 2313
225 7 552
226 7 1809
227 7 1818
228 7 1089
229 7 2203
230 7 1327
231 7 1514
232 7 3409
233 7 1838
234 7 1284
235 7 2855
236 7 1078
237 7 1268
238 7 2637
239 7 3958
240 7 3398
241 7 2091
242 7 1998
243 7 1855
244 7 291
245 7 1954
246 7 2763
247 7 1872
248 7 839
249 7 2567
250 7 1470
251 7 819
252 7 2065
253 7 2286
254 7 2112
255 7 1757
256 7 2509
257 7 2268
258 7 4128
259 7 1961
260 7 2486
261 7 3266
262 7 1435
263 7 2353
264 7 2340
265 7 1871
266 7 1650
267 7 1531
268 7 550
269 7 1510
270 7 1038
271 7 2501
272 7 1781
273 7 1212
274 7 2289
275 7 1412
276 7 1962
277 7 1577
278 7 1338
279 7 1840
280 7 2921
281 7 2134
282 7 1000
283 7 400
284 7 4175
285 7 4021
286 7 830
287 7 1802
288 7 1491
289 7 1339
290 7 1559
291 7 3014
292 7 2042
293 7 3891
294 7 1161
295 7 1979
296 7 2060
297 7 3018
298 7 2479
299 7 1072
300 7 1544
301 7 1347
302 7 2281
303 7 3131
304 7 3152
305 7 2177
306 7 1804
307 7 2202
308 7 2023
309 7 2210
310 7 763
311 7 2015
312 7 1122
313 7 2174
314 7 1094
316 7 3956
317 7 2412
318 7 2491
319 7 2590
320 7 2055
321 7 2990
322 7 3154
323 7 2705
324 7 1636
325 7 2386
326 7 1771
327 7 1408
328 7 1961
329 7 502
330 7 1079
331 7 1081
332 7 2232
333 7 1290
334 7 3935
335 7 223
336 7 1831
337 7 1808
338 7 1691
339 7 1663
340 7 3562
341 7 355
342 7 1987
343 7 2274
344 7 1647
345 7 2240
346 7 890
347 7 2241
348 7 1474
349 7 1909
350 7 546
351 7 622
352 7 2410
353 7 1737
354 7 1940
355 7 2280
356 7 3649
357 7 3208
358 7 1842
359 7 1797
360 7 2795
361 7 1944
362 7 1802
363 7 931
364 7 3421
365 7 1204
366 7 3278
367 7 1755
368 7 1520
369 7 2531
370 7 1765
371 7 1566
372 7 2770
373 7 3885
374 7 2338
375 7 2636
376 7 1150
377 7 2495
378 7 1718
379 7 1559
380 7 1952
381 7 1959
382 7 3322
383 7 727
384 7 4562
385 7 1581
386 7 878
387 7 866
388 7 2272
389 7 2020
390 7 3759
391 7 1616
392 7 1956
393 7 2389
394 7 2836
395 7 2615
396 7 2816
397 7 3424
398 7 2107
399 7 2653
400 7 2560
401 7 3363
402 7 1800
403 7 2040
404 7 2103
405 7 2104
406 7 899
407 7 1448
408 7 889
409 7 1264
410 7 1570
411 7 1991
412 7 935
413 7 745
414 7 2709
415 7 2426
416 7 1106
417 7 2862
418 7 2862
419 7 1269
420 7 927
422 7 1660
423 7 3833
424 7 1446
425 7 2538
426 7 3455
427 7 2661
428 7 2428
429 7 1139
430 7 1486
431 7 1881
432 7 2212
433 7 2416
434 7 2022
435 7 2339
436 7 1913
437 7 520
438 7 938
439 7 1250
440 7 1549
441 7 943
442 7 1799
443 7 1989
444 7 3513
445 7 646
446 7 1415
447 7 1240
448 7 2096
449 7 1569
450 7 2426
451 7 1522
452 7 1688
453 7 1697
454 7 3482
455 7 2859
456 7 1574
457 7 2385
458 7 904
459 7 1297
460 7 1778
461 7 1944
462 7 4218
463 7 1899
464 7 3315
465 7 2474
466 7 2493
467 7 844
468 7 1572
469 7 3421
470 7 1732
471 7 1585
472 7 2248
473 7 3278
474 7 2945
475 7 564
476 7 2360
477 7 2285
478 7 1285
479 7 1620
480 7 1120
481 7 1370
482 7 2245
483 7 1960
484 7 1557
485 7 1228
486 7 2105
487 7 1865
488 7 3292
489 7 1934
490 7 1592
491 7 2690
492 7 1703
493 7 548
494 7 2677
495 7 1232
496 7 3304
497 7 1236
498 7 2307
499 7 1564
500 7 1735
1 8 19
2 8 51
3 8 43
4 8 18
5 8 67
6 8 11
7 8 31
8 8 54
9 8 23
10 8 76
11 8 38
12 8 80
13 8 16
14 8 5
16 8 15
17 8 35
18 8 14
19 8 15
20 8 1636
21 8 12
22 8 4
23 8 12
24 8 76
25 8 9
26 8 42
27 8 28
28 8 37
29 8 21
30 8 28
31 8 6
32 8 7
33 8 50
34 8 23
35 8 13
36 8 4
37 8 52
39 8 26
40 8 14
41 8 45
42 8 8
43 8 3
44 8 30
45 8 11
46 8 23
47 8 16
48 8 13
49 8 43
50 8 20
51 8 32
52 8 23
53 8 9
54 8 4
55 8 13
56 8 5
57 8 91
58 8 3
59 8 15
60 8 16
61 8 28
62 8 10
63 8 49
64 8 24
65 8 11
66 8 51
67 8 6
68 8 11
69 8 10
70 8 28
71 8 6
72 8 24
73 8 19
74 8 11
75 8 33
76 8 8
77 8 22
78 8 31
79 8 84
80 8 1439
81 8 23
82 8 58
83 8 5
84 8 28
85 8 25
86 8 2
87 8 20
88 8 16
89 8 29
90 8 46
91 8 12
92 8 28
94 8 5
95 8 23
96 8 91
98 8 26
99 8 12
100 8 15
101 8 5
102 8 7
103 8 103
104 8 13
105 8 27
106 8 21
107 8 4
109 8 3
110 8 44
111 8 29
112 8 15
113 8 8
114 8 28
115 8 9
116 8 55
117 8 32
118 8 21
119 8 1274
120 8 21
121 8 12
123 8 3
124 8 20
125 8 58
127 8 26
128 8 85
129 8 18
130 8 15
131 8 40
132 8 25
133 8 57
134 8 2
135 8 2
136 8 3
137 8 31
139 8 21
140 8 47
141 8 12
142 8 18
143 8 87
144 8 1
145 8 28
146 8 17
147 8 9
148 8 8
149 8 7
150 8 1
151 8 33
153 8 18
155 8 4
156 8 67
157 8 15
158 8 21
159 8 18
160 8 53
161 8 3
162 8 55
163 8 10
164 8 3
165 8 37
167 8 9
168 8 6
169 8 9
170 8 6
171 8 8
172 8 10
173 8 186
174 8 2
175 8 16
176 8 8
177 8 40
178 8 20
179 8 30
180 8 12
181 8 46
182 8 41
183 8 530
184 8 23
185 8 4
186 8 39
187 8 13
188 8 10
189 8 57
190 8 66
191 8 22
192 8 282
193 8 32
194 8 22
195 8 32
196 8 9
197 8 43
198 8 3
199 8 14
200 8 15
201 8 19
202 8 57
203 8 4
204 8 34
205 8 41
206 8 15
207 8 1
208 8 26
209 8 19
210 8 18
211 8 73
212 8 11
213 8 30
214 8 38
215 8 24
216 8 30
217 8 2
218 8 12
219 8 20
220 8 14
221 8 2066
222 8 19
223 8 5
224 8 13
225 8 10
226 8 59
227 8 11
228 8 3
229 8 43
230 8 24
231 8 67
232 8 6
233 8 32
234 8 15
236 8 11
237 8 18
238 8 53
239 8 41
240 8 34
241 8 10
242 8 51
243 8 44
244 8 1512
245 8 19
246 8 44
247 8 29
248 8 10
249 8 18
250 8 3
251 8 33
252 8 10
253 8 22
254 8 22
255 8 103
256 8 38
257 8 13
258 8 34
259 8 1
260 8 8
261 8 2
262 8 27
263 8 22
264 8 10
265 8 69
266 8 7
268 8 51
269 8 8
270 8 24
271 8 3
272 8 9
273 8 42
274 8 3
275 8 39
276 8 11
277 8 1
278 8 7
279 8 22
280 8 36
281 8 80
282 8 13
283 8 36
284 8 6
286 8 9
287 8 23
288 8 10
289 8 40
290 8 2
291 8 33
292 8 50
293 8 36
294 8 35
295 8 47
296 8 26
297 8 44
298 8 5
299 8 46
300 8 34
301 8 5
303 8 19
304 8 24
305 8 150
306 8 21
307 8 7
308 8 22
309 8 40
310 8 49
311 8 60
312 8 12
313 8 39
314 8 68
315 8 1986
316 8 55
317 8 6
318 8 22
319 8 61
320 8 25
321 8 38
322 8 9
323 8 9
324 8 8
326 8 21
327 8 29
328 8 3
329 8 31
330 8 18
331 8 19
332 8 10
333 8 19
334 8 8
335 8 2049
336 8 16
337 8 21
338 8 29
339 8 42
340 8 19
341 8 25
342 8 5
343 8 57
344 8 24
345 8 8
346 8 9
347 8 15
348 8 52
349 8 5
350 8 17
351 8 12
352 8 11
353 8 34
354 8 2
355 8 44
356 8 13
357 8 22
358 8 7
359 8 41
360 8 32
361 8 5
362 8 4
363 8 12
364 8 13
366 8 9
367 8 13
368 8 53
369 8 5
370 8 46
372 8 40
373 8 66
374 8 26
375 8 38
376 8 24
377 8 1
378 8 52
379 8 11
380 8 45
381 8 5
382 8 9
383 8 36
384 8 90
385 8 5
386 8 16
387 8 23
388 8 24
389 8 5
390 8 37
391 8 22
392 8 3
393 8 45
394 8 12
395 8 40
396 8 12
398 8 20
399 8 4
400 8 67
402 8 33
403 8 26
404 8 4
405 8 62
406 8 31
407 8 2
408 8 9
409 8 87
410 8 7
411 8 4
412 8 16
413 8 12
414 8 6
415 8 32
416 8 18
417 8 39
418 8 4
419 8 23
420 8 11
421 8 2171
422 8 24
423 8 29
424 8 11
425 8 21
426 8 77
427 8 28
428 8 4
429 8 55
431 8 17
432 8 11
433 8 22
434 8 28
435 8 32
436 8 30
437 8 49
438 8 90
439 8 20
440 8 65
441 8 19
442 8 7
443 8 45
444 8 106
445 8 1381
446 8 42
447 8 11
448 8 8
449 8 26
450 8 13
451 8 42
452 8 6
453 8 15
454 8 14
456 8 16
457 8 9
458 8 17
459 8 42
460 8 22
461 8 60
462 8 4
463 8 50
464 8 12
465 8 6
466 8 5
467 8 58
468 8 6
469 8 5
470 8 11
471 8 11
472 8 3
473 8 24
474 8 5
475 8 63
476 8 11
477 8 4
478 8 14
479 8 25
480 8 34
483 8 14
484 8 44
485 8 18
486 8 2
487 8 2
488 8 26
489 8 11
490 8 19
491 8 4
492 8 57
493 8 3
494 8 28
495 8 4
496 8 19
497 8 34
498 8 30
499 8 9
500 8 12
1 9 3456
2 9 2148
3 9 4015
4 9 301
5 9 1290
6 9 2002
7 9 2369
8 9 5800
9 9 2407
10 9 3138
11 9 1980
12 9 2257
13 9 86
14 9 3641
15 9 1711
16 9 2674
17 9 2378
18 9 2162
19 9 5469
20 9 11
21 9 3075
22 9 2941
23 9 3467
24 9 2304
25 9 932
26 9 2425
27 9 4344
28 9 2620
29 9 1660
30 9 3115
31 9 3468
32 9 1589
33 9 1533
34 9 3217
35 9 767
36 9 3296
37 9 2632
38 9 2155
39 9 2627
40 9 3205
41 9 5527
42 9 2807
43 9 2532
44 9 3986
45 9 1804
46 9 3087
47 9 1937
48 9 3264
49 9 3433
50 9 3298
51 9 3066
52 9 2444
53 9 2806
54 9 1594
55 9 3299
56 9 2169
57 9 2790
58 9 1795
59 9 3174
60 9 3449
61 9 4391
62 9 2579
63 9 2302
64 9 1290
65 9 2108
66 9 1589
67 9 3545
68 9 2748
69 9 3655
70 9 1781
71 9 1634
72 9 3043
73 9 1780
74 9 2602
75 9 3102
76 9 2370
77 9 2281
78 9 1445
79 9 3225
81 9 2549
82 9 1531
83 9 2457
84 9 3073
85 9 4079
86 9 2079
87 9 3261
88 9 1537
89 9 2929
90 9 3352
91 9 981
92 9 1514
93 9 3277
94 9 3871
95 9 2855
96 9 4313
97 9 3230
98 9 2159
99 9 3042
100 9 3601
101 9 4837
102 9 2740
104 9 4570
105 9 3517
106 9 3177
107 9 825
108 9 3175
109 9 2939
110 9 2527
111 9 2505
112 9 597
113 9 1465
114 9 2073
115 9 3157
116 9 3372
117 9 3356
118 9 2608
119 9 2
120 9 152
121 9 3220
122 9 2206
123 9 511
124 9 2879
125 9 3042
126 9 2254
127 9 4258
128 9 3079
129 9 2488
130 9 2426
131 9 2202
132 9 3357
133 9 2862
134 9 1944
135 9 1383
136 9 3065
137 9 3155
138 9 2122
139 9 3961
140 9 2211
141 9 3375
142 9 5421
143 9 2069
144 9 1577
145 9 3609
146 9 5389
147 9 4924
148 9 2474
149 9 2909
150 9 4788
151 9 927
152 9 2410
153 9 2146
154 9 1529
155 9 3555
156 9 4949
157 9 14
158 9 2423
159 9 2983
160 9 2052
161 9 2168
162 9 1893
163 9 3273
164 9 2146
165 9 2493
166 9 2808
167 9 593
168 9 4095
169 9 2852
170 9 1897
171 9 1706
172 9 279
173 9 2177
174 9 4732
175 9 3135
176 9 2223
177 9 3943
178 9 3550
179 9 2158
180 9 1574
181 9 975
182 9 3071
183 9 7
184 9 209
185 9 2509
186 9 3224
187 9 2651
188 9 3250
189 9 3831
190 9 2162
191 9 2861
192 9 8
193 9 3209
194 9 3032
195 9 8033
196 9 2400
197 9 876
198 9 1300
199 9 4968
200 9 2050
201 9 3593
202 9 3189
203 9 3755
204 9 2215
205 9 4165
206 9 2074
207 9 3191
208 9 3237
209 9 2449
210 9 1929
211 9 6411
212 9 1857
213 9 3060
214 9 2625
215 9 5688
216 9 2663
217 9 3943
218 9 2747
219 9 1993
220 9 2483
222 9 2988
223 9 1584
224 9 2483
225 9 2176
226 9 3363
227 9 3230
228 9 1379
229 9 3136
230 9 33
231 9 2281
232 9 5082
233 9 3833
234 9 2369
235 9 2156
236 9 992
237 9 2322
238 9 2916
239 9 2627
240 9 3767
241 9 2564
242 9 1961
243 9 2700
244 9 4
245 9 2194
246 9 5832
247 9 2527
248 9 1561
249 9 2006
250 9 2248
251 9 3033
252 9 2826
253 9 3120
254 9 3715
255 9 2759
256 9 3358
257 9 2407
258 9 4093
259 9 2407
260 9 2855
261 9 4688
262 9 3271
263 9 4082
264 9 2484
265 9 3265
266 9 229
267 9 2726
268 9 2476
269 9 3331
270 9 2210
271 9 2312
272 9 1983
273 9 4040
274 9 2220
275 9 2382
276 9 3156
277 9 2430
278 9 2658
279 9 2524
280 9 4545
281 9 1935
282 9 1686
283 9 496
284 9 3845
285 9 5406
286 9 1404
287 9 2408
288 9 2599
289 9 2463
290 9 3922
291 9 3696
292 9 3298
293 9 2544
294 9 986
295 9 1793
296 9 1773
297 9 2695
298 9 4664
299 9 2864
300 9 2252
301 9 2488
302 9 3527
303 9 2471
304 9 2572
305 9 2872
306 9 914
307 9 1594
308 9 1901
309 9 2200
310 9 2609
311 9 2026
312 9 2016
313 9 3262
314 9 1119
316 9 2618
317 9 4202
318 9 1489
319 9 4922
320 9 1906
321 9 2833
322 9 2084
323 9 3448
324 9 2902
325 9 1282
326 9 2571
327 9 4049
328 9 3091
329 9 784
330 9 776
331 9 2645
332 9 2414
333 9 25
334 9 3594
335 9 2
336 9 3071
337 9 2900
338 9 3672
339 9 1571
340 9 3044
341 9 6
342 9 3100
343 9 2024
344 9 2518
345 9 2127
346 9 2666
347 9 3204
348 9 2188
349 9 3775
350 9 2154
351 9 1674
352 9 2860
353 9 1813
354 9 2429
355 9 805
356 9 3339
357 9 2386
358 9 2628
359 9 728
360 9 1697
361 9 2519
362 9 3427
363 9 779
364 9 4630
365 9 2221
366 9 2109
367 9 3476
368 9 2344
369 9 2894
370 9 2511
371 9 2822
372 9 1689
373 9 2641
374 9 3091
375 9 2071
376 9 1375
377 9 2601
378 9 2864
379 9 1546
380 9 1281
381 9 2447
382 9 2392
383 9 2904
384 9 4460
385 9 2657
386 9 4108
387 9 117
388 9 1664
389 9 1515
390 9 2643
391 9 2699
392 9 2053
393 9 3264
394 9 3458
395 9 3977
396 9 2284
397 9 3325
398 9 3077
399 9 4410
400 9 4995
401 9 3543
402 9 738
403 9 1367
404 9 2301
405 9 1105
406 9 1855
407 9 1346
408 9 722
410 9 2541
411 9 3093
412 9 2434
413 9 1771
414 9 4859
415 9 3453
416 9 1997
417 9 2992
418 9 2357
419 9 2435
420 9 6182
422 9 1490
423 9 2607
424 9 1487
425 9 2797
426 9 4363
427 9 2265
428 9 3010
429 9 1082
430 9 3276
431 9 5406
432 9 3229
433 9 4328
434 9 2436
435 9 2873
436 9 2297
437 9 2557
438 9 7
439 9 2034
440 9 1631
441 9 5548
442 9 3501
443 9 1938
444 9 4282
445 9 3
446 9 2415
447 9 1564
448 9 2412
449 9 3306
450 9 2831
451 9 2195
452 9 3629
453 9 3538
454 9 3246
455 9 1719
456 9 1225
457 9 3639
458 9 78
459 9 2425
460 9 2504
461 9 8
462 9 3788
463 9 5729
464 9 4079
465 9 2553
466 9 2644
467 9 5913
468 9 572
469 9 3912
470 9 1501
471 9 1623
472 9 2173
473 9 3051
474 9 3827
475 9 1622
476 9 4010
477 9 2234
478 9 3045
479 9 4783
480 9 825
481 9 3747
482 9 3555
483 9 2425
484 9 42
485 9 3104
486 9 2822
487 9 2197
488 9 3030
489 9 2451
490 9 3479
491 9 1880
492 9 3224
493 9 1056
494 9 4062
495 9 77
496 9 3087
497 9 28
498 9 1735
499 9 1818
500 9 4324
1 10 19
2 10 5
3 10 21
4 10 3781
5 10 13
7 10 11
8 10 13
9 10 2
10 10 11
11 10 27
13 10 4433
14 10 5
15 10 45
16 10 9
17 10 28
18 10 40
19 10 5
20 10 6008
21 10 25
22 10 19
23 10 5
24 10 65
25 10 185
26 10 9
27 10 24
28 10 24
29 10 5
30 10 13
31 10 75
32 10 5
34 10 4
35 10 231
36 10 13
37 10 26
38 10 6
39 10 31
40 10 47
41 10 32
42 10 20
43 10 4
44 10 5
45 10 43
46 10 10
47 10 29
48 10 18
49 10 3
50 10 9
51 10 9
52 10 23
53 10 29
54 10 15
55 10 3
56 10 20
57 10 6
58 10 30
59 10 6
60 10 32
61 10 22
62 10 4
63 10 4
64 10 24
65 10 19
66 10 29
67 10 30
68 10 18
69 10 12
70 10 12
71 10 40
72 10 5
73 10 13
74 10 11
75 10 5
77 10 2
78 10 4
80 10 2628
81 10 14
82 10 3
83 10 46
85 10 66
86 10 67
87 10 4
88 10 5
90 10 6
91 10 25
92 10 46
93 10 13
94 10 29
95 10 1
96 10 3
97 10 7
98 10 14
99 10 13
100 10 82
101 10 82
102 10 31
103 10 4341
104 10 29
105 10 16
106 10 8
107 10 9
108 10 49
109 10 7
110 10 11
111 10 45
112 10 465
113 10 4
114 10 11
115 10 16
116 10 2
118 10 7
119 10 4163
120 10 2090
121 10 15
122 10 22
123 10 3744
124 10 3
125 10 36
126 10 16
127 10 22
128 10 24
129 10 34
130 10 43
132 10 19
133 10 31
134 10 6
136 10 28
137 10 6
138 10 22
139 10 13
140 10 16
142 10 7
143 10 19
146 10 9
148 10 9
149 10 36
150 10 53
151 10 28
152 10 5
153 10 24
154 10 5
155 10 5
156 10 5
157 10 11859
158 10 109
159 10 7
160 10 46
161 10 70
162 10 11
164 10 40
165 10 43
166 10 24
167 10 94
168 10 15
169 10 8
170 10 2
171 10 20
172 10 2981
173 10 45
174 10 1
175 10 14
176 10 37
177 10 5
178 10 4
179 10 3
180 10 34
181 10 22
182 10 26
183 10 4965
184 10 1300
185 10 82
186 10 12
187 10 13
188 10 3
189 10 27
190 10 37
191 10 35
192 10 9595
193 10 12
194 10 20
195 10 14
196 10 20
197 10 23
199 10 11
200 10 6
201 10 14
203 10 31
204 10 38
205 10 5
206 10 10
208 10 7
209 10 43
211 10 20
212 10 6
213 10 22
215 10 11
218 10 22
219 10 11
220 10 54
221 10 5605
222 10 7
223 10 2
224 10 42
225 10 38
226 10 33
227 10 5
229 10 64
230 10 3370
232 10 4
233 10 29
234 10 31
235 10 6
236 10 487
237 10 8
238 10 9
239 10 87
240 10 6
241 10 13
242 10 26
243 10 36
244 10 6024
245 10 2
246 10 54
247 10 11
248 10 31
249 10 22
250 10 8
251 10 32
252 10 8
253 10 9
254 10 14
255 10 5
256 10 40
257 10 7
258 10 18
259 10 61
260 10 19
261 10 43
262 10 11
263 10 30
264 10 11
265 10 33
266 10 2838
267 10 18
268 10 26
270 10 33
271 10 16
272 10 8
273 10 29
274 10 83
275 10 7
276 10 3
277 10 8
278 10 23
279 10 46
280 10 3
281 10 31
282 10 15
283 10 2
287 10 32
288 10 16
289 10 11
290 10 7
291 10 12
292 10 11
293 10 99
294 10 6
295 10 2
296 10 74
297 10 5
298 10 17
299 10 5
300 10 12
301 10 8
302 10 1
303 10 10
304 10 6
305 10 100
306 10 727
308 10 10
309 10 12
310 10 7
311 10 28
312 10 24
313 10 18
314 10 70
315 10 5613
316 10 53
317 10 49
318 10 6
319 10 11
320 10 2
321 10 3
322 10 20
323 10 72
324 10 12
326 10 81
327 10 19
328 10 23
329 10 24
330 10 24
331 10 26
332 10 39
333 10 8431
335 10 4859
336 10 4
337 10 10
338 10 13
339 10 4
340 10 18
341 10 13486
342 10 23
343 10 27
344 10 42
345 10 72
346 10 31
347 10 17
348 10 3
349 10 22
350 10 36
351 10 13
352 10 24
353 10 7
354 10 66
355 10 12
356 10 40
357 10 49
358 10 7
359 10 15
360 10 56
361 10 74
362 10 29
363 10 1
364 10 20
365 10 24
366 10 8
367 10 7
368 10 2
369 10 17
370 10 4
371 10 5
372 10 70
373 10 48
374 10 10
375 10 35
376 10 34
377 10 70
378 10 38
379 10 20
380 10 40
381 10 82
382 10 23
383 10 13
384 10 31
385 10 7
386 10 11
387 10 2390
388 10 40
389 10 10
390 10 90
392 10 6
393 10 6
394 10 77
395 10 10
396 10 16
397 10 23
398 10 15
399 10 25
400 10 63
401 10 6
402 10 19
403 10 5
404 10 11
405 10 70
407 10 3
408 10 606
409 10 4400
410 10 2
411 10 21
412 10 56
413 10 18
414 10 14
415 10 12
417 10 12
418 10 5
419 10 20
420 10 3
421 10 8029
422 10 15
423 10 90
424 10 26
425 10 35
426 10 1
427 10 28
428 10 14
429 10 65
430 10 17
431 10 33
432 10 18
433 10 27
434 10 11
435 10 9
436 10 19
437 10 36
438 10 2699
439 10 13
440 10 14
441 10 6
443 10 12
444 10 2
445 10 3582
446 10 8
447 10 29
448 10 14
449 10 6
450 10 21
451 10 15
452 10 15
453 10 11
454 10 23
455 10 13
456 10 16
457 10 18
458 10 5694
459 10 12
460 10 41
461 10 6961
463 10 6
464 10 47
465 10 77
466 10 82
467 10 26
468 10 1271
469 10 4
470 10 13
471 10 3
472 10 77
473 10 8
474 10 37
475 10 32
476 10 20
477 10 63
478 10 22
479 10 10
480 10 42
481 10 4
482 10 2
483 10 25
484 10 7360
485 10 22
487 10 39
488 10 12
489 10 5
491 10 24
492 10 42
493 10 279
494 10 11
495 10 3659
496 10 17
497 10 8374
498 10 57
499 10 48
500 10 23
1 11 4885
2 11 7349
3 11 4419
4 11 4
5 11 2935
6 11 4505
7 11 8220
8 11 3395
9 11 5724
10 11 4193
11 11 5072
12 11 5740
14 11 1897
15 11 3410
16 11 2968
17 11 4234
18 11 7047
19 11 8129
21 11 4286
22 11 3181
23 11 4656
24 11 5490
25 11 49
26 11 8127
27 11 7128
28 11 4995
29 11 4291
30 11 6189
31 11 3561
32 11 6099
33 11 3858
34 11 5560
35 11 28
36 11 4216
37 11 5849
38 11 5456
39 11 3339
40 11 4845
41 11 7655
42 11 4907
43 11 2041
44 11 4457
45 11 5836
46 11 9576
47 11 5010
48 11 3990
49 11 8521
50 11 3150
51 11 3717
52 11 4249
53 11 2938
54 11 3077
55 11 3233
56 11 4094
57 11 4160
58 11 3913
59 11 6041
60 11 3623
61 11 7952
62 11 4429
63 11 5455
64 11 430
65 11 3438
66 11 4579
67 11 4199
68 11 3665
69 11 5992
70 11 2350
71 11 68
72 11 5417
73 11 6181
74 11 4083
75 11 5893
76 11 5086
77 11 2714
78 11 4823
79 11 8378
80 11 4
81 11 8009
82 11 3961
83 11 7486
84 11 4140
85 11 3346
86 11 4000
87 11 6114
88 11 5681
89 11 5224
90 11 2276
91 11 1623
92 11 700
93 11 6615
94 11 3499
95 11 4154
96 11 5458
97 11 3393
98 11 3369
99 11 4073
100 11 3693
101 11 4845
102 11 5989
104 11 10073
105 11 5917
106 11 6130
107 11 353
108 11 4539
109 11 2945
110 11 4216
111 11 4708
112 11 11
113 11 2390
114 11 6387
115 11 3887
116 11 4400
117 11 3454
118 11 5714
119 11 2
120 11 21
121 11 4060
122 11 4556
123 11 3
124 11 5905
125 11 6639
126 11 4385
127 11 5887
128 11 5007
129 11 2699
130 11 4733
131 11 5846
132 11 7387
133 11 5249
134 11 6491
135 11 862
136 11 4372
137 11 4528
138 11 2030
139 11 5945
140 11 1469
141 11 6510
142 11 5077
143 11 6680
144 11 5868
145 11 5859
146 11 8170
147 11 6128
148 11 4092
149 11 6669
150 11 3721
151 11 4042
152 11 7694
153 11 3393
154 11 3668
155 11 8460
156 11 4446
157 11 12
158 11 6574
159 11 5365
160 11 8213
161 11 3929
162 11 5751
163 11 3981
164 11 2852
165 11 4846
166 11 4960
167 11 60
168 11 2576
169 11 2947
170 11 6439
171 11 3225
172 11 9
173 11 3986
174 11 5511
175 11 5370
176 11 4007
177 11 5679
178 11 2991
179 11 6030
180 11 1108
181 11 3030
182 11 4467
183 11 7
184 11 5
185 11 4851
186 11 4877
187 11 8012
188 11 5558
189 11 4287
190 11 5710
191 11 8447
193 11 4470
194 11 7100
195 11 4784
196 11 4231
197 11 2241
198 11 957
199 11 6432
200 11 2554
201 11 4383
202 11 6405
203 11 5014
204 11 3620
205 11 4185
206 11 3728
207 11 4648
208 11 4461
209 11 4746
210 11 2811
211 11 5346
212 11 3608
213 11 3705
214 11 7465
215 11 5002
216 11 4721
217 11 4960
218 11 3053
219 11 4666
220 11 7572
222 11 5462
223 11 6115
224 11 6942
225 11 6869
226 11 3711
227 11 4094
228 11 825
229 11 5858
230 11 29
231 11 5802
232 11 5161
233 11 4081
234 11 2911
235 11 5440
236 11 9
237 11 5101
238 11 4124
239 11 3321
240 11 7180
241 11 5120
242 11 6396
243 11 4025
245 11 2730
246 11 5877
247 11 3817
248 11 1293
249 11 4597
250 11 2935
251 11 6336
252 11 5019
253 11 5936
254 11 3441
255 11 4901
256 11 8167
257 11 6464
258 11 6932
259 11 4903
260 11 4180
261 11 6431
262 11 3168
263 11 3226
264 11 6552
265 11 3614
266 11 3
267 11 4966
268 11 4598
269 11 6602
270 11 5183
271 11 4551
272 11 3333
273 11 4053
274 11 3894
275 11 8223
276 11 5631
277 11 1197
278 11 8115
279 11 4724
280 11 4594
281 11 3747
282 11 200
283 11 3321
284 11 5595
285 11 7833
286 11 5639
287 11 4232
288 11 4703
289 11 8215
290 11 3444
291 11 5623
292 11 5154
293 11 3326
294 11 5253
295 11 6598
296 11 4097
297 11 4385
298 11 12171
299 11 6544
300 11 5868
301 11 4379
302 11 5554
303 11 5779
304 11 4592
305 11 4948
306 11 7
307 11 5695
308 11 5226
309 11 5540
310 11 6409
311 11 6457
312 11 5077
313 11 3421
314 11 2703
316 11 5073
317 11 6136
318 11 4680
319 11 4499
320 11 4383
321 11 4516
322 11 4028
323 11 3704
324 11 3674
325 11 5416
326 11 4979
327 11 5366
328 11 4414
329 11 1072
330 11 3158
331 11 4566
332 11 7061
333 11 12
334 11 4126
336 11 4288
337 11 3768
338 11 5048
339 11 1433
340 11 4710
341 11 11
342 11 4394
343 11 1383
344 11 4791
345 11 3916
346 11 3247
347 11 11151
348 11 7284
349 11 5934
350 11 6968
351 11 3128
352 11 4108
353 11 3921
354 11 4885
355 11 5701
356 11 4852
357 11 4677
358 11 7265
359 11 4129
360 11 5074
361 11 4906
362 11 6057
363 11 2357
364 11 7217
365 11 2081
366 11 4911
367 11 5172
368 11 4240
369 11 2323
370 11 5028
371 11 5673
372 11 5176
373 11 5174
374 11 6093
375 11 4648
376 11 143
377 11 4861
378 11 4322
379 11 7006
380 11 8853
381 11 4874
382 11 4108
383 11 3161
384 11 4838
385 11 4896
386 11 7756
387 11 13
388 11 3209
389 11 3650
390 11 3246
391 11 3213
392 11 3098
393 11 4381
394 11 3636
395 11 4236
396 11 6731
397 11 3024
398 11 7172
399 11 3780
400 11 5374
401 11 4528
402 11 4074
403 11 6322
404 11 4708
405 11 4535
406 11 1236
407 11 947
408 11 10
410 11 1673
411 11 4344
412 11 7735
413 11 4444
414 11 6297
415 11 3733
416 11 2759
417 11 4271
418 11 5418
419 11 3383
420 11 5599
421 11 14
422 11 1799
423 11 3296
424 11 134
425 11 3334
426 11 5685
427 11 4521
428 11 2369
429 11 2768
430 11 6606
431 11 8837
432 11 11120
433 11 7711
434 11 7772
435 11 2158
436 11 7717
437 11 4646
439 11 6330
440 11 3846
441 11 4968
442 11 3274
443 11 5212
444 11 5610
445 11 5
446 11 8342
447 11 3109
448 11 5164
449 11 7242
450 11 4154
451 11 5780
452 11 4539
453 11 6738
454 11 4738
455 11 5820
456 11 4782
457 11 5485
458 11 7
459 11 8151
460 11 4853
461 11 4
462 11 5494
463 11 3531
464 11 5326
465 11 4946
466 11 4957
467 11 5544
469 11 7317
470 11 2394
471 11 2497
472 11 3845
473 11 5337
474 11 4482
475 11 4556
476 11 5020
477 11 3930
478 11 7123
479 11 6538
480 11 3539
481 11 3862
482 11 5599
483 11 6024
485 11 6978
486 11 4725
487 11 7193
488 11 5561
489 11 6838
490 11 6534
491 11 4039
492 11 4104
493 11 2
494 11 5570
495 11 3
496 11 5321
497 11 14
498 11 4104
499 11 1934
500 11 4055
1 12 2217
2 12 1520
3 12 1770
5 12 1182
6 12 884
7 12 1698
8 12 3212
9 12 1911
10 12 1657
11 12 2175
12 12 1941
14 12 1727
15 12 1148
16 12 2981
17 12 1038
18 12 1561
19 12 818
21 12 2726
22 12 1812
23 12 2307
24 12 2161
25 12 1
26 12 1755
27 12 3545
28 12 3277
29 12 1463
30 12 1714
31 12 1659
32 12 1164
33 12 2609
34 12 2638
36 12 824
37 12 916
38 12 2796
39 12 900
40 12 1915
41 12 2160
42 12 1477
43 12 2281
44 12 1864
45 12 2907
46 12 2413
47 12 2638
48 12 2545
49 12 1754
50 12 319
51 12 1529
52 12 1961
53 12 1951
54 12 1837
55 12 1693
56 12 2303
57 12 973
58 12 1698
59 12 1692
60 12 2988
61 12 2906
62 12 891
63 12 2139
65 12 1220
66 12 2294
67 12 2395
68 12 2347
69 12 1736
70 12 1565
72 12 2481
73 12 1214
74 12 2014
75 12 1627
76 12 853
77 12 1669
78 12 1620
79 12 1831
81 12 2063
82 12 1073
83 12 2196
84 12 1931
85 12 2818
86 12 1789
87 12 2915
88 12 2083
89 12 4630
90 12 2349
91 12 76
92 12 37
93 12 2073
94 12 1679
95 12 1548
96 12 3086
97 12 1343
98 12 1208
99 12 1309
100 12 1688
101 12 1733
102 12 2263
104 12 2349
105 12 3797
106 12 1629
107 12 5
108 12 2243
109 12 1335
110 12 2389
111 12 2084
113 12 82
114 12 1158
115 12 761
116 12 1678
117 12 1040
118 12 1433
121 12 1460
122 12 1309
124 12 1699
125 12 2214
126 12 2301
127 12 2895
128 12 1885
129 12 2112
130 12 2028
131 12 1324
132 12 2006
133 12 1731
134 12 1776
135 12 346
136 12 1578
137 12 2686
138 12 1163
139 12 2498
140 12 830
141 12 1706
142 12 2410
143 12 1634
144 12 1885
145 12 1418
146 12 882
147 12 3655
148 12 2095
149 12 1682
150 12 1527
151 12 1595
152 12 1641
153 12 1372
154 12 1245
155 12 2768
156 12 1791
158 12 1663
159 12 2397
160 12 1206
161 12 1799
162 12 2384
163 12 1652
164 12 1287
165 12 3121
166 12 2702
168 12 290
169 12 2974
170 12 1740
171 12 1806
173 12 2930
174 12 2653
175 12 2481
176 12 2153
177 12 1507
178 12 1105
179 12 1361
180 12 44
181 12 1795
182 12 1370
185 12 890
186 12 2377
187 12 2053
188 12 3166
189 12 3039
190 12 2123
191 12 1710
193 12 2730
194 12 1922
195 12 2342
196 12 1962
197 12 794
198 12 30
199 12 1752
200 12 1001
201 12 811
202 12 2041
203 12 3101
204 12 1225
205 12 1581
206 12 973
207 12 1494
208 12 2700
209 12 2043
210 12 2931
211 12 2092
212 12 2465
213 12 1232
214 12 2849
215 12 2391
216 12 1835
217 12 2427
218 12 1893
219 12 1090
220 12 2071
222 12 2504
223 12 1193
224 12 1760
225 12 1564
226 12 2177
227 12 1732
228 12 401
229 12 2357
231 12 2050
232 12 1846
233 12 1902
234 12 1702
235 12 2573
237 12 1645
238 12 1638
239 12 1969
240 12 3172
241 12 1492
242 12 2045
243 12 1785
245 12 1727
246 12 3383
247 12 1549
248 12 529
249 12 1074
250 12 118
251 12 1955
252 12 1936
253 12 1620
254 12 1546
255 12 2065
256 12 1684
257 12 1829
258 12 2461
259 12 803
260 12 3122
261 12 2663
262 12 336
263 12 2445
264 12 1892
265 12 2189
267 12 2691
268 12 1470
269 12 1691
270 12 1158
271 12 1376
272 12 979
273 12 3132
274 12 1813
275 12 1759
276 12 2663
277 12 113
278 12 2318
279 12 2034
280 12 1783
281 12 1861
282 12 3
283 12 640
284 12 2511
285 12 2154
286 12 1436
287 12 2040
288 12 2037
289 12 1755
290 12 1892
291 12 1786
292 12 2161
293 12 1964
294 12 1287
295 12 3339
296 12 2137
297 12 1367
298 12 760
299 12 2522
300 12 2003
301 12 1211
302 12 2854
303 12 2084
304 12 3180
305 12 5073
307 12 1893
308 12 1631
309 12 2140
310 12 1171
311 12 2065
312 12 2500
313 12 1730
314 12 3429
316 12 3464
317 12 2831
318 12 1676
319 12 1863
320 12 1180
321 12 1375
322 12 1500
323 12 1698
324 12 2268
325 12 1916
326 12 4124
327 12 1224
328 12 1666
329 12 47
330 12 1934
331 12 1686
332 12 1817
334 12 1874
336 12 1746
337 12 1097
338 12 1852
339 12 1371
340 12 2971
341 12 2
342 12 1678
343 12 799
344 12 2160
345 12 1878
346 12 1672
347 12 1599
348 12 1536
349 12 1742
350 12 1592
351 12 1844
352 12 3224
353 12 230
354 12 786
355 12 1848
356 12 1941
357 12 2250
358 12 1922
359 12 2069
360 12 689
361 12 779
362 12 1699
363 12 769
364 12 2329
365 12 1149
366 12 1731
367 12 3879
368 12 1368
369 12 2472
370 12 1539
371 12 1324
372 12 724
373 12 3327
374 12 1659
375 12 1722
376 12 7
377 12 1371
378 12 1553
379 12 1624
380 12 1325
381 12 866
382 12 1458
383 12 702
384 12 2418
385 12 2133
386 12 3141
388 12 1058
389 12 1279
390 12 2045
391 12 1757
392 12 1095
393 12 1629
394 12 1685
395 12 1811
396 12 1573
397 12 1893
398 12 1604
399 12 1311
400 12 3661
401 12 1790
402 12 2016
403 12 1970
404 12 1316
405 12 1060
406 12 44
407 12 37
410 12 123
411 12 1616
412 12 2172
413 12 2131
414 12 3409
415 12 1059
416 12 3065
417 12 1552
418 12 1309
419 12 2440
420 12 3127
422 12 306
423 12 2003
425 12 958
426 12 3164
427 12 1700
428 12 2535
429 12 3466
430 12 2101
431 12 3819
432 12 1581
433 12 2907
434 12 2252
435 12 972
436 12 2250
437 12 1486
439 12 1073
440 12 1440
441 12 2358
442 12 2170
443 12 1395
444 12 3256
446 12 1780
447 12 94
448 12 1418
449 12 2859
450 12 3249
451 12 1979
452 12 1431
453 12 1659
454 12 2662
455 12 2762
456 12 1213
457 12 601
458 12 2
459 12 1745
460 12 2059
462 12 2374
463 12 3097
464 12 2969
465 12 1395
466 12 1431
467 12 2912
469 12 1760
470 12 227
471 12 1353
472 12 1851
473 12 2470
474 12 3625
475 12 2263
476 12 3832
477 12 1864
478 12 1863
479 12 3499
480 12 2120
481 12 1793
482 12 2927
483 12 2058
484 12 2
485 12 1905
486 12 2024
487 12 1110
488 12 2540
489 12 1571
490 12 2632
491 12 1787
492 12 1749
494 12 3007
496 12 2464
498 12 4373
499 12 1681
500 12 2330
1 13 2730
2 13 1938
3 13 1674
5 13 1448
6 13 523
7 13 2291
8 13 2990
9 13 2927
10 13 1836
11 13 3264
12 13 2690
14 13 2299
15 13 4118
16 13 1720
17 13 1760
18 13 2357
19 13 4545
21 13 3001
22 13 2250
23 13 2968
24 13 3052
26 13 2362
27 13 2081
28 13 1895
29 13 827
30 13 2060
31 13 2954
32 13 48
33 13 2062
34 13 3758
36 13 1583
37 13 2007
38 13 3612
39 13 2652
40 13 3657
41 13 4972
42 13 2344
43 13 2242
44 13 2277
45 13 2721
46 13 4185
47 13 2147
48 13 1418
49 13 2621
50 13 38
51 13 2806
52 13 3207
53 13 3724
54 13 1163
55 13 2210
56 13 2938
57 13 2794
58 13 1854
59 13 2015
60 13 2049
61 13 3809
62 13 195
63 13 5020
65 13 2140
66 13 1981
67 13 3521
68 13 2228
69 13 866
70 13 2019
72 13 2410
73 13 2292
74 13 2798
75 13 1991
76 13 1775
77 13 3284
78 13 2353
79 13 3250
81 13 2041
82 13 309
83 13 1494
84 13 1718
85 13 3494
86 13 3487
87 13 2963
88 13 2786
89 13 2410
90 13 1939
93 13 3130
94 13 3155
95 13 2335
96 13 5263
97 13 2484
98 13 2129
99 13 470
100 13 2945
101 13 5318
102 13 2871
104 13 2472
105 13 1485
106 13 2019
108 13 1893
109 13 123
110 13 1730
111 13 3124
113 13 25
114 13 2864
115 13 4153
116 13 1179
117 13 2624
118 13 2133
121 13 2998
122 13 1786
124 13 2328
125 13 2349
126 13 3577
127 13 3652
128 13 2831
129 13 3395
130 13 3218
131 13 3923
132 13 2616
133 13 2202
134 13 1656
136 13 1617
137 13 1982
138 13 1127
139 13 3057
140 13 766
141 13 3174
142 13 1776
143 13 2922
144 13 3019
145 13 3011
146 13 4446
147 13 4308
148 13 2829
149 13 2162
150 13 2608
151 13 1385
152 13 2286
153 13 1453
154 13 2557
155 13 2899
156 13 641
158 13 2638
159 13 2413
160 13 1768
161 13 3510
162 13 3121
163 13 2254
164 13 1585
165 13 4109
166 13 1982
168 13 1232
169 13 1777
170 13 1677
171 13 1159
173 13 3656
174 13 2275
175 13 2333
176 13 2436
177 13 3332
178 13 339
179 13 3771
180 13 4
181 13 1351
182 13 2054
185 13 1163
186 13 3724
187 13 2007
188 13 1895
189 13 3787
190 13 2434
191 13 3428
193 13 2038
194 13 2998
195 13 3928
196 13 1743
197 13 3498
199 13 3049
200 13 2276
201 13 23
202 13 1385
203 13 3442
204 13 2472
205 13 580
206 13 2913
207 13 2485
208 13 2003
209 13 3223
210 13 4362
211 13 3690
212 13 1783
213 13 1915
214 13 3478
215 13 1699
216 13 2322
217 13 1619
218 13 2317
219 13 122
220 13 1521
222 13 2359
223 13 29
224 13 1209
225 13 2320
226 13 2880
227 13 2251
229 13 2800
231 13 2775
232 13 3135
233 13 3461
234 13 2021
235 13 3667
237 13 1253
238 13 2344
239 13 2703
240 13 4829
241 13 1390
242 13 2112
243 13 3100
245 13 3344
246 13 3578
247 13 3535
248 13 248
249 13 118
251 13 2728
252 13 2040
253 13 2093
254 13 2790
255 13 3230
256 13 2709
257 13 1648
258 13 3248
259 13 1183
260 13 2585
261 13 3417
262 13 34
263 13 1900
264 13 1738
265 13 2832
267 13 1976
268 13 2345
269 13 3089
270 13 2483
271 13 2949
272 13 3205
273 13 3437
274 13 3538
275 13 2235
276 13 1394
277 13 4
278 13 2757
279 13 3143
280 13 3069
281 13 2123
283 13 13
284 13 3934
285 13 3220
286 13 182
287 13 3281
288 13 3229
289 13 2347
290 13 1749
291 13 3059
292 13 2200
293 13 2745
294 13 2792
295 13 2684
296 13 2665
297 13 2458
298 13 3507
299 13 3760
300 13 3256
301 13 1360
302 13 2565
303 13 2494
304 13 2256
305 13 4106
307 13 3059
308 13 1882
309 13 3267
310 13 3078
311 13 2187
312 13 1995
313 13 2293
314 13 2125
316 13 3767
317 13 3159
318 13 2330
319 13 586
320 13 2814
321 13 2412
322 13 785
323 13 3021
324 13 2203
325 13 2447
326 13 2755
327 13 1771
328 13 1591
329 13 3
330 13 1714
331 13 1660
332 13 1216
334 13 2625
336 13 2304
337 13 1812
338 13 2606
339 13 1607
340 13 3768
342 13 1466
343 13 5113
344 13 3231
345 13 3443
346 13 3086
347 13 1733
348 13 1930
349 13 2722
350 13 2323
351 13 1113
352 13 2398
353 13 10
354 13 1213
355 13 2464
356 13 3732
357 13 2083
358 13 1531
359 13 2756
360 13 2484
361 13 1251
362 13 1839
363 13 60
364 13 1684
365 13 1120
366 13 1491
367 13 2240
368 13 2275
369 13 1625
370 13 1655
371 13 3460
372 13 2441
373 13 3836
374 13 2009
375 13 1707
377 13 3624
378 13 2471
379 13 2217
380 13 1457
381 13 1256
382 13 1731
383 13 927
384 13 2746
385 13 2250
386 13 2303
388 13 4404
389 13 990
390 13 2732
391 13 2906
392 13 1387
393 13 1253
394 13 2872
395 13 1699
396 13 3410
397 13 4120
398 13 3868
399 13 3147
400 13 3189
401 13 2954
402 13 2836
403 13 2723
404 13 2574
405 13 1445
410 13 9
411 13 1499
412 13 1471
413 13 899
414 13 3376
415 13 1824
416 13 4356
417 13 1779
418 13 1032
419 13 2346
420 13 3034
422 13 29
423 13 2758
424 13 2
425 13 2104
426 13 5485
427 13 3225
428 13 1658
429 13 2085
430 13 3123
431 13 4331
432 13 1773
433 13 3690
434 13 2212
435 13 1374
436 13 2197
437 13 2400
439 13 2857
440 13 2925
441 13 1694
442 13 1846
443 13 1375
444 13 5532
446 13 2273
447 13 44
448 13 1389
449 13 2915
450 13 2593
451 13 3288
452 13 2834
453 13 2293
454 13 3675
455 13 2073
456 13 1433
457 13 2911
459 13 2349
460 13 3165
462 13 3965
463 13 3071
464 13 2447
465 13 3555
466 13 3740
467 13 2641
469 13 1816
470 13 7
471 13 3229
472 13 3357
473 13 2283
474 13 4349
475 13 1907
476 13 2211
477 13 3430
478 13 3037
479 13 3172
480 13 1729
481 13 2238
482 13 2526
483 13 2628
485 13 2938
486 13 4127
487 13 2808
488 13 2275
489 13 1645
490 13 3699
491 13 1832
492 13 1915
494 13 3564
496 13 2342
498 13 3291
499 13 1474
500 13 3135
1 14 153
2 14 718
3 14 560
5 14 575
6 14 467
7 14 99
8 14 1333
9 14 407
10 14 630
11 14 886
12 14 482
14 14 272
15 14 167
16 14 1066
17 14 139
18 14 349
19 14 1094
21 14 162
22 14 181
23 14 954
24 14 503
26 14 99
27 14 779
28 14 213
29 14 1166
30 14 138
31 14 290
32 14 27
33 14 223
34 14 358
36 14 94
37 14 116
38 14 235
39 14 513
40 14 330
41 14 233
42 14 924
43 14 621
44 14 351
45 14 726
46 14 429
47 14 183
48 14 256
49 14 77
50 14 1
51 14 151
52 14 101
53 14 338
54 14 1673
55 14 371
56 14 846
57 14 450
58 14 686
59 14 166
60 14 94
61 14 266
62 14 141
63 14 265
65 14 1105
66 14 1078
67 14 1065
68 14 453
69 14 414
70 14 325
72 14 903
73 14 528
74 14 234
75 14 173
76 14 81
77 14 212
78 14 440
79 14 257
81 14 911
82 14 119
83 14 313
84 14 421
85 14 818
86 14 608
87 14 491
88 14 1046
89 14 360
90 14 245
91 14 2
93 14 282
94 14 962
95 14 348
96 14 145
97 14 1187
98 14 1090
99 14 158
100 14 267
101 14 193
102 14 659
104 14 200
105 14 193
106 14 147
108 14 1247
109 14 69
110 14 822
111 14 324
113 14 4
114 14 94
115 14 724
116 14 1066
117 14 144
118 14 648
121 14 774
122 14 123
124 14 637
125 14 391
126 14 268
127 14 2126
128 14 271
129 14 1155
130 14 345
131 14 792
132 14 241
133 14 94
134 14 137
136 14 163
137 14 355
138 14 215
139 14 227
140 14 379
141 14 134
142 14 143
143 14 396
144 14 218
145 14 1137
146 14 1128
147 14 2017
148 14 193
149 14 572
150 14 222
151 14 147
152 14 588
153 14 978
154 14 714
155 14 642
156 14 1265
158 14 297
159 14 927
160 14 1017
161 14 627
162 14 376
163 14 443
164 14 765
165 14 469
166 14 778
168 14 1019
169 14 1077
170 14 150
171 14 1717
173 14 498
174 14 393
175 14 941
176 14 358
177 14 631
178 14 1045
179 14 843
181 14 206
182 14 550
185 14 95
186 14 339
187 14 874
188 14 163
189 14 260
190 14 562
191 14 208
193 14 371
194 14 172
195 14 1068
196 14 367
197 14 495
198 14 2
199 14 949
200 14 171
201 14 251
202 14 376
203 14 277
204 14 338
205 14 1600
206 14 321
207 14 868
208 14 350
209 14 307
210 14 172
211 14 103
212 14 117
213 14 222
214 14 465
215 14 156
216 14 1156
217 14 141
218 14 546
219 14 256
220 14 340
222 14 911
223 14 28
224 14 84
225 14 351
226 14 573
227 14 314
229 14 584
231 14 468
232 14 234
233 14 785
234 14 222
235 14 251
237 14 217
238 14 377
239 14 129
240 14 889
241 14 472
242 14 1245
243 14 179
245 14 203
246 14 1548
247 14 182
248 14 416
249 14 259
251 14 1023
252 14 201
253 14 147
254 14 477
255 14 288
256 14 614
257 14 959
258 14 459
259 14 100
260 14 634
261 14 500
262 14 4
263 14 761
264 14 961
265 14 570
267 14 797
268 14 1180
269 14 147
270 14 1325
271 14 223
272 14 746
273 14 373
274 14 599
275 14 114
276 14 263
278 14 241
279 14 290
280 14 1087
281 14 647
283 14 42
284 14 413
285 14 183
286 14 492
287 14 96
288 14 1157
289 14 101
290 14 2699
291 14 427
292 14 462
293 14 121
294 14 105
295 14 314
296 14 180
297 14 415
298 14 548
299 14 248
300 14 217
301 14 200
302 14 71
303 14 117
304 14 604
305 14 771
307 14 208
308 14 679
309 14 209
310 14 383
311 14 1303
312 14 183
313 14 587
314 14 148
316 14 119
317 14 883
318 14 390
319 14 1227
320 14 488
321 14 420
322 14 763
323 14 286
324 14 435
325 14 676
326 14 764
327 14 1224
328 14 134
329 14 9
330 14 404
331 14 703
332 14 106
334 14 469
336 14 294
337 14 564
338 14 1447
339 14 330
340 14 225
342 14 110
343 14 793
344 14 336
345 14 633
346 14 142
347 14 363
348 14 661
349 14 53
350 14 362
351 14 1709
352 14 617
353 14 9
354 14 99
355 14 419
356 14 346
357 14 601
358 14 505
359 14 222
360 14 327
361 14 109
362 14 306
363 14 57
364 14 330
365 14 211
366 14 428
367 14 364
368 14 92
369 14 328
370 14 89
371 14 357
372 14 320
373 14 131
374 14 133
375 14 839
377 14 1992
378 14 422
379 14 1013
380 14 66
381 14 95
382 14 802
383 14 708
384 14 119
385 14 638
386 14 892
388 14 696
389 14 833
390 14 112
391 14 785
392 14 366
393 14 1015
394 14 315
395 14 522
396 14 209
397 14 504
398 14 818
399 14 394
400 14 254
401 14 813
402 14 213
403 14 153
404 14 945
405 14 714
407 14 4
410 14 4
411 14 121
412 14 304
413 14 411
414 14 598
415 14 158
416 14 197
417 14 214
418 14 668
419 14 833
420 14 348
422 14 31
423 14 104
424 14 5
425 14 165
426 14 169
427 14 272
428 14 299
429 14 142
430 14 294
431 14 488
432 14 350
433 14 243
434 14 105
435 14 341
436 14 111
437 14 1169
439 14 103
440 14 393
441 14 159
442 14 607
443 14 1058
444 14 139
446 14 111
447 14 81
448 14 460
449 14 826
450 14 646
451 14 183
452 14 712
453 14 212
454 14 200
455 14 436
456 14 1265
457 14 711
459 14 109
460 14 303
462 14 371
463 14 1390
464 14 403
465 14 2026
466 14 2037
467 14 595
469 14 354
470 14 13
471 14 39
472 14 613
473 14 880
474 14 672
475 14 1047
476 14 946
477 14 658
478 14 172
479 14 807
480 14 1683
481 14 520
482 14 76
483 14 327
485 14 156
486 14 204
487 14 651
488 14 918
489 14 656
490 14 293
491 14 647
492 14 695
494 14 226
496 14 920
498 14 199
499 14 134
500 14 255
1 15 1575
2 15 2602
3 15 2279
5 15 3168
6 15 2606
7 15 2549
8 15 3242
9 15 4194
10 15 2046
11 15 1704
12 15 2462
14 15 2713
15 15 3452
16 15 4675
17 15 2235
18 15 2011
19 15 3644
21 15 3380
22 15 2886
23 15 945
24 15 3553
26 15 2483
27 15 3592
28 15 3837
29 15 840
30 15 2197
31 15 1998
33 15 1890
34 15 6067
36 15 2752
37 15 4880
38 15 2468
39 15 2325
40 15 4528
41 15 9758
42 15 2837
43 15 2570
44 15 3319
45 15 2644
46 15 1180
47 15 1659
48 15 3354
49 15 2832
51 15 2720
52 15 3498
53 15 2682
54 15 55
55 15 801
56 15 2503
57 15 2448
58 15 2112
59 15 2081
60 15 5288
61 15 2186
62 15 4
63 15 3785
65 15 1666
66 15 2251
67 15 2540
68 15 1976
69 15 1545
70 15 1738
72 15 3038
73 15 3389
74 15 3068
75 15 2208
76 15 3826
77 15 2892
78 15 1920
79 15 2289
81 15 3702
82 15 7
83 15 2444
84 15 3677
85 15 5259
86 15 3034
87 15 3527
88 15 3129
89 15 3069
90 15 2306
93 15 2085
94 15 3030
95 15 3030
96 15 1855
97 15 2891
98 15 1738
99 15 662
100 15 1903
101 15 4068
102 15 3581
104 15 2550
105 15 1866
106 15 2139
108 15 3330
110 15 3533
111 15 2757
114 15 4378
115 15 1092
116 15 1551
117 15 1842
118 15 2670
121 15 3412
122 15 4635
124 15 4248
125 15 2202
126 15 2812
127 15 2398
128 15 3171
129 15 2404
130 15 2843
131 15 2799
132 15 2881
133 15 3973
134 15 2093
136 15 3135
137 15 4007
138 15 2286
139 15 3777
140 15 262
141 15 2425
142 15 3549
143 15 3612
144 15 2681
145 15 4874
146 15 3532
147 15 2313
148 15 3060
149 15 2352
150 15 4724
151 15 2302
152 15 2823
153 15 2192
154 15 1640
155 15 2225
156 15 946
158 15 3039
159 15 3044
160 15 2518
161 15 3016
162 15 2557
163 15 2221
164 15 1704
165 15 3716
166 15 2135
168 15 582
169 15 4733
170 15 2129
171 15 62
173 15 4175
174 15 2430
175 15 3084
176 15 3255
177 15 5119
178 15 11
179 15 2783
181 15 3662
182 15 1713
185 15 1839
186 15 3711
187 15 3676
188 15 2445
189 15 4416
190 15 3460
191 15 3469
193 15 3991
194 15 2426
195 15 2740
196 15 3447
197 15 1325
199 15 3000
200 15 1741
202 15 2184
203 15 2340
204 15 1882
205 15 969
206 15 1502
207 15 2876
208 15 3992
209 15 2865
210 15 3295
211 15 4294
212 15 2677
213 15 4220
214 15 4111
215 15 3591
216 15 2020
217 15 3629
218 15 2596
219 15 9
220 15 2485
222 15 2993
224 15 1715
225 15 2056
226 15 3172
227 15 1122
229 15 2685
231 15 2471
232 15 2778
233 15 2572
234 15 2722
235 15 2454
237 15 2271
238 15 1754
239 15 4343
240 15 3626
241 15 3750
242 15 3212
243 15 2294
245 15 2900
246 15 4884
247 15 2917
248 15 77
249 15 5
251 15 2908
252 15 3293
253 15 2158
254 15 2517
255 15 3473
256 15 2789
257 15 1975
258 15 3601
259 15 1840
260 15 2977
261 15 4665
263 15 3530
264 15 2083
265 15 3096
267 15 2147
268 15 2109
269 15 2331
270 15 2510
271 15 2898
272 15 2008
273 15 3228
274 15 2951
275 15 2555
276 15 2033
278 15 2597
279 15 2822
280 15 4750
281 15 2621
284 15 1901
285 15 3286
286 15 4
287 15 3452
288 15 2003
289 15 2604
290 15 296
291 15 1484
292 15 2439
293 15 4404
294 15 1981
295 15 2265
296 15 5017
297 15 2303
298 15 4259
299 15 1633
300 15 3180
301 15 729
302 15 4575
303 15 3933
304 15 4840
305 15 3113
307 15 2640
308 15 1518
309 15 2072
310 15 1879
311 15 3312
312 15 1685
313 15 2490
314 15 1843
316 15 4085
317 15 3503
318 15 2037
319 15 1053
320 15 2016
321 15 2432
322 15 8
323 15 1989
324 15 2071
325 15 1949
326 15 3891
327 15 1492
328 15 3178
330 15 1862
331 15 4236
332 15 1687
334 15 1316
336 15 1161
337 15 2414
338 15 2301
339 15 2467
340 15 1634
342 15 3177
343 15 2488
344 15 2900
345 15 2920
346 15 2220
347 15 2005
348 15 2708
349 15 3325
350 15 2049
351 15 52
352 15 2943
354 15 1842
355 15 2150
356 15 4450
357 15 2984
358 15 1065
359 15 2455
360 15 2444
361 15 1894
362 15 1974
364 15 3263
365 15 2386
366 15 2926
367 15 2896
368 15 2695
369 15 2364
370 15 2737
371 15 2415
372 15 2508
373 15 4144
374 15 2162
375 15 3243
377 15 2232
378 15 3022
379 15 4745
380 15 1108
381 15 1844
382 15 2370
383 15 61
384 15 2435
385 15 1685
386 15 1746
388 15 2011
389 15 173
390 15 4320
391 15 1530
392 15 82
393 15 1476
394 15 2079
395 15 2344
396 15 1684
397 15 2158
398 15 3022
399 15 2165
400 15 4708
401 15 2052
402 15 2577
403 15 1474
404 15 2471
405 15 2347
411 15 3143
412 15 2376
413 15 1337
414 15 4926
415 15 4848
416 15 3274
417 15 2713
418 15 1917
419 15 3464
420 15 3890
423 15 4291
425 15 2216
426 15 1877
427 15 4092
428 15 2330
429 15 1880
430 15 2100
431 15 3527
432 15 2110
433 15 2226
434 15 2270
435 15 2940
436 15 2274
437 15 2106
439 15 4328
440 15 2587
441 15 3612
442 15 1737
443 15 855
444 15 1822
446 15 2512
448 15 3745
449 15 3077
450 15 2939
451 15 3218
452 15 1654
453 15 4129
454 15 2961
455 15 6200
456 15 235
457 15 3464
459 15 2600
460 15 2890
462 15 1917
463 15 3239
464 15 3217
465 15 2187
466 15 2360
467 15 3105
469 15 7637
471 15 2245
472 15 2928
473 15 3051
474 15 3058
475 15 2234
476 15 3261
477 15 2990
478 15 2382
479 15 2972
480 15 218
481 15 4942
482 15 4726
483 15 3315
485 15 2538
486 15 3868
487 15 2556
488 15 3051
489 15 1653
490 15 2296
491 15 2077
492 15 1280
494 15 3220
496 15 3059
498 15 2403
499 15 2808
500 15 1713
1 16 125
2 16 518
3 16 631
5 16 1061
6 16 282
7 16 714
8 16 577
9 16 557
10 16 1163
11 16 1753
12 16 1255
14 16 858
15 16 1871
16 16 788
17 16 760
18 16 1265
19 16 654
21 16 840
22 16 1178
23 16 104
24 16 303
26 16 705
27 16 1602
28 16 1565
29 16 16
30 16 2023
31 16 581
33 16 394
34 16 1878
36 16 861
37 16 428
38 16 1172
39 16 1376
40 16 1661
41 16 3331
42 16 620
43 16 224
44 16 486
45 16 618
46 16 345
47 16 1323
48 16 414
49 16 932
51 16 281
52 16 193
53 16 634
55 16 144
56 16 763
57 16 1729
58 16 673
59 16 1959
60 16 785
61 16 1276
63 16 503
65 16 393
66 16 611
67 16 857
68 16 277
69 16 363
70 16 1371
72 16 1680
73 16 1140
74 16 420
75 16 1997
76 16 662
77 16 731
78 16 153
79 16 397
81 16 399
83 16 453
84 16 793
85 16 184
86 16 1567
87 16 505
88 16 260
89 16 1463
90 16 706
93 16 530
94 16 1043
95 16 571
96 16 308
97 16 923
98 16 433
99 16 6
100 16 531
101 16 496
102 16 744
104 16 279
105 16 187
106 16 1924
108 16 1165
110 16 677
111 16 1391
114 16 957
115 16 279
116 16 788
117 16 736
118 16 970
121 16 685
122 16 2049
124 16 772
125 16 315
126 16 763
127 16 560
128 16 571
129 16 867
130 16 1363
131 16 255
132 16 661
133 16 1058
134 16 1308
136 16 719
137 16 1113
138 16 523
139 16 1697
141 16 1145
142 16 766
143 16 920
144 16 637
145 16 219
146 16 601
147 16 250
148 16 432
149 16 703
150 16 564
151 16 186
152 16 841
153 16 694
154 16 563
155 16 266
156 16 592
158 16 815
159 16 1652
160 16 306
161 16 1474
162 16 490
163 16 133
164 16 974
165 16 769
166 16 225
169 16 750
170 16 1327
173 16 1827
174 16 1628
175 16 1706
176 16 1452
177 16 740
179 16 291
181 16 711
182 16 615
185 16 1757
186 16 1751
187 16 346
188 16 263
189 16 1451
190 16 1168
191 16 1402
193 16 1169
194 16 392
195 16 777
196 16 765
197 16 589
199 16 833
200 16 116
202 16 763
203 16 1571
204 16 490
205 16 241
206 16 487
207 16 1778
208 16 1174
209 16 1338
210 16 343
211 16 1465
212 16 860
213 16 156
214 16 1088
215 16 744
216 16 1030
217 16 305
218 16 131
220 16 489
222 16 1666
224 16 240
225 16 1236
226 16 784
227 16 170
229 16 1291
231 16 1287
232 16 667
233 16 1296
234 16 676
235 16 1150
237 16 663
238 16 56
239 16 635
240 16 1166
241 16 1304
242 16 196
243 16 293
245 16 730
246 16 1314
247 16 721
251 16 1095
252 16 179
253 16 1911
254 16 1014
255 16 704
256 16 245
257 16 775
258 16 286
259 16 1685
260 16 1504
261 16 1520
263 16 872
264 16 854
265 16 825
267 16 192
268 16 1208
269 16 1161
270 16 857
271 16 357
272 16 633
273 16 749
274 16 1463
275 16 675
276 16 137
278 16 453
279 16 1323
280 16 981
281 16 864
284 16 1021
285 16 808
287 16 233
288 16 283
289 16 685
290 16 10
291 16 289
292 16 639
293 16 694
294 16 450
295 16 988
296 16 1136
297 16 425
298 16 1084
299 16 1376
300 16 1907
301 16 8
302 16 665
303 16 825
304 16 1715
305 16 1369
307 16 644
308 16 165
309 16 1039
310 16 412
311 16 183
312 16 1345
313 16 172
314 16 68
316 16 1629
317 16 1470
318 16 142
319 16 623
320 16 824
321 16 445
323 16 574
324 16 231
325 16 816
326 16 370
327 16 198
328 16 748
330 16 763
331 16 880
332 16 241
334 16 1025
336 16 170
337 16 397
338 16 863
339 16 439
340 16 479
342 16 715
343 16 885
344 16 1371
345 16 1573
346 16 1354
347 16 790
348 16 520
349 16 1432
350 16 1229
352 16 1522
354 16 1748
355 16 399
356 16 1729
357 16 364
358 16 42
359 16 868
360 16 638
361 16 1791
362 16 365
364 16 1140
365 16 497
366 16 1126
367 16 778
368 16 530
369 16 117
370 16 821
371 16 207
372 16 625
373 16 1665
374 16 1916
375 16 514
377 16 1645
378 16 878
379 16 981
380 16 247
381 16 1673
382 16 1548
384 16 541
385 16 767
386 16 231
388 16 2237
390 16 670
391 16 554
393 16 787
394 16 555
395 16 618
396 16 447
397 16 940
398 16 717
399 16 492
400 16 252
401 16 1239
402 16 816
403 16 592
404 16 768
405 16 1275
411 16 715
412 16 460
413 16 108
414 16 211
415 16 856
416 16 325
417 16 149
418 16 1544
419 16 1214
420 16 967
423 16 681
425 16 480
426 16 301
427 16 628
428 16 132
429 16 77
430 16 524
431 16 861
432 16 742
433 16 1296
434 16 940
435 16 1274
436 16 950
437 16 1272
439 16 969
440 16 727
441 16 737
442 16 423
443 16 148
444 16 302
446 16 672
448 16 1322
449 16 741
450 16 1463
451 16 1895
452 16 454
453 16 830
454 16 1263
455 16 1088
456 16 12
457 16 1377
459 16 687
460 16 1441
462 16 1029
463 16 623
464 16 238
465 16 1712
466 16 1755
467 16 688
469 16 1935
471 16 712
472 16 1470
473 16 1669
474 16 2158
475 16 609
476 16 1713
477 16 1623
478 16 402
479 16 1172
480 16 9
481 16 976
482 16 699
483 16 1189
485 16 381
486 16 1489
487 16 1146
488 16 1679
489 16 135
490 16 907
491 16 665
492 16 186
494 16 2416
496 16 1692
498 16 887
499 16 663
500 16 729
1 17 909
2 17 940
3 17 415
5 17 219
6 17 753
7 17 442
8 17 507
9 17 933
10 17 447
11 17 275
12 17 573
14 17 613
15 17 568
16 17 524
17 17 59
18 17 1364
19 17 249
21 17 1104
22 17 916
24 17 830
26 17 437
27 17 1136
28 17 923
30 17 742
31 17 839
33 17 219
34 17 396
36 17 1346
37 17 454
38 17 349
39 17 542
40 17 772
41 17 1125
42 17 79
43 17 100
44 17 412
45 17 719
46 17 1119
47 17 535
48 17 270
49 17 1100
51 17 258
52 17 90
53 17 895
55 17 5
56 17 549
57 17 941
58 17 79
59 17 786
60 17 259
61 17 1679
63 17 1020
65 17 394
66 17 1143
67 17 1362
68 17 163
69 17 81
70 17 748
72 17 1038
73 17 134
74 17 438
75 17 785
76 17 769
77 17 880
78 17 1118
79 17 414
81 17 810
83 17 673
84 17 746
85 17 1084
86 17 1439
87 17 403
88 17 414
89 17 1218
90 17 769
93 17 425
94 17 1756
95 17 1167
96 17 357
97 17 1602
98 17 366
100 17 879
101 17 603
102 17 579
104 17 464
105 17 550
106 17 768
108 17 836
110 17 1507
111 17 739
114 17 346
115 17 26
116 17 1409
117 17 391
118 17 679
121 17 1579
122 17 898
124 17 491
125 17 710
126 17 2082
127 17 361
128 17 1899
129 17 700
130 17 782
131 17 538
132 17 783
133 17 654
134 17 50
136 17 747
137 17 569
138 17 283
139 17 1436
141 17 1195
142 17 49
143 17 1057
144 17 74
145 17 1986
146 17 215
147 17 272
148 17 435
149 17 157
150 17 1503
151 17 980
152 17 1631
153 17 415
154 17 806
155 17 743
156 17 420
158 17 804
159 17 1017
160 17 361
161 17 1434
162 17 410
163 17 37
164 17 262
165 17 424
166 17 550
169 17 491
170 17 55
173 17 212
174 17 513
175 17 1024
176 17 494
177 17 442
179 17 588
181 17 633
182 17 569
185 17 1739
186 17 1629
187 17 742
188 17 644
189 17 1210
190 17 1214
191 17 1027
193 17 576
194 17 133
195 17 1590
196 17 514
197 17 9
199 17 1067
200 17 102
202 17 649
203 17 331
204 17 1098
205 17 245
206 17 468
207 17 910
208 17 584
209 17 790
210 17 975
211 17 2271
212 17 252
213 17 421
214 17 2192
215 17 45
216 17 1650
217 17 1324
218 17 274
220 17 682
222 17 964
224 17 1348
225 17 1405
226 17 280
227 17 315
229 17 427
231 17 564
232 17 620
233 17 225
234 17 89
235 17 331
237 17 609
238 17 2
239 17 1007
240 17 594
241 17 1162
242 17 1419
243 17 562
245 17 864
246 17 2234
247 17 1080
251 17 1191
252 17 207
253 17 782
254 17 380
255 17 377
256 17 751
257 17 952
258 17 506
259 17 1684
260 17 852
261 17 2123
263 17 669
264 17 917
265 17 267
267 17 560
268 17 1395
269 17 1160
270 17 174
271 17 622
272 17 474
273 17 571
274 17 1362
275 17 446
276 17 989
278 17 1397
279 17 783
280 17 736
281 17 1067
284 17 772
285 17 566
287 17 80
288 17 671
289 17 445
291 17 789
292 17 793
293 17 1051
294 17 1400
295 17 469
296 17 188
297 17 161
298 17 1181
299 17 231
300 17 293
302 17 318
303 17 693
304 17 804
305 17 1669
307 17 90
308 17 6
309 17 265
310 17 1321
311 17 1436
312 17 549
313 17 1661
314 17 138
316 17 673
317 17 1233
318 17 1166
319 17 422
320 17 501
321 17 157
323 17 830
324 17 193
325 17 766
326 17 746
327 17 10
328 17 749
330 17 400
331 17 1355
332 17 1401
334 17 871
336 17 280
337 17 39
338 17 180
339 17 146
340 17 1517
342 17 726
343 17 925
344 17 783
345 17 1386
346 17 513
347 17 1335
348 17 1065
349 17 1071
350 17 1410
352 17 842
354 17 1812
355 17 502
356 17 792
357 17 841
358 17 3
359 17 387
360 17 306
361 17 1725
362 17 416
364 17 671
365 17 241
366 17 1344
367 17 317
368 17 893
369 17 142
370 17 1301
371 17 181
372 17 331
373 17 662
374 17 809
375 17 613
377 17 691
378 17 357
379 17 625
380 17 543
381 17 1769
382 17 2018
384 17 222
385 17 185
386 17 952
388 17 361
390 17 969
391 17 573
393 17 1483
394 17 890
395 17 436
396 17 463
397 17 602
398 17 972
399 17 510
400 17 488
401 17 464
402 17 390
403 17 206
404 17 754
405 17 893
411 17 735
412 17 702
413 17 176
414 17 1167
415 17 400
416 17 986
417 17 1405
418 17 911
419 17 1938
420 17 909
423 17 1024
425 17 283
426 17 345
427 17 225
428 17 127
429 17 152
430 17 428
431 17 547
432 17 1274
433 17 1664
434 17 654
435 17 203
436 17 609
437 17 1375
439 17 366
440 17 510
441 17 45
442 17 260
443 17 73
444 17 369
446 17 468
448 17 1133
449 17 1097
450 17 825
451 17 281
452 17 1437
453 17 910
454 17 315
455 17 661
457 17 1432
459 17 454
460 17 760
462 17 733
463 17 536
464 17 1442
465 17 642
466 17 649
467 17 509
469 17 1365
471 17 1460
472 17 1476
473 17 925
474 17 1023
475 17 1169
476 17 235
477 17 1447
478 17 151
479 17 1648
481 17 272
482 17 319
483 17 437
485 17 154
486 17 696
487 17 1025
488 17 1046
489 17 260
490 17 425
491 17 70
492 17 267
494 17 171
496 17 1049
498 17 157
499 17 171
500 17 1949
1 18 6
3 18 66
5 18 64
6 18 642
7 18 4
8 18 5
9 18 65
10 18 620
11 18 116
12 18 758
14 18 45
15 18 865
16 18 17
18 18 3
21 18 1273
26 18 6
28 18 749
37 18 842
38 18 399
40 18 389
42 18 10
44 18 16
46 18 1993
48 18 180
49 18 13
51 18 2116
52 18 381
53 18 3
56 18 33
58 18 2
60 18 886
61 18 1177
65 18 65
66 18 14
68 18 12
69 18 9
74 18 61
77 18 122
78 18 29
81 18 1317
84 18 1687
85 18 1846
88 18 148
93 18 20
95 18 2
97 18 503
98 18 54
108 18 1079
110 18 595
118 18 4
122 18 1010
124 18 722
125 18 1911
126 18 1467
128 18 6
129 18 275
132 18 304
136 18 4
138 18 12
139 18 701
141 18 47
144 18 29
145 18 2
148 18 44
149 18 55
150 18 944
151 18 18
152 18 77
154 18 89
160 18 1153
162 18 325
164 18 16
165 18 1637
166 18 5
169 18 21
174 18 1419
176 18 514
177 18 2177
182 18 122
186 18 761
187 18 1368
188 18 1288
190 18 1068
191 18 2451
196 18 6
199 18 561
202 18 665
204 18 1259
206 18 42
207 18 1441
210 18 73
211 18 1535
212 18 391
213 18 1213
214 18 555
216 18 867
217 18 836
218 18 5
224 18 888
225 18 4
227 18 1
231 18 722
234 18 1524
235 18 361
237 18 298
243 18 1397
245 18 168
251 18 6
252 18 5
254 18 770
256 18 252
257 18 557
258 18 1323
260 18 3
264 18 538
267 18 5
269 18 54
270 18 433
271 18 88
272 18 74
273 18 1072
275 18 5
276 18 269
278 18 615
280 18 2
284 18 600
285 18 1047
287 18 393
288 18 240
289 18 4
291 18 1230
296 18 1654
298 18 1075
299 18 501
303 18 830
304 18 926
307 18 23
310 18 956
313 18 1750
318 18 20
320 18 47
324 18 8
325 18 312
326 18 1790
328 18 5
332 18 951
334 18 809
336 18 2
339 18 19
340 18 11
342 18 3
343 18 581
349 18 7
350 18 4
352 18 10
355 18 70
356 18 357
359 18 26
362 18 571
365 18 19
366 18 730
367 18 5
368 18 233
369 18 29
370 18 61
371 18 357
378 18 1147
379 18 36
380 18 661
382 18 1623
385 18 81
386 18 159
391 18 272
395 18 43
396 18 5
397 18 105
399 18 520
400 18 360
402 18 21
403 18 536
404 18 3
411 18 5
415 18 203
416 18 77
418 18 488
419 18 791
425 18 209
427 18 643
428 18 27
430 18 22
433 18 1157
434 18 56
435 18 130
436 18 56
446 18 3
450 18 1
452 18 9
453 18 1617
457 18 465
459 18 5
462 18 694
463 18 4
467 18 2767
469 18 1
471 18 679
475 18 19
476 18 204
481 18 1359
483 18 4
486 18 3
487 18 827
490 18 97
491 18 7
492 18 2
498 18 274
1 19 1343
2 19 2648
3 19 57
5 19 48
7 19 3
8 19 2114
9 19 107
11 19 26
14 19 112
16 19 45
22 19 2167
26 19 2
27 19 3598
30 19 3
34 19 2364
36 19 1558
39 19 2
41 19 5627
42 19 25
43 19 2
44 19 64
45 19 2418
47 19 3978
49 19 303
51 19 3
56 19 75
57 19 3559
58 19 7
59 19 4
63 19 3619
65 19 49
66 19 4776
67 19 4645
68 19 18
69 19 20
70 19 3552
74 19 76
75 19 4
76 19 1686
77 19 365
78 19 173
83 19 2250
84 19 4
87 19 3494
88 19 34
89 19 2617
90 19 3663
93 19 268
94 19 3384
95 19 3581
98 19 53
101 19 3725
102 19 1463
104 19 3521
105 19 2107
106 19 4
110 19 4
116 19 3608
117 19 2431
118 19 3128
121 19 3805
125 19 6
126 19 2
127 19 2017
128 19 2659
132 19 6
133 19 3366
138 19 54
141 19 123
143 19 2355
144 19 35
145 19 4657
147 19 3609
148 19 70
149 19 3
150 19 3
151 19 137
152 19 247
154 19 77
155 19 6224
158 19 2330
162 19 31
164 19 133
165 19 3
166 19 4
169 19 46
173 19 3300
174 19 4
181 19 3489
182 19 81
185 19 3
189 19 2598
190 19 3
191 19 8
195 19 4986
196 19 239
200 19 573
203 19 2912
206 19 270
210 19 280
216 19 3
218 19 11
220 19 2165
227 19 12
229 19 3519
232 19 3302
233 19 2705
237 19 14
240 19 1615
241 19 2078
242 19 2687
245 19 387
246 19 3086
247 19 1752
251 19 3491
252 19 45
253 19 3
255 19 3747
257 19 3
259 19 5
260 19 6
261 19 6801
264 19 4
267 19 3
268 19 3773
269 19 122
270 19 1
271 19 252
272 19 53
275 19 2
276 19 18
280 19 4144
281 19 3086
285 19 8
288 19 6
289 19 4
291 19 2
292 19 3251
294 19 2859
295 19 1823
297 19 3110
298 19 6
299 19 5
300 19 2780
302 19 3057
303 19 2
305 19 5175
307 19 32
311 19 2656
312 19 4003
317 19 2091
318 19 173
320 19 204
321 19 3039
324 19 29
325 19 32
330 19 15
331 19 2367
334 19 2
336 19 9
338 19 2576
339 19 234
340 19 60
346 19 2696
347 19 3212
348 19 2569
349 19 30
352 19 6
354 19 7
355 19 145
359 19 93
360 19 3978
361 19 6
362 19 7
364 19 3608
365 19 70
366 19 1
367 19 2542
368 19 82
369 19 63
370 19 23
372 19 4028
374 19 3
375 19 2846
379 19 211
380 19 7
381 19 2
384 19 2930
385 19 59
386 19 10
388 19 3298
393 19 3652
395 19 52
396 19 1153
397 19 171
398 19 2178
401 19 1972
402 19 87
403 19 5
404 19 2711
405 19 3561
412 19 2268
414 19 2669
415 19 24
416 19 250
417 19 3681
419 19 10
420 19 3261
428 19 67
430 19 262
431 19 5257
432 19 3286
434 19 47
435 19 48
436 19 46
437 19 3876
440 19 3576
446 19 2
448 19 2176
449 19 2178
450 19 7
451 19 2867
452 19 235
455 19 2809
459 19 2
463 19 2095
464 19 3768
467 19 2
469 19 5636
474 19 1692
475 19 4799
479 19 3790
482 19 3214
483 19 3414
486 19 2659
490 19 122
491 19 9
494 19 2919
500 19 3690
1 20 17
3 20 120
5 20 63
7 20 2990
9 20 129
11 20 108
14 20 141
16 20 2323
18 20 6906
19 20 6637
24 20 10905
26 20 3021
28 20 6
30 20 6531
31 20 12038
33 20 4091
38 20 2
39 20 3671
40 20 9
44 20 319
47 20 11
49 20 349
53 20 14173
56 20 419
58 20 3
59 20 6482
65 20 54
66 20 5
67 20 3
68 20 24
69 20 14
72 20 5121
74 20 15
75 20 6596
76 20 4
77 20 318
78 20 120
79 20 10468
84 20 5
85 20 3
86 20 6065
88 20 25
90 20 6
93 20 351
96 20 25579
97 20 10
98 20 66
100 20 12239
102 20 9
105 20 7
106 20 6549
108 20 3
110 20 12
111 20 6368
114 20 2
117 20 18
126 20 7
129 20 4
130 20 6312
131 20 7878
133 20 3
136 20 31
137 20 2549
138 20 1623
141 20 199
144 20 28
145 20 4
146 20 6743
147 20 1
148 20 7
150 20 4
151 20 1710
152 20 293
153 20 8
154 20 438
155 20 5
156 20 7326
159 20 5282
161 20 6383
162 20 64
164 20 204
166 20 29
169 20 2334
175 20 5190
179 20 7906
181 20 16
182 20 340
185 20 3663
191 20 4
193 20 2652
196 20 366
200 20 297
203 20 5
205 20 5955
206 20 219
207 20 1
208 20 2619
209 20 6326
210 20 276
212 20 4
213 20 30
214 20 12
216 20 7
217 20 4
218 20 18
222 20 5304
225 20 6969
226 20 4534
227 20 3
232 20 5
234 20 11
235 20 6
237 20 28
239 20 13030
241 20 5
243 20 4
245 20 302
247 20 5
252 20 62
253 20 6482
256 20 10
259 20 3760
260 20 8786
261 20 7
263 20 13474
265 20 4485
267 20 30
269 20 234
271 20 128
272 20 69
274 20 6192
275 20 3002
276 20 88
279 20 6310
280 20 13
284 20 2
285 20 8
288 20 61
289 20 3006
291 20 3
292 20 9
293 20 13354
294 20 5
295 20 13
297 20 9
299 20 14
302 20 2
304 20 1
307 20 28
309 20 9635
310 20 8
312 20 13
316 20 5849
318 20 104
319 20 7393
320 20 136
321 20 9
323 20 12427
324 20 36
325 20 17
326 20 3
328 20 23
330 20 8
334 20 6
336 20 4
339 20 28
340 20 59
342 20 26
343 20 6
344 20 6322
345 20 6123
347 20 4
349 20 147
350 20 6905
352 20 8928
354 20 3707
355 20 78
356 20 5
357 20 9340
359 20 81
361 20 3713
362 20 12
365 20 1639
366 20 5
368 20 29
369 20 502
370 20 58
373 20 6015
374 20 6600
377 20 7253
379 20 50
381 20 3727
382 20 5
385 20 87
386 20 3
388 20 2
390 20 13151
394 20 12355
395 20 124
396 20 63
397 20 64
400 20 4
401 20 6
402 20 76
404 20 53
411 20 29
416 20 279
418 20 10
419 20 51
420 20 1
423 20 13021
425 20 39
426 20 26321
427 20 8
428 20 555
430 20 368
432 20 6
434 20 85
435 20 248
436 20 70
439 20 6
440 20 6
444 20 26733
446 20 2985
448 20 7
449 20 8
450 20 8877
452 20 427
454 20 6448
455 20 4
457 20 3
459 20 2940
460 20 6366
462 20 2
465 20 7415
466 20 7400
469 20 3
471 20 10
472 20 6245
473 20 5219
475 20 3
477 20 6153
479 20 21
481 20 3
482 20 3
488 20 5269
489 20 2
490 20 360
491 20 5
492 20 9
496 20 5224
1 21 855
2 21 2049
3 21 2331
4 21 1302
5 21 7
7 21 2336
8 21 2770
9 21 1883
11 21 19
13 21 1432
14 21 9
16 21 3278
17 21 1866
18 21 1400
19 21 3057
20 21 963
22 21 1457
23 21 2710
24 21 2641
25 21 1313
26 21 2373
27 21 2855
29 21 2648
30 21 1259
31 21 2232
32 21 1295
33 21 1212
34 21 3493
35 21 1153
36 21 2050
39 21 2050
41 21 2976
42 21 1463
43 21 1747
44 21 239
45 21 1736
47 21 3407
49 21 435
50 21 1490
53 21 3771
54 21 1078
55 21 1503
56 21 329
57 21 2464
58 21 1234
59 21 1248
62 21 1311
63 21 2703
64 21 1043
65 21 1760
66 21 1513
67 21 1121
68 21 3270
69 21 1232
70 21 2330
71 21 1699
72 21 1664
73 21 1741
74 21 10
75 21 1274
76 21 1602
77 21 946
78 21 2139
79 21 5026
80 21 1228
82 21 1825
83 21 2930
86 21 2091
87 21 2866
89 21 1850
90 21 1438
91 21 1101
92 21 1814
93 21 1133
94 21 2944
95 21 1572
96 21 4975
98 21 1725
99 21 1576
100 21 2374
101 21 3753
102 21 2162
103 21 1179
104 21 2287
105 21 1665
106 21 1245
107 21 973
109 21 1827
111 21 2642
112 21 1889
113 21 1517
114 21 1264
115 21 2271
116 21 2896
117 21 1304
118 21 3898
119 21 1137
120 21 767
121 21 1923
123 21 1178
127 21 2879
128 21 2486
130 21 2624
131 21 3467
133 21 1625
134 21 2056
135 21 998
136 21 1912
137 21 2504
138 21 1218
140 21 1349
141 21 2275
142 21 3561
143 21 1709
144 21 2394
145 21 3335
146 21 3130
147 21 2046
148 21 12
149 21 2
151 21 803
152 21 509
153 21 1239
154 21 101
155 21 2726
156 21 2239
157 21 1123
158 21 2991
159 21 1787
161 21 2070
162 21 11
163 21 1831
164 21 884
166 21 2104
167 21 998
168 21 1235
169 21 3247
170 21 2114
171 21 1009
172 21 509
173 21 2438
175 21 1723
178 21 1523
179 21 3508
180 21 373
181 21 2771
182 21 555
183 21 1013
184 21 922
185 21 2086
189 21 1978
192 21 1692
193 21 2405
194 21 1403
195 21 2603
196 21 452
197 21 1122
198 21 1429
200 21 136
201 21 1212
203 21 3009
205 21 2807
206 21 375
208 21 2481
209 21 2738
210 21 1948
212 21 4
214 21 3
215 21 3556
218 21 2580
219 21 1481
220 21 2961
221 21 458
222 21 1770
223 21 1285
225 21 1377
226 21 1708
227 21 1153
228 21 1052
229 21 3286
230 21 1445
232 21 2203
233 21 1818
236 21 440
237 21 3
238 21 2878
239 21 3242
240 21 2473
241 21 2406
242 21 3219
244 21 1176
245 21 909
246 21 3089
247 21 2430
248 21 1485
249 21 1529
250 21 1219
251 21 2603
252 21 313
253 21 1301
255 21 2750
256 21 6
259 21 2114
260 21 2389
261 21 2887
262 21 1322
263 21 2448
265 21 1768
266 21 512
267 21 2111
268 21 1878
269 21 2243
271 21 256
272 21 1379
274 21 2074
275 21 2337
276 21 56
277 21 1600
278 21 2
279 21 2644
280 21 3281
281 21 1800
282 21 704
283 21 1422
286 21 1549
288 21 7
289 21 2370
290 21 1582
291 21 8
292 21 2625
293 21 3308
294 21 2991
295 21 1741
297 21 1636
300 21 3740
301 21 2238
302 21 3215
305 21 2906
306 21 933
307 21 2350
308 21 1766
309 21 2216
311 21 3329
312 21 3325
314 21 1535
315 21 478
316 21 2381
317 21 2573
318 21 2040
319 21 2208
320 21 1943
321 21 1651
322 21 1431
323 21 2421
324 21 3312
327 21 2144
328 21 1975
329 21 1143
330 21 2030
331 21 1434
333 21 1912
335 21 1450
336 21 1209
337 21 1838
338 21 1490
339 21 1245
340 21 1800
341 21 1131
342 21 2039
344 21 2595
345 21 2014
346 21 2604
347 21 2144
348 21 2036
349 21 2058
350 21 1381
351 21 1002
352 21 2356
353 21 1703
354 21 2160
355 21 2110
357 21 3643
358 21 1046
359 21 2100
360 21 1947
361 21 2192
363 21 1026
364 21 2238
365 21 1254
367 21 2357
368 21 48
369 21 236
370 21 30
371 21 3
372 21 2037
373 21 2532
374 21 1205
375 21 2657
376 21 1406
377 21 2026
379 21 2718
381 21 2158
383 21 1185
384 21 1639
385 21 2
386 21 4
387 21 998
388 21 2171
389 21 1967
390 21 3272
392 21 1445
393 21 2932
394 21 2424
395 21 2337
396 21 640
397 21 37
398 21 2790
399 21 2
401 21 1185
402 21 2111
404 21 1113
405 21 2440
406 21 1975
407 21 1399
408 21 615
409 21 1247
410 21 2198
411 21 1956
412 21 2851
413 21 1719
414 21 2041
416 21 1983
417 21 3308
419 21 3
420 21 1931
421 21 803
422 21 850
423 21 3315
424 21 1461
425 21 5
426 21 5041
428 21 250
429 21 1519
430 21 1162
431 21 4211
432 21 2154
434 21 102
435 21 91
436 21 98
437 21 1928
438 21 1606
439 21 1272
440 21 1659
441 21 3586
442 21 2511
443 21 1083
444 21 5071
445 21 997
446 21 2330
447 21 1546
448 21 2406
449 21 2562
450 21 2329
451 21 3671
452 21 985
454 21 3100
455 21 2310
456 21 2204
458 21 809
459 21 2343
460 21 2728
461 21 1252
463 21 2869
464 21 2902
465 21 2113
466 21 2164
468 21 1548
469 21 2904
470 21 1346
472 21 2008
473 21 1705
474 21 1927
475 21 1494
477 21 2125
478 21 1353
479 21 3037
480 21 2061
482 21 3301
483 21 2232
484 21 1361
485 21 1370
486 21 1498
488 21 1742
489 21 3286
490 21 62
491 21 1274
492 21 2295
493 21 806
494 21 2441
495 21 946
496 21 1677
497 21 1907
499 21 1612
500 21 3848
3 22 3772
4 22 1320
5 22 457
6 22 2855
7 22 4065
9 22 950
10 22 4121
11 22 746
12 22 2189
13 22 3444
14 22 57
15 22 3398
16 22 1570
17 22 1975
18 22 1601
19 22 5055
20 22 784
21 22 3163
23 22 2804
24 22 3975
25 22 1732
26 22 4235
28 22 4121
29 22 2450
30 22 1768
31 22 3501
32 22 2842
33 22 2820
35 22 1545
37 22 1750
38 22 4414
39 22 1646
40 22 3798
42 22 3603
43 22 2582
44 22 407
46 22 5009
48 22 2088
49 22 1727
50 22 1573
51 22 3666
52 22 2380
53 22 3696
54 22 2476
55 22 2414
56 22 20
58 22 3328
59 22 1824
60 22 2625
61 22 3466
62 22 2291
64 22 1339
65 22 4775
68 22 2531
69 22 1050
71 22 2723
72 22 4657
73 22 2863
74 22 292
75 22 1925
77 22 427
78 22 3005
79 22 3570
80 22 1310
81 22 5964
82 22 1609
84 22 2723
85 22 5714
86 22 4791
88 22 268
90 22 2
91 22 1618
92 22 2169
93 22 80
96 22 5418
97 22 3297
98 22 4743
99 22 2132
100 22 3546
103 22 2822
106 22 1752
107 22 1235
108 22 3259
109 22 1819
110 22 3012
111 22 3141
112 22 1481
113 22 1387
114 22 2887
115 22 2780
119 22 1810
120 22 1620
122 22 4286
123 22 1949
124 22 2192
125 22 2412
126 22 4113
128 22 5
129 22 2839
130 22 3161
131 22 3796
132 22 4392
134 22 3158
135 22 1117
136 22 2226
137 22 2579
138 22 640
139 22 2845
140 22 2467
141 22 2790
142 22 3812
144 22 3078
146 22 4939
147 22 2
148 22 273
149 22 3081
150 22 3164
151 22 392
152 22 1037
153 22 2739
154 22 739
156 22 7149
157 22 1948
159 22 4430
160 22 3053
161 22 4756
162 22 4819
163 22 4522
164 22 16
165 22 2967
166 22 3011
167 22 1863
168 22 1964
169 22 1528
170 22 3040
171 22 2428
172 22 2765
174 22 3175
175 22 4483
176 22 4050
177 22 2209
178 22 2213
179 22 3784
180 22 2177
182 22 1034
183 22 1275
184 22 1191
185 22 3713
186 22 3714
187 22 5911
188 22 4107
190 22 3625
191 22 4048
192 22 1564
193 22 2624
194 22 3353
196 22 278
197 22 2579
198 22 2275
199 22 3539
200 22 20
201 22 1473
202 22 2286
204 22 2470
205 22 6581
206 22 111
207 22 2580
208 22 2614
209 22 3152
210 22 2696
211 22 3587
212 22 3756
213 22 3590
214 22 1939
215 22 3729
216 22 2879
217 22 1625
218 22 2696
219 22 1573
221 22 2463
222 22 4415
223 22 2762
224 22 3879
225 22 1705
226 22 2243
227 22 3576
228 22 1153
230 22 2542
231 22 2235
234 22 3271
235 22 4311
236 22 1503
237 22 982
238 22 1985
239 22 4009
240 22 4
241 22 3
243 22 4176
244 22 2506
245 22 433
248 22 2529
249 22 1583
250 22 1904
252 22 250
253 22 1855
254 22 2550
256 22 3478
257 22 2770
258 22 7123
259 22 3759
260 22 4822
261 22 4
262 22 1606
263 22 4728
264 22 2816
265 22 2216
266 22 2803
267 22 2983
269 22 2834
270 22 3621
271 22 88
272 22 2656
273 22 3395
274 22 4727
275 22 4198
276 22 518
277 22 2528
278 22 2916
279 22 3266
282 22 1396
283 22 2258
284 22 2899
285 22 4249
286 22 1015
287 22 2480
288 22 3069
289 22 4119
290 22 2276
291 22 3493
293 22 3989
296 22 3178
298 22 5329
299 22 3062
301 22 3174
303 22 2601
304 22 4190
306 22 1452
307 22 3087
308 22 2969
309 22 4109
310 22 4596
313 22 3737
314 22 2155
315 22 2455
316 22 3535
318 22 2901
319 22 7387
320 22 2320
322 22 1616
323 22 3541
324 22 2482
325 22 3025
326 22 3906
327 22 2995
328 22 2315
329 22 1612
330 22 1423
332 22 3886
333 22 2097
334 22 1794
335 22 1548
336 22 3492
337 22 2720
339 22 58
340 22 2788
341 22 1059
342 22 2150
343 22 3399
344 22 3248
345 22 4626
349 22 2014
350 22 1693
351 22 2365
352 22 4830
353 22 1974
354 22 3752
355 22 3651
356 22 3913
357 22 4463
358 22 2462
359 22 2709
361 22 3790
362 22 1629
363 22 1902
365 22 566
366 22 3194
368 22 512
369 22 678
370 22 68
371 22 2055
373 22 3546
374 22 1790
376 22 1351
377 22 3278
378 22 5009
379 22 2435
380 22 2150
381 22 3664
382 22 2359
383 22 3530
385 22 79
386 22 3773
387 22 1954
389 22 3448
390 22 4137
391 22 3092
392 22 1506
394 22 3461
395 22 3920
397 22 196
399 22 2217
400 22 2365
402 22 2680
403 22 3330
406 22 2203
407 22 2269
408 22 2063
409 22 2814
410 22 1566
411 22 2225
413 22 3342
415 22 4080
416 22 2751
418 22 3082
419 22 5204
421 22 1532
422 22 1820
423 22 3960
424 22 2524
425 22 1608
426 22 5651
427 22 4311
428 22 647
429 22 2123
430 22 72
433 22 3507
434 22 787
435 22 324
436 22 724
438 22 1855
439 22 2944
441 22 3786
442 22 2293
443 22 3639
444 22 5734
445 22 1254
446 22 4161
447 22 2412
448 22 2
449 22 4
450 22 4834
452 22 2432
453 22 3835
454 22 3902
456 22 3205
457 22 3514
458 22 1063
459 22 4201
460 22 3173
461 22 1994
462 22 2881
465 22 3413
466 22 3434
467 22 4777
468 22 1991
470 22 2231
471 22 2061
472 22 4707
473 22 4520
476 22 4768
477 22 4752
478 22 3310
480 22 2210
481 22 3426
484 22 2862
485 22 3337
487 22 2975
488 22 4411
489 22 2940
490 22 1127
491 22 3398
492 22 3723
493 22 1187
495 22 3768
496 22 4492
497 22 2087
498 22 2815
499 22 2005
1 23 343
2 23 2061
3 23 1857
4 23 1376
5 23 166
6 23 1448
8 23 733
9 23 182
10 23 3108
11 23 456
12 23 2844
13 23 1166
14 23 228
15 23 1382
17 23 1653
20 23 610
21 23 1999
22 23 1339
23 23 1613
25 23 1128
27 23 3447
28 23 1971
29 23 1429
32 23 908
34 23 1837
35 23 971
36 23 1031
37 23 2069
38 23 2561
40 23 2439
41 23 1227
42 23 1500
43 23 936
44 23 835
45 23 2344
46 23 4019
47 23 2389
48 23 1502
49 23 633
50 23 1306
51 23 1939
52 23 1813
54 23 1293
55 23 1609
56 23 9
57 23 1611
58 23 1582
60 23 1830
61 23 3330
62 23 850
63 23 1390
64 23 771
65 23 874
66 23 1611
67 23 1909
68 23 1440
69 23 1369
70 23 1639
71 23 1312
73 23 2372
74 23 562
76 23 1457
77 23 1039
78 23 1673
80 23 845
81 23 2364
82 23 1030
83 23 1342
84 23 2965
85 23 2048
87 23 2624
88 23 540
89 23 1306
90 23 1230
91 23 1639
92 23 1270
93 23 149
94 23 3148
95 23 1987
96 23 8
97 23 2555
98 23 897
99 23 1463
101 23 2273
102 23 1145
103 23 699
104 23 1587
105 23 1251
107 23 968
108 23 2964
109 23 1995
110 23 1342
112 23 761
113 23 807
114 23 1797
115 23 1149
116 23 1880
117 23 1471
118 23 3065
119 23 701
120 23 1479
121 23 1884
122 23 3113
123 23 1609
124 23 2503
125 23 2788
126 23 1060
127 23 2724
128 23 1067
129 23 1962
132 23 3985
133 23 2807
134 23 1458
135 23 1042
136 23 1256
138 23 4
139 23 937
140 23 1423
141 23 598
142 23 1421
143 23 1967
144 23 1660
145 23 2808
147 23 1371
148 23 546
149 23 2451
150 23 1002
151 23 17
152 23 480
153 23 1138
154 23 28
155 23 1605
157 23 1246
158 23 1593
160 23 2225
162 23 1826
163 23 1735
164 23 924
165 23 3438
166 23 1771
167 23 594
168 23 2270
170 23 1447
171 23 1389
172 23 751
173 23 2851
174 23 2239
176 23 2018
177 23 741
178 23 930
180 23 1631
181 23 1840
182 23 105
183 23 839
184 23 630
186 23 1248
187 23 2445
188 23 1941
189 23 2894
190 23 2182
191 23 1238
192 23 633
194 23 1054
195 23 1622
196 23 26
197 23 1177
198 23 1374
199 23 2766
200 23 376
201 23 1275
202 23 1550
203 23 2884
204 23 1678
206 23 79
207 23 1809
210 23 1898
211 23 2114
212 23 2816
213 23 1492
214 23 2291
215 23 1418
216 23 1974
217 23 2028
218 23 2270
219 23 789
220 23 1279
221 23 481
223 23 866
224 23 2371
227 23 1561
228 23 1141
229 23 1975
230 23 894
231 23 2882
232 23 2121
233 23 1899
234 23 1183
235 23 2550
236 23 1074
237 23 612
238 23 1192
239 23 7
240 23 1934
241 23 996
242 23 655
243 23 1964
244 23 849
245 23 1020
246 23 2159
247 23 2121
248 23 984
249 23 858
250 23 1318
251 23 1381
252 23 55
254 23 1504
255 23 2908
256 23 1726
257 23 3500
258 23 2567
261 23 983
262 23 1282
264 23 3403
266 23 773
267 23 1724
268 23 1701
269 23 616
270 23 1287
271 23 526
272 23 1599
273 23 1696
276 23 332
277 23 1780
278 23 2226
280 23 2749
281 23 507
282 23 1274
283 23 1233
284 23 948
285 23 1715
286 23 812
287 23 1898
288 23 2804
290 23 1553
291 23 1479
292 23 2050
293 23 3
294 23 1646
295 23 1891
296 23 1534
297 23 1726
298 23 1808
299 23 1404
300 23 2899
301 23 793
302 23 1128
303 23 978
304 23 2392
305 23 1809
306 23 810
307 23 1736
308 23 963
310 23 1520
311 23 707
312 23 2396
313 23 1268
314 23 883
315 23 512
317 23 2434
318 23 1655
320 23 2316
321 23 1690
322 23 974
324 23 1540
325 23 1420
326 23 2721
327 23 1549
328 23 1246
329 23 1385
330 23 1575
331 23 2223
332 23 2263
333 23 199
334 23 1475
335 23 1523
336 23 1571
337 23 995
338 23 1984
339 23 282
340 23 1638
341 23 446
342 23 1247
343 23 1554
346 23 1430
347 23 1182
348 23 2058
349 23 1563
351 23 1337
353 23 926
355 23 1309
356 23 2506
358 23 1661
359 23 1771
360 23 1570
362 23 1254
363 23 1443
364 23 2335
365 23 4
366 23 1726
367 23 1954
368 23 1768
369 23 29
370 23 601
371 23 2124
372 23 1624
375 23 2123
376 23 695
378 23 2010
379 23 1307
380 23 1231
382 23 2325
383 23 1205
384 23 1938
385 23 132
386 23 2964
387 23 473
388 23 1004
389 23 533
390 23 3
391 23 2138
392 23 1812
393 23 1719
395 23 1827
396 23 72
397 23 387
398 23 1530
399 23 848
400 23 2044
401 23 1998
402 23 1836
403 23 1692
404 23 288
405 23 802
406 23 1181
407 23 1379
408 23 567
409 23 627
410 23 1541
411 23 1270
412 23 1304
413 23 1284
414 23 2653
415 23 1675
416 23 1978
417 23 1479
418 23 635
419 23 1467
420 23 3130
421 23 831
422 23 507
423 23 5
424 23 459
425 23 908
426 23 4
427 23 2202
428 23 34
429 23 865
430 23 147
431 23 1360
432 23 1254
433 23 3231
434 23 1110
435 23 53
436 23 1110
437 23 1669
438 23 984
439 23 1925
440 23 1128
441 23 1405
442 23 1051
443 23 1209
444 23 5
445 23 377
447 23 788
448 23 945
449 23 2464
451 23 2980
452 23 979
453 23 2684
455 23 849
456 23 1885
457 23 2428
458 23 373
461 23 1093
462 23 934
463 23 707
464 23 2903
467 23 3241
468 23 716
469 23 2097
470 23 1822
471 23 1228
474 23 2381
475 23 1604
476 23 1485
478 23 1048
479 23 1712
480 23 1461
481 23 2463
482 23 1134
483 23 1667
484 23 788
485 23 1118
486 23 1203
487 23 1810
489 23 1507
490 23 510
491 23 1567
492 23 1842
493 23 365
494 23 2159
495 23 1507
497 23 196
498 23 1663
499 23 1814
500 23 2418
5 24 16
6 24 3459
10 24 3087
11 24 17
12 24 2150
15 24 2372
21 24 4628
28 24 1815
37 24 3056
38 24 1668
40 24 3508
46 24 3208
48 24 3485
51 24 3501
52 24 2171
60 24 798
61 24 3098
74 24 4
77 24 3
81 24 2104
84 24 2233
85 24 3113
88 24 12
93 24 6
97 24 1974
108 24 3169
110 24 369
122 24 3530
124 24 3126
125 24 2826
126 24 2738
129 24 220
132 24 4596
139 24 2530
148 24 4
149 24 167
150 24 3931
160 24 2139
162 24 111
165 24 3379
174 24 1882
176 24 2760
177 24 3932
182 24 5
186 24 2564
187 24 2142
188 24 2579
190 24 2506
191 24 2412
199 24 1182
202 24 2802
204 24 1070
207 24 990
210 24 4
211 24 3725
212 24 1416
213 24 928
214 24 2293
216 24 467
217 24 1802
224 24 4541
231 24 2129
234 24 1802
235 24 1683
243 24 2479
245 24 5
254 24 2050
256 24 1800
257 24 1750
258 24 2202
264 24 1660
270 24 1458
273 24 2276
276 24 38
278 24 247
284 24 5005
285 24 3293
287 24 2117
288 24 910
291 24 1776
296 24 3170
298 24 3161
299 24 1513
303 24 2018
304 24 2594
310 24 3107
313 24 2482
325 24 610
326 24 2710
332 24 4678
334 24 1147
343 24 1037
356 24 3473
362 24 1001
366 24 2704
368 24 47
371 24 2875
378 24 2575
380 24 1928
382 24 3042
385 24 12
386 24 1230
391 24 1354
397 24 3
399 24 2961
400 24 865
403 24 1507
415 24 2103
416 24 2
418 24 2221
419 24 352
425 24 173
427 24 3476
430 24 6
433 24 3085
453 24 3434
457 24 4734
462 24 5207
467 24 3797
471 24 2010
476 24 5227
481 24 2179
487 24 3379
490 24 8
498 24 2395
1 25 11
2 25 1729
8 25 1336
22 25 1132
27 25 1415
34 25 559
36 25 1260
41 25 1682
44 25 11
45 25 486
47 25 2454
57 25 978
63 25 1051
66 25 1211
67 25 2370
70 25 1636
76 25 1275
83 25 2150
87 25 2001
89 25 2342
90 25 1118
94 25 1406
95 25 1088
101 25 1195
102 25 1306
104 25 991
105 25 937
116 25 946
117 25 259
118 25 2286
121 25 601
127 25 260
128 25 520
133 25 1825
143 25 304
145 25 2145
147 25 1344
152 25 3
155 25 2585
158 25 618
164 25 5
173 25 1293
181 25 2666
189 25 2928
195 25 2160
196 25 2
200 25 14
203 25 700
220 25 2195
229 25 2073
232 25 928
233 25 1478
240 25 577
241 25 845
242 25 1043
246 25 1895
247 25 1977
251 25 963
255 25 537
261 25 2081
268 25 2106
272 25 7
280 25 1758
281 25 1514
292 25 996
294 25 997
295 25 1580
297 25 429
300 25 747
302 25 2115
305 25 2496
311 25 1034
312 25 2366
317 25 1361
321 25 419
331 25 1767
338 25 2109
346 25 1837
347 25 801
348 25 1829
360 25 2459
364 25 2239
367 25 867
372 25 2490
375 25 1151
384 25 1593
388 25 1978
393 25 950
397 25 3
398 25 1749
401 25 1000
404 25 6
405 25 2989
412 25 2264
414 25 1794
417 25 2355
420 25 1736
431 25 1360
432 25 760
434 25 5
435 25 21
436 25 1
437 25 2178
440 25 1393
448 25 872
449 25 1874
451 25 713
455 25 1063
463 25 1328
464 25 1980
469 25 850
474 25 1410
475 25 1300
479 25 880
482 25 2097
483 25 2075
486 25 1500
490 25 3
494 25 478
500 25 403
7 26 2830
16 26 49
18 26 1388
19 26 8985
24 26 9764
26 26 2765
30 26 4241
31 26 16376
33 26 4035
39 26 534
44 26 4
53 26 14522
59 26 4130
72 26 3994
75 26 4241
79 26 8569
86 26 5300
96 26 9954
100 26 16655
106 26 4322
111 26 3994
130 26 4014
131 26 10886
137 26 5006
138 26 8
146 26 8904
152 26 4
156 26 6614
159 26 4094
161 26 5019
169 26 55
175 26 4104
179 26 11026
182 26 9
185 26 3575
193 26 5021
196 26 2
200 26 2
205 26 7364
208 26 4830
209 26 4031
222 26 3984
225 26 1456
226 26 4692
239 26 6486
252 26 12
253 26 4343
259 26 3581
260 26 9589
263 26 5149
265 26 4684
274 26 5100
275 26 2827
279 26 3985
289 26 2901
293 26 6674
309 26 5270
316 26 7577
319 26 6622
323 26 16982
344 26 4075
345 26 5140
350 26 1458
352 26 9834
354 26 3485
357 26 8682
361 26 3536
365 26 5
369 26 12
373 26 7541
374 26 4069
377 26 12128
381 26 3678
390 26 6495
394 26 16856
423 26 6741
426 26 10208
428 26 6
435 26 9
444 26 10055
446 26 2962
450 26 9629
454 26 15557
459 26 2919
460 26 4005
465 26 12185
466 26 12436
472 26 5057
473 26 4034
477 26 4961
488 26 3886
496 26 3976
2 27 4730
6 27 4070
7 27 22
8 27 6420
10 27 3409
12 27 6252
15 27 6862
18 27 5
19 27 7026
21 27 9579
22 27 4005
24 27 7473
26 27 25
27 27 6307
28 27 4050
30 27 2450
31 27 3827
33 27 260
34 27 7557
36 27 2047
37 27 4642
38 27 2943
40 27 8624
41 27 9086
45 27 5465
46 27 3716
47 27 4653
48 27 5310
51 27 5081
52 27 9105
53 27 3941
57 27 6228
59 27 2489
60 27 297
61 27 7311
63 27 6980
66 27 6177
67 27 6251
70 27 3763
72 27 3965
75 27 2411
76 27 1267
79 27 4096
81 27 4424
83 27 5626
84 27 5508
85 27 9746
86 27 4515
87 27 6582
89 27 3890
90 27 4871
94 27 5016
95 27 2049
96 27 5510
97 27 3672
100 27 3870
101 27 7359
102 27 2501
104 27 1381
105 27 877
106 27 2506
108 27 6487
110 27 3
111 27 2727
116 27 4350
117 27 9
118 27 2990
121 27 8546
122 27 4355
124 27 7597
125 27 2394
126 27 4294
127 27 7496
128 27 4771
130 27 2786
131 27 9296
132 27 6154
133 27 3452
137 27 1594
139 27 9167
143 27 4156
145 27 7105
146 27 6946
147 27 4281
149 27 1163
150 27 3993
155 27 10348
156 27 5392
158 27 6627
159 27 3914
160 27 4402
161 27 4583
162 27 1247
165 27 5046
173 27 7207
174 27 3144
175 27 4022
176 27 8123
177 27 4272
179 27 9372
181 27 3729
185 27 2593
186 27 5835
187 27 4316
188 27 7251
189 27 5507
190 27 5518
191 27 3455
193 27 1533
195 27 4774
199 27 3696
202 27 4303
203 27 5202
204 27 2165
205 27 4430
207 27 1658
208 27 1550
209 27 2783
211 27 3845
212 27 1225
213 27 4
214 27 5802
216 27 12
217 27 1697
220 27 5623
222 27 3969
224 27 6388
225 27 1
226 27 2533
229 27 10499
231 27 6090
232 27 7760
233 27 2565
234 27 2232
235 27 3033
239 27 6901
240 27 1750
241 27 2099
242 27 6513
243 27 10075
246 27 8861
247 27 12905
251 27 9313
253 27 2390
254 27 3643
255 27 5569
256 27 9957
257 27 12425
258 27 10227
259 27 2419
260 27 2714
261 27 7629
263 27 8798
264 27 12281
265 27 2432
268 27 8374
270 27 5129
273 27 5226
274 27 4572
275 27 17
278 27 1649
279 27 2722
280 27 11138
281 27 5875
284 27 9360
285 27 5200
287 27 9244
289 27 14
291 27 6030
292 27 5839
293 27 7101
294 27 3437
295 27 5339
296 27 4393
297 27 154
298 27 6843
299 27 3627
300 27 6761
302 27 7944
303 27 6369
304 27 4840
305 27 8287
309 27 3676
310 27 2106
311 27 6419
312 27 4542
313 27 1662
316 27 5984
317 27 3588
319 27 5422
321 27 165
323 27 3861
325 27 4614
326 27 4569
331 27 8634
332 27 6518
334 27 4740
338 27 7000
343 27 249
344 27 2679
345 27 4466
346 27 5139
347 27 78
348 27 4700
350 27 3
352 27 2687
354 27 2458
356 27 8783
357 27 5424
360 27 7236
361 27 2493
362 27 2
364 27 9921
366 27 3157
367 27 4677
371 27 6017
372 27 7146
373 27 6075
374 27 2409
375 27 6961
377 27 5239
378 27 4273
380 27 1431
381 27 2505
382 27 5861
384 27 3588
386 27 5464
388 27 6037
390 27 7109
391 27 653
393 27 4449
394 27 3959
398 27 6432
399 27 7377
400 27 3846
401 27 5919
403 27 1252
405 27 4914
412 27 5599
414 27 6359
415 27 5589
417 27 9951
418 27 2077
420 27 6190
423 27 7195
426 27 5747
427 27 5410
431 27 6214
432 27 73
433 27 7361
437 27 8355
440 27 4459
444 27 5713
446 27 24
448 27 2087
449 27 5616
450 27 2663
451 27 6950
453 27 6458
454 27 8232
455 27 3993
457 27 7600
459 27 25
460 27 2781
462 27 9318
463 27 6304
464 27 8059
465 27 5112
466 27 5328
467 27 7907
469 27 6804
471 27 520
472 27 4606
473 27 3947
474 27 5952
475 27 6287
476 27 4900
477 27 4540
479 27 4124
481 27 1020
482 27 8002
483 27 4991
486 27 7383
487 27 3910
488 27 4035
494 27 3516
496 27 3972
498 27 3592
500 27 5463
6 28 24
10 28 883
12 28 945
15 28 1062
21 28 913
28 28 746
37 28 538
38 28 432
40 28 1351
46 28 798
48 28 170
51 28 1567
52 28 363
61 28 1116
81 28 368
84 28 654
85 28 2331
97 28 360
108 28 2657
122 28 1446
124 28 1365
126 28 567
132 28 1822
139 28 931
149 28 52
150 28 1498
160 28 143
162 28 67
165 28 206
174 28 160
176 28 830
177 28 2571
186 28 680
187 28 380
188 28 2115
190 28 246
191 28 840
199 28 1228
202 28 117
207 28 128
211 28 1006
212 28 33
214 28 830
217 28 26
224 28 327
231 28 954
234 28 78
235 28 388
243 28 1376
254 28 3
256 28 1139
257 28 974
258 28 1149
264 28 1007
270 28 293
273 28 1144
278 28 137
284 28 634
285 28 1495
287 28 377
291 28 405
296 28 1629
298 28 1324
299 28 516
303 28 159
304 28 955
310 28 42
325 28 518
326 28 582
332 28 331
334 28 463
356 28 1371
366 28 20
371 28 909
378 28 325
382 28 1926
386 28 203
399 28 1996
400 28 425
415 28 1359
427 28 1677
433 28 1184
453 28 1171
457 28 1227
462 28 599
467 28 1730
476 28 864
481 28 3
487 28 53
498 28 438
6 29 3
10 29 243
12 29 1407
15 29 322
21 29 1118
28 29 137
37 29 172
38 29 555
40 29 203
46 29 557
48 29 803
51 29 555
52 29 134
61 29 958
81 29 178
84 29 1000
85 29 1660
97 29 294
108 29 911
122 29 1210
124 29 412
126 29 593
132 29 578
139 29 1799
149 29 42
150 29 1017
160 29 82
162 29 34
165 29 364
174 29 203
176 29 1284
177 29 382
186 29 991
187 29 173
188 29 827
190 29 94
191 29 414
199 29 1075
202 29 203
204 29 6
207 29 118
211 29 1478
214 29 524
217 29 10
224 29 388
231 29 1384
234 29 62
235 29 536
243 29 573
254 29 6
256 29 1252
257 29 980
258 29 586
264 29 977
270 29 218
273 29 425
278 29 184
284 29 649
285 29 653
287 29 142
291 29 543
296 29 1174
298 29 669
299 29 126
303 29 399
304 29 892
310 29 20
325 29 444
326 29 1341
332 29 366
334 29 324
356 29 210
366 29 25
371 29 361
378 29 30
382 29 898
386 29 217
399 29 947
400 29 463
415 29 1104
427 29 1156
433 29 994
453 29 1191
457 29 875
462 29 688
467 29 217
476 29 577
481 29 6
487 29 15
498 29 894
10 30 303
12 30 493
15 30 677
21 30 1214
28 30 105
37 30 700
38 30 367
40 30 1003
46 30 732
48 30 71
51 30 1028
52 30 178
61 30 470
81 30 1283
84 30 665
85 30 1679
97 30 136
108 30 1139
122 30 390
124 30 355
125 30 1
126 30 216
132 30 734
139 30 787
149 30 140
150 30 380
160 30 74
162 30 120
165 30 1193
174 30 141
176 30 263
177 30 545
186 30 980
187 30 1226
188 30 1151
190 30 300
191 30 428
199 30 952
202 30 364
207 30 117
211 30 866
212 30 6
214 30 378
217 30 22
224 30 642
231 30 497
234 30 61
235 30 358
243 30 638
256 30 1176
257 30 1195
258 30 1268
264 30 1210
270 30 630
273 30 693
278 30 78
284 30 247
285 30 176
287 30 177
291 30 235
296 30 806
298 30 211
299 30 766
303 30 148
304 30 148
310 30 62
325 30 444
326 30 1334
332 30 661
334 30 320
356 30 969
366 30 58
371 30 437
378 30 136
382 30 246
386 30 423
399 30 708
400 30 166
415 30 798
427 30 595
433 30 462
453 30 1161
457 30 473
462 30 199
467 30 2316
476 30 909
481 30 2
487 30 54
498 30 1007
2 31 1810
8 31 931
22 31 92
27 31 1670
34 31 2240
36 31 34
41 31 1888
45 31 3732
47 31 2492
57 31 2135
63 31 2062
66 31 1766
67 31 1079
70 31 564
76 31 4
83 31 1632
87 31 2304
89 31 1447
90 31 63
94 31 3446
95 31 15
101 31 2141
102 31 1902
116 31 79
118 31 381
121 31 3581
127 31 2615
128 31 1358
133 31 138
143 31 2418
145 31 2803
147 31 2659
155 31 5493
158 31 3298
173 31 4492
181 31 3560
189 31 2875
195 31 1872
203 31 3282
220 31 1738
229 31 2588
232 31 953
240 31 567
242 31 2013
246 31 4300
247 31 1957
251 31 316
255 31 2425
261 31 4309
268 31 1856
280 31 2089
281 31 1700
292 31 2536
294 31 2891
295 31 1615
300 31 3107
302 31 2773
305 31 4592
311 31 2041
312 31 2525
317 31 3045
331 31 2695
338 31 2540
346 31 456
348 31 1857
360 31 3212
364 31 4187
367 31 1814
372 31 3248
375 31 1378
384 31 2621
388 31 2736
393 31 74
398 31 3042
401 31 1422
405 31 324
412 31 1592
414 31 1930
417 31 2476
420 31 2482
431 31 3408
437 31 1800
440 31 1162
449 31 1063
451 31 3107
455 31 2820
463 31 923
464 31 3401
469 31 2575
474 31 2910
475 31 1719
479 31 2497
482 31 2773
483 31 1595
486 31 919
494 31 2254
500 31 2612
2 32 2449
8 32 1375
22 32 46
27 32 2050
34 32 2190
36 32 43
41 32 1589
45 32 2865
47 32 3044
57 32 2182
63 32 1745
66 32 2084
67 32 1986
70 32 881
83 32 2721
87 32 3805
89 32 3991
90 32 873
94 32 4187
95 32 13
101 32 1421
102 32 1989
116 32 73
118 32 536
121 32 2692
127 32 3065
128 32 2203
133 32 166
143 32 1862
145 32 3034
147 32 1675
155 32 2890
158 32 2045
173 32 2275
181 32 1977
189 32 3731
195 32 2300
203 32 1852
220 32 2741
229 32 4452
232 32 2113
233 32 71
240 32 1175
242 32 1496
246 32 3552
247 32 2011
251 32 362
255 32 3089
261 32 3928
268 32 2436
280 32 2440
281 32 2618
292 32 2164
294 32 1537
295 32 2330
300 32 3042
302 32 3780
305 32 4031
311 32 1466
312 32 3093
317 32 1530
331 32 3348
338 32 2267
346 32 529
348 32 2454
360 32 1877
364 32 2810
367 32 3893
372 32 1918
375 32 2037
384 32 2469
388 32 1428
393 32 99
398 32 3025
401 32 2172
405 32 1521
412 32 2747
414 32 905
417 32 3248
420 32 1407
431 32 4616
437 32 2370
440 32 1159
449 32 1049
451 32 3043
455 32 645
463 32 1405
464 32 2143
469 32 2900
474 32 2853
475 32 2198
479 32 2869
482 32 3974
483 32 2252
486 32 365
494 32 1361
500 32 3555
2 33 4054
8 33 3308
22 33 135
27 33 3892
34 33 4198
36 33 137
41 33 6226
45 33 6375
47 33 6222
57 33 4741
63 33 5383
66 33 4456
67 33 5254
70 33 1522
83 33 6466
87 33 6237
89 33 10279
90 33 883
94 33 9723
95 33 4
101 33 7557
102 33 3855
116 33 530
118 33 1085
121 33 7666
127 33 6319
128 33 6088
133 33 383
143 33 6192
145 33 9054
147 33 6261
155 33 9764
158 33 6731
173 33 6299
181 33 8497
189 33 11431
195 33 8167
203 33 7054
220 33 6409
229 33 6177
232 33 2569
233 33 65
240 33 3575
242 33 4097
246 33 7918
247 33 4572
251 33 1782
255 33 9624
261 33 9016
268 33 6710
280 33 10244
281 33 5998
292 33 4964
294 33 7114
295 33 2712
300 33 4459
302 33 5636
305 33 8134
311 33 4079
312 33 6438
317 33 7434
326 33 6
331 33 4748
338 33 5519
346 33 2833
348 33 3851
360 33 6205
364 33 5008
367 33 6339
372 33 6130
375 33 3677
384 33 7049
388 33 3435
393 33 522
398 33 4683
401 33 5252
405 33 1895
412 33 6459
414 33 7611
417 33 6367
420 33 5778
431 33 10599
437 33 6676
440 33 2521
449 33 5131
451 33 4429
455 33 5177
463 33 3318
464 33 6701
469 33 5610
474 33 5997
475 33 4375
479 33 6284
482 33 5816
483 33 8238
486 33 2544
494 33 4197
500 33 5945
19 34 5374
24 34 2813
30 34 709
31 34 4512
53 34 2946
59 34 671
72 34 1596
75 34 674
79 34 3341
86 34 3054
96 34 3366
100 34 4420
106 34 705
111 34 72
130 34 71
131 34 2696
137 34 9
146 34 5339
156 34 3745
159 34 1687
161 34 3076
175 34 1714
179 34 2688
185 34 1016
193 34 10
205 34 3174
208 34 10
209 34 78
222 34 1642
226 34 28
239 34 2692
253 34 680
259 34 1038
260 34 2480
263 34 4171
265 34 34
274 34 3011
279 34 55
293 34 2690
309 34 1795
316 34 4939
319 34 3855
323 34 4484
344 34 78
345 34 2977
352 34 2474
354 34 1004
357 34 2327
361 34 1011
373 34 4827
374 34 687
377 34 4962
381 34 1002
390 34 2786
394 34 4720
423 34 2778
426 34 3432
444 34 3390
450 34 2495
454 34 4301
460 34 72
465 34 5222
466 34 5272
472 34 3021
473 34 1604
477 34 3108
488 34 1629
496 34 1632
19 35 4141
24 35 1769
30 35 1568
31 35 1477
53 35 929
59 35 1553
72 35 941
75 35 1508
79 35 3453
86 35 1886
96 35 854
100 35 1582
106 35 1502
111 35 89
130 35 94
131 35 3952
137 35 3
146 35 4025
156 35 822
159 35 934
161 35 1820
175 35 995
179 35 3966
185 35 274
193 35 2
205 35 1782
208 35 3
209 35 82
222 35 900
226 35 88
239 35 3236
253 35 1532
259 35 261
260 35 3145
263 35 2831
265 35 75
274 35 1832
279 35 109
293 35 3323
309 35 1143
316 35 3717
319 35 876
323 35 1564
344 35 80
345 35 1827
352 35 3149
354 35 312
357 35 2682
361 35 238
373 35 3664
374 35 1542
377 35 3441
381 35 256
390 35 3317
394 35 1516
423 35 3213
426 35 850
444 35 813
450 35 3130
454 35 1638
460 35 101
465 35 3547
466 35 3562
472 35 1897
473 35 877
477 35 1826
488 35 939
496 35 927
19 36 3363
24 36 1826
30 36 967
31 36 2375
53 36 716
59 36 975
72 36 1375
75 36 977
79 36 2852
86 36 1239
96 36 3750
100 36 2352
106 36 947
111 36 235
130 36 227
131 36 1552
137 36 2
146 36 3478
156 36 1575
159 36 1408
161 36 1245
175 36 1419
179 36 1604
185 36 285
193 36 2
205 36 1254
208 36 5
209 36 206
222 36 1409
226 36 38
239 36 1594
253 36 968
259 36 293
260 36 708
263 36 2517
265 36 43
274 36 1311
279 36 211
293 36 1655
309 36 881
316 36 2884
319 36 1622
323 36 2301
344 36 218
345 36 1222
352 36 723
354 36 334
357 36 1854
361 36 309
373 36 2927
374 36 954
377 36 1690
381 36 334
390 36 1591
394 36 2420
423 36 1580
426 36 3765
444 36 3867
450 36 729
454 36 2912
460 36 218
465 36 1669
466 36 1711
472 36 1237
473 36 1476
477 36 1213
488 36 1412
496 36 1531
10 37 2441
12 37 4079
15 37 4688
21 37 4017
28 37 5973
37 37 32
38 37 2525
40 37 3754
46 37 3997
48 37 66
51 37 4150
61 37 2399
81 37 1810
84 37 1193
85 37 3117
97 37 3092
108 37 4658
122 37 1280
124 37 3034
126 37 646
132 37 5628
139 37 7679
149 37 2641
150 37 1282
162 37 1714
165 37 3049
174 37 1422
176 37 1068
177 37 2896
186 37 5478
187 37 1723
188 37 4681
191 37 113
199 37 2219
211 37 4774
214 37 2977
224 37 1265
231 37 4084
234 37 26
235 37 2620
243 37 3169
256 37 2849
257 37 8571
258 37 3059
264 37 8833
270 37 3944
273 37 2092
278 37 2642
284 37 2765
285 37 1847
291 37 27
296 37 4288
298 37 3482
299 37 1402
303 37 661
304 37 341
325 37 3431
326 37 3512
332 37 1240
334 37 2265
356 37 3669
371 37 65
382 37 5154
386 37 893
399 37 626
400 37 2029
415 37 4195
427 37 3292
433 37 2466
453 37 4688
457 37 3867
462 37 2725
467 37 4224
476 37 3413
498 37 4198
10 38 836
12 38 1509
15 38 1483
21 38 1434
28 38 872
38 38 571
40 38 877
46 38 652
48 38 18
51 38 1434
61 38 680
84 38 1266
85 38 1602
97 38 1928
108 38 891
124 38 133
126 38 56
132 38 1678
139 38 642
149 38 455
150 38 122
162 38 837
165 38 312
174 38 308
177 38 358
186 38 349
188 38 1562
199 38 1381
211 38 1683
214 38 627
224 38 4
231 38 1518
234 38 106
235 38 562
243 38 1677
256 38 1040
257 38 1370
258 38 413
264 38 1347
270 38 844
273 38 663
278 38 1248
284 38 1642
285 38 380
296 38 747
298 38 835
299 38 39
303 38 759
304 38 1
325 38 1524
326 38 1692
332 38 12
334 38 449
356 38 886
371 38 7
382 38 327
386 38 541
399 38 11
400 38 1258
415 38 878
427 38 506
433 38 662
453 38 635
457 38 1290
462 38 1759
467 38 507
476 38 494
498 38 1998
10 39 322
12 39 154
15 39 159
21 39 176
28 39 466
38 39 99
40 39 287
46 39 624
48 39 52
51 39 128
61 39 311
81 39 49
84 39 1058
85 39 345
97 39 98
108 39 321
122 39 5
124 39 437
126 39 109
132 39 832
139 39 245
149 39 256
150 39 783
162 39 163
165 39 508
174 39 162
176 39 56
177 39 294
186 39 155
187 39 28
188 39 121
190 39 7
199 39 195
211 39 281
214 39 1409
224 39 48
231 39 165
234 39 48
235 39 79
243 39 315
256 39 467
257 39 947
258 39 355
264 39 938
270 39 308
273 39 330
278 39 423
284 39 173
285 39 134
296 39 618
298 39 257
299 39 229
303 39 173
304 39 10
325 39 208
326 39 349
332 39 52
334 39 632
356 39 317
371 39 31
382 39 81
386 39 54
400 39 1473
415 39 1080
427 39 215
433 39 290
453 39 419
457 39 349
462 39 204
467 39 312
476 39 1743
498 39 281
10 40 558
12 40 2131
15 40 2149
21 40 1295
28 40 1377
38 40 1282
40 40 1636
46 40 1414
48 40 5
51 40 2976
61 40 2310
84 40 1121
85 40 1990
97 40 998
108 40 1229
124 40 39
126 40 19
132 40 335
139 40 568
149 40 639
150 40 4
162 40 1108
165 40 224
174 40 1613
177 40 149
186 40 754
188 40 552
190 40 31
199 40 1578
211 40 2246
212 40 49
214 40 367
231 40 2016
234 40 652
235 40 1302
243 40 2480
256 40 1333
257 40 1202
258 40 869
264 40 1331
270 40 1015
273 40 2234
278 40 753
284 40 1283
285 40 1693
296 40 1268
298 40 1424
299 40 12
303 40 318
325 40 1956
326 40 2018
334 40 1029
356 40 1668
371 40 21
382 40 2318
386 40 160
400 40 947
415 40 118
427 40 162
433 40 2243
453 40 35
457 40 1348
462 40 1316
467 40 673
476 40 34
498 40 1149
10 41 919
12 41 763
15 41 951
21 41 522
28 41 694
38 41 1029
40 41 409
46 41 848
48 41 69
51 41 288
61 41 169
84 41 280
85 41 501
97 41 470
108 41 152
122 41 6
132 41 183
139 41 467
149 41 14
150 41 3
162 41 123
165 41 118
174 41 724
186 41 758
188 41 1538
190 41 88
199 41 122
211 41 462
212 41 184
214 41 4
231 41 744
234 41 1065
235 41 1003
243 41 399
256 41 907
257 41 301
258 41 74
264 41 288
270 41 147
273 41 584
278 41 733
284 41 593
285 41 333
296 41 5
298 41 1261
299 41 6
303 41 26
325 41 423
326 41 226
334 41 621
356 41 425
371 41 13
382 41 423
399 41 6
400 41 26
427 41 94
433 41 162
457 41 49
462 41 548
467 41 944
498 41 445
2 42 774
8 42 3438
27 42 4872
34 42 2855
41 42 2959
45 42 3851
47 42 3569
57 42 200
63 42 1167
66 42 410
67 42 3206
70 42 13
83 42 2350
87 42 5812
89 42 3947
94 42 4337
101 42 5156
102 42 1953
118 42 528
121 42 2803
127 42 3301
128 42 4001
143 42 3305
145 42 3181
147 42 3551
155 42 2556
158 42 3511
173 42 8434
181 42 3754
189 42 5291
195 42 2843
203 42 4944
220 42 2396
229 42 2845
232 42 3048
240 42 2277
242 42 2188
246 42 3420
247 42 2272
255 42 2894
261 42 4719
268 42 2629
280 42 2512
281 42 2148
292 42 2972
294 42 4006
295 42 356
300 42 4117
302 42 3446
305 42 3061
311 42 2129
312 42 3635
317 42 2320
331 42 2168
338 42 2543
348 42 768
360 42 2648
364 42 2787
367 42 2466
372 42 2680
375 42 26
384 42 3212
388 42 443
398 42 3958
401 42 3092
405 42 19
412 42 2286
414 42 4022
417 42 3369
420 42 3972
431 42 5560
437 42 2528
440 42 15
449 42 3359
451 42 4081
455 42 1934
463 42 3435
464 42 4887
469 42 1314
474 42 2756
475 42 381
479 42 2870
482 42 3533
483 42 4792
486 42 30
494 42 2497
500 42 3475
2 43 83
8 43 2912
27 43 3500
34 43 2855
41 43 2257
45 43 8063
47 43 983
63 43 2294
66 43 15
67 43 4840
83 43 86
87 43 4849
89 43 4030
94 43 5877
101 43 6331
102 43 2043
118 43 628
121 43 4719
127 43 2091
128 43 3981
143 43 3896
145 43 5425
147 43 2751
155 43 4683
158 43 2393
173 43 5583
181 43 833
189 43 3233
195 43 1207
203 43 3251
220 43 60
229 43 2937
232 43 2590
240 43 1391
242 43 31
246 43 8071
247 43 83
255 43 3361
261 43 3155
268 43 1066
280 43 1705
281 43 34
292 43 1284
294 43 2479
295 43 35
300 43 2813
302 43 4360
305 43 3455
311 43 29
312 43 1004
317 43 2265
331 43 160
338 43 2884
348 43 96
360 43 2432
364 43 2206
367 43 3854
372 43 2412
384 43 1330
388 43 2
398 43 5142
401 43 1019
412 43 74
414 43 3524
417 43 5132
420 43 4895
431 43 5078
437 43 1022
449 43 4002
451 43 2760
455 43 2625
463 43 2972
464 43 3572
469 43 2774
474 43 3201
475 43 12
479 43 3061
482 43 4458
483 43 2654
494 43 3503
500 43 5140
1 44 2766
2 44 1382
3 44 3340
4 44 895
5 44 1849
6 44 2647
7 44 2129
8 44 94
9 44 1690
10 44 3551
11 44 796
12 44 2046
13 44 1062
14 44 2028
15 44 3075
16 44 2245
17 44 2321
18 44 1767
19 44 3715
20 44 1042
21 44 2804
22 44 2417
23 44 2069
24 44 2705
25 44 1090
26 44 2115
27 44 31
28 44 1738
29 44 2002
30 44 1598
31 44 1923
32 44 914
33 44 2215
34 44 39
35 44 648
36 44 1432
37 44 1088
38 44 3322
39 44 1753
40 44 2064
41 44 66
42 44 1309
43 44 1793
44 44 1243
45 44 37
46 44 2080
47 44 1240
48 44 2079
49 44 1315
50 44 1967
51 44 1491
52 44 2135
53 44 1693
54 44 1149
55 44 1741
56 44 1602
57 44 1210
58 44 2029
59 44 1676
60 44 2314
61 44 3419
62 44 1816
63 44 5
64 44 947
65 44 2053
66 44 2905
68 44 5332
69 44 1781
70 44 1304
71 44 1335
72 44 1977
73 44 2363
74 44 1907
75 44 1669
76 44 1543
77 44 1542
78 44 1473
79 44 1556
80 44 1004
81 44 1576
82 44 1245
83 44 2493
84 44 1175
85 44 2264
86 44 2998
87 44 21
88 44 2089
89 44 39
90 44 1973
91 44 1386
92 44 1057
93 44 1827
94 44 5
95 44 1140
96 44 4594
97 44 2297
98 44 1997
99 44 798
100 44 1817
101 44 2
102 44 284
103 44 774
104 44 1595
105 44 1612
106 44 1636
107 44 868
108 44 1647
109 44 1560
110 44 1910
111 44 1249
112 44 982
113 44 931
114 44 2030
115 44 955
116 44 2015
117 44 1837
118 44 27
119 44 716
120 44 593
122 44 2421
123 44 706
124 44 1562
125 44 2800
126 44 2778
127 44 8
128 44 21
129 44 2540
130 44 1307
131 44 2823
132 44 1861
133 44 1510
134 44 2537
135 44 948
136 44 1801
137 44 1442
138 44 2622
139 44 2379
140 44 1362
141 44 2299
142 44 1799
144 44 764
146 44 3824
148 44 1767
149 44 1258
150 44 1648
151 44 2441
152 44 1482
153 44 2261
154 44 2235
155 44 6
156 44 1985
157 44 1382
158 44 5
159 44 2053
160 44 1698
161 44 3019
162 44 3646
163 44 2203
164 44 2236
165 44 2663
166 44 1259
167 44 1565
168 44 1387
169 44 2219
170 44 2523
171 44 1190
172 44 436
173 44 6
174 44 1987
175 44 2056
176 44 1280
177 44 2912
178 44 1013
179 44 2786
180 44 1566
181 44 20
182 44 2224
183 44 906
184 44 1601
185 44 1658
186 44 1211
187 44 1573
188 44 2369
189 44 11
190 44 1893
191 44 1630
192 44 1254
193 44 1417
194 44 2278
195 44 44
196 44 1622
197 44 1240
198 44 1604
199 44 1748
200 44 1747
201 44 1046
202 44 1423
204 44 2045
205 44 3012
206 44 1635
207 44 1326
208 44 1474
209 44 1314
210 44 730
211 44 2165
212 44 1545
213 44 2032
214 44 1524
215 44 1891
216 44 2657
217 44 1610
218 44 1782
219 44 1423
220 44 2570
221 44 1108
222 44 2024
223 44 873
224 44 2090
225 44 1851
226 44 1699
227 44 2477
228 44 912
229 44 5
230 44 881
231 44 2064
232 44 33
233 44 2453
234 44 2495
235 44 3360
236 44 1390
237 44 1713
238 44 1724
239 44 4430
240 44 17
241 44 1833
242 44 1873
243 44 2493
244 44 669
245 44 1439
247 44 2548
248 44 1849
249 44 1503
250 44 1067
251 44 1757
252 44 2088
253 44 1601
254 44 2162
255 44 15
256 44 3446
257 44 2514
258 44 3267
259 44 1668
260 44 1711
262 44 1888
263 44 1437
264 44 2519
265 44 1701
266 44 462
267 44 1290
268 44 273
269 44 2319
270 44 2033
271 44 1828
272 44 1670
273 44 1687
274 44 2969
275 44 2155
276 44 2282
277 44 1413
278 44 2110
279 44 1271
281 44 2853
282 44 1922
283 44 1589
284 44 970
285 44 2701
286 44 1267
287 44 2035
288 44 1946
289 44 2166
290 44 1260
291 44 2483
292 44 8
293 44 4505
294 44 178
295 44 1393
296 44 1544
297 44 1277
298 44 3150
299 44 1840
300 44 11
301 44 1452
302 44 15
303 44 2014
304 44 1846
305 44 29
306 44 1513
307 44 771
308 44 3608
309 44 634
310 44 2161
311 44 1940
312 44 1210
313 44 2352
314 44 2195
315 44 1084
316 44 2872
317 44 28
318 44 1534
319 44 2000
320 44 2418
321 44 1264
322 44 1371
323 44 1791
324 44 5341
325 44 1122
326 44 2532
327 44 1019
328 44 1778
329 44 1014
330 44 2050
331 44 1289
332 44 2077
333 44 1235
334 44 2440
335 44 629
336 44 2447
337 44 1702
338 44 6
339 44 2225
340 44 4108
341 44 1899
342 44 1731
343 44 1364
344 44 1302
345 44 2893
346 44 2182
347 44 988
348 44 1347
349 44 1942
350 44 1911
351 44 1130
352 44 1691
353 44 3170
354 44 1616
355 44 2932
356 44 2029
357 44 4636
358 44 1551
359 44 1864
360 44 21
361 44 1595
362 44 2216
363 44 920
364 44 6
365 44 2627
366 44 2214
367 44 28
368 44 3252
369 44 2171
370 44 1701
371 44 2105
372 44 15
373 44 2899
374 44 1620
375 44 1886
376 44 1355
377 44 1620
378 44 2347
379 44 4361
380 44 901
381 44 1623
382 44 2342
383 44 725
384 44 1115
385 44 1015
386 44 2657
387 44 1532
388 44 1555
389 44 2104
390 44 4542
391 44 2759
392 44 966
393 44 2009
394 44 1858
395 44 3477
396 44 553
397 44 2019
399 44 1927
400 44 2394
401 44 11
402 44 1778
403 44 1916
404 44 1265
405 44 1241
406 44 1309
407 44 1609
408 44 865
409 44 804
410 44 857
411 44 1812
412 44 2577
413 44 2254
415 44 5117
416 44 696
417 44 11
418 44 2622
419 44 2005
420 44 2
421 44 750
422 44 1121
423 44 4598
424 44 1143
425 44 2418
426 44 4845
427 44 1376
428 44 2145
429 44 2209
430 44 1823
431 44 3
432 44 974
433 44 3339
434 44 930
435 44 2040
436 44 900
437 44 309
438 44 957
439 44 2008
440 44 2074
441 44 1775
442 44 1969
443 44 1394
444 44 4813
445 44 1008
446 44 2156
447 44 2404
448 44 1779
449 44 98
450 44 1690
451 44 3
452 44 1384
453 44 2592
454 44 2804
456 44 1640
457 44 3059
458 44 1060
459 44 2159
460 44 1273
461 44 1671
462 44 982
463 44 77
464 44 4
465 44 1707
466 44 1730
467 44 2724
468 44 1100
469 44 5
470 44 1604
471 44 2055
472 44 2986
473 44 1985
475 44 2852
476 44 2420
477 44 3019
478 44 2308
479 44 6
480 44 1420
481 44 1442
482 44 7
483 44 10
484 44 994
485 44 2337
486 44 3478
487 44 1771
488 44 1996
489 44 2463
490 44 2490
491 44 1966
492 44 2668
493 44 779
494 44 56
495 44 1763
496 44 2092
497 44 1264
498 44 3251
499 44 866
500 44 9
2 45 13
4 45 14
8 45 37
9 45 6
10 45 7
11 45 3
12 45 1
13 45 6
14 45 2
15 45 9
19 45 32
20 45 1
21 45 4
23 45 3
27 45 1478
28 45 3
29 45 5
30 45 16
31 45 1
32 45 7
34 45 91
35 45 2
39 45 4
41 45 3714
42 45 3
43 45 5
44 45 18
45 45 3645
47 45 4
49 45 6
50 45 5
51 45 2
52 45 22
55 45 2
56 45 4
59 45 9
62 45 3
63 45 1581
64 45 2
66 45 15
67 45 2953
70 45 10
72 45 35
73 45 14
74 45 2
75 45 16
76 45 10
77 45 3
78 45 2
79 45 4
80 45 5
81 45 23
82 45 6
84 45 6
85 45 6
86 45 5
87 45 2535
88 45 3
89 45 414
90 45 17
91 45 4
94 45 2819
95 45 22
96 45 12
97 45 2
100 45 8
101 45 3663
102 45 6
104 45 2
106 45 6
108 45 4
109 45 17
110 45 17
112 45 7
113 45 2
115 45 9
116 45 2
117 45 1
118 45 3355
119 45 8
120 45 2
121 45 2870
123 45 9
124 45 5
125 45 6
126 45 27
127 45 2050
128 45 751
129 45 9
133 45 4
135 45 4
136 45 4
139 45 33
140 45 28
141 45 5
143 45 4153
144 45 21
145 45 3976
146 45 27
147 45 3679
148 45 4
150 45 3
152 45 12
153 45 3
154 45 2
155 45 4043
158 45 3361
159 45 33
161 45 4
162 45 1
163 45 5
165 45 13
167 45 5
168 45 5
173 45 4589
174 45 21
175 45 43
176 45 8
177 45 6
181 45 178
182 45 10
184 45 5
185 45 2
187 45 20
189 45 3194
191 45 15
194 45 8
195 45 2439
198 45 5
199 45 4
202 45 5
203 45 4858
205 45 5
206 45 11
210 45 2
211 45 8
213 45 4
218 45 4
219 45 12
221 45 1
222 45 30
223 45 9
224 45 6
227 45 3
229 45 3605
230 45 14
231 45 4
232 45 3008
233 45 15
234 45 4
236 45 2
240 45 2516
241 45 3
242 45 14
243 45 4
245 45 4
246 45 4282
247 45 11
249 45 20
250 45 3
251 45 9
253 45 8
254 45 24
255 45 3501
256 45 6
257 45 9
259 45 9
261 45 3432
262 45 7
263 45 32
264 45 10
268 45 4
269 45 4
270 45 29
271 45 21
272 45 10
273 45 3
274 45 3
276 45 8
277 45 2
278 45 5
280 45 3267
281 45 2
282 45 4
284 45 5
285 45 14
286 45 11
287 45 23
291 45 4
292 45 121
294 45 6
295 45 2
298 45 4
299 45 8
300 45 1901
302 45 2803
303 45 4
304 45 17
305 45 3551
307 45 21
309 45 10
311 45 8
312 45 2
313 45 8
314 45 6
315 45 1
317 45 4052
318 45 2
320 45 4
323 45 4
327 45 4
328 45 3
329 45 5
331 45 9
332 45 3
333 45 9
335 45 5
336 45 2
337 45 3
338 45 229
342 45 6
343 45 2
345 45 3
348 45 10
349 45 11
353 45 3
354 45 2
355 45 7
357 45 55
358 45 5
360 45 1847
361 45 1
363 45 4
364 45 2262
367 45 3048
368 45 13
369 45 2
371 45 2
372 45 1800
374 45 13
376 45 6
377 45 16
378 45 5
379 45 12
380 45 9
381 45 7
383 45 6
384 45 8
387 45 5
388 45 15
389 45 9
391 45 10
392 45 5
393 45 4
394 45 6
397 45 41
398 45 3281
400 45 4
401 45 1385
403 45 6
404 45 7
405 45 10
406 45 14
407 45 4
408 45 10
410 45 14
411 45 4
413 45 2
414 45 2576
416 45 1
417 45 4213
420 45 3508
422 45 9
425 45 9
426 45 16
427 45 3
428 45 3
429 45 4
431 45 3059
434 45 2
436 45 6
437 45 5
438 45 2
440 45 1
443 45 5
444 45 13
445 45 2
447 45 19
448 45 6
449 45 4
451 45 1917
453 45 20
454 45 4
455 45 1172
456 45 10
458 45 9
462 45 7
463 45 40
464 45 2135
465 45 15
466 45 9
468 45 6
469 45 3537
470 45 1
471 45 2
472 45 1
473 45 37
474 45 2796
475 45 9
477 45 3
478 45 5
479 45 3386
480 45 9
482 45 3013
483 45 1031
484 45 9
485 45 6
487 45 7
488 45 33
490 45 10
493 45 1
494 45 2842
495 45 6
496 45 41
499 45 12
500 45 3495
1 46 2760
2 46 2540
3 46 3411
4 46 2570
5 46 1738
6 46 3454
7 46 3816
8 46 2612
9 46 3038
10 46 3373
11 46 4322
12 46 4942
13 46 1809
14 46 3326
15 46 4483
16 46 3491
17 46 3345
18 46 3673
19 46 7905
20 46 1536
21 46 2960
22 46 2585
23 46 2094
24 46 5719
25 46 1599
26 46 3828
27 46 5
28 46 4772
29 46 2638
30 46 2963
31 46 3205
32 46 2332
33 46 2880
34 46 3166
35 46 3009
36 46 2165
37 46 2367
38 46 4491
39 46 3536
40 46 3034
41 46 4
42 46 2726
43 46 2062
44 46 1659
45 46 40
46 46 4253
47 46 3055
48 46 2239
49 46 3444
50 46 2436
51 46 4237
52 46 2736
53 46 4291
54 46 2286
55 46 2944
56 46 3788
57 46 1621
58 46 2472
59 46 2990
60 46 3470
61 46 4429
62 46 3075
63 46 4
64 46 2465
65 46 2293
66 46 3641
67 46 7
68 46 3122
69 46 3763
70 46 3725
71 46 2846
72 46 2908
73 46 3902
74 46 2437
75 46 3030
76 46 2274
77 46 1479
78 46 1389
79 46 4991
80 46 839
81 46 1962
82 46 2656
83 46 4226
84 46 4107
85 46 2717
86 46 2973
87 46 71
88 46 2914
89 46 1084
90 46 2669
91 46 2200
92 46 2739
93 46 2583
94 46 18
95 46 2033
96 46 4114
97 46 5093
98 46 2290
99 46 1819
100 46 3313
101 46 3
102 46 3752
103 46 3102
104 46 3872
105 46 1845
106 46 3093
107 46 1836
108 46 3540
109 46 2993
110 46 3204
111 46 3093
112 46 2233
113 46 2106
114 46 3893
115 46 2480
116 46 3106
117 46 2797
118 46 4
119 46 1958
120 46 1079
121 46 11
122 46 3517
123 46 1269
124 46 4296
125 46 2245
126 46 3105
127 46 59
128 46 447
129 46 3387
130 46 3022
131 46 4172
132 46 4154
133 46 3348
134 46 3102
135 46 986
136 46 2774
137 46 3272
138 46 3316
139 46 2758
140 46 1791
141 46 3262
142 46 3044
144 46 4309
146 46 8071
148 46 2450
149 46 2604
150 46 2074
151 46 3080
152 46 2012
153 46 2158
154 46 2192
156 46 3984
157 46 1803
158 46 4
159 46 2897
160 46 5674
161 46 2957
162 46 3344
163 46 3232
164 46 1976
165 46 2945
166 46 2005
167 46 1705
168 46 2182
169 46 3533
170 46 3245
171 46 2431
172 46 1966
173 46 57
174 46 3225
175 46 2723
176 46 3555
177 46 3222
178 46 1214
179 46 4110
180 46 1540
181 46 1512
182 46 2651
183 46 1359
184 46 1265
185 46 2662
186 46 2355
187 46 1951
188 46 4902
189 46 80
190 46 3004
191 46 2016
192 46 1409
193 46 3415
194 46 4500
195 46 3
196 46 2126
197 46 2337
198 46 1967
199 46 4669
200 46 1567
201 46 2040
202 46 2965
203 46 3
204 46 4333
205 46 4392
206 46 961
207 46 4588
208 46 3379
209 46 3038
210 46 2655
211 46 4954
212 46 1869
213 46 3524
214 46 2733
215 46 3053
216 46 3732
217 46 2695
218 46 3929
219 46 2591
220 46 4383
221 46 1892
222 46 2805
223 46 2376
224 46 3625
225 46 3724
226 46 2822
227 46 3269
228 46 967
230 46 1856
231 46 4911
232 46 104
233 46 2300
234 46 2856
235 46 4459
236 46 1378
237 46 2643
238 46 2475
239 46 3141
240 46 4
241 46 2795
242 46 2768
243 46 4662
244 46 1012
245 46 1469
246 46 16
247 46 4830
248 46 1487
249 46 2549
250 46 2009
251 46 3398
252 46 2826
253 46 3054
254 46 4112
255 46 3
256 46 4223
257 46 3214
258 46 4248
259 46 2651
260 46 6821
262 46 2396
263 46 2992
264 46 3210
265 46 2867
266 46 1985
267 46 1982
268 46 3946
269 46 3467
270 46 4531
271 46 4795
272 46 2768
273 46 3976
274 46 2993
275 46 3706
276 46 1983
277 46 2222
278 46 3601
279 46 3218
280 46 12
281 46 3992
282 46 2700
283 46 2740
284 46 2494
285 46 4272
286 46 1925
287 46 2727
288 46 6529
289 46 3859
290 46 2060
291 46 2474
292 46 1775
293 46 3314
294 46 2856
295 46 2273
296 46 4315
297 46 2594
298 46 3680
299 46 1880
300 46 9
301 46 2138
302 46 3
303 46 3162
304 46 2742
305 46 3
306 46 2421
307 46 4418
308 46 2612
309 46 2460
310 46 3467
311 46 2660
312 46 3085
313 46 3176
314 46 4174
315 46 1867
316 46 2990
318 46 1430
319 46 3947
320 46 3497
321 46 2754
322 46 2777
323 46 3184
324 46 3090
325 46 3508
326 46 2153
327 46 1441
328 46 2787
329 46 2056
330 46 2439
331 46 2610
332 46 3729
333 46 1797
334 46 2798
335 46 1702
336 46 3383
337 46 3249
338 46 267
339 46 3050
340 46 2757
341 46 1508
342 46 2815
343 46 2886
344 46 3107
345 46 2987
346 46 2521
347 46 1305
348 46 2480
349 46 2193
350 46 3744
351 46 2408
352 46 6856
353 46 1084
354 46 2756
355 46 3514
356 46 2983
357 46 4151
358 46 2359
359 46 2706
360 46 149
361 46 2637
362 46 3061
363 46 2474
364 46 20
365 46 3298
366 46 3434
367 46 31
368 46 2434
369 46 2909
370 46 2658
371 46 3025
372 46 139
373 46 3066
374 46 3017
375 46 2235
376 46 1911
377 46 4578
378 46 3854
379 46 3402
380 46 1552
381 46 2771
382 46 2830
383 46 3235
384 46 4255
385 46 2611
386 46 2683
387 46 1372
388 46 3484
389 46 1579
390 46 3323
391 46 4110
392 46 3142
393 46 3067
394 46 3292
395 46 3419
396 46 2107
397 46 3214
398 46 178
399 46 3847
400 46 2353
401 46 87
402 46 2789
403 46 3635
404 46 2160
405 46 2150
406 46 2711
407 46 2024
408 46 1773
409 46 3264
410 46 2546
411 46 2760
412 46 4318
413 46 3464
414 46 12
415 46 1992
416 46 2656
418 46 3389
419 46 2330
420 46 3
421 46 1394
422 46 1920
423 46 3221
424 46 2700
425 46 4143
426 46 4236
427 46 4640
428 46 2869
429 46 4154
430 46 2563
431 46 26
432 46 1279
433 46 4470
434 46 2395
435 46 3951
436 46 2414
437 46 3973
438 46 1774
439 46 3845
440 46 1378
441 46 3055
442 46 1991
443 46 2193
444 46 4147
445 46 1365
446 46 3798
447 46 2659
448 46 2845
449 46 3501
450 46 6826
451 46 16
452 46 1653
453 46 4788
454 46 6999
455 46 1078
456 46 2615
457 46 4866
458 46 873
459 46 3858
460 46 3055
461 46 3420
462 46 2601
463 46 2484
464 46 4
465 46 4710
466 46 4609
467 46 3510
468 46 2527
469 46 5
470 46 3433
471 46 2061
472 46 2896
473 46 2767
475 46 3727
476 46 3677
477 46 2874
478 46 4352
479 46 5
480 46 3066
481 46 2726
482 46 5
483 46 191
484 46 855
485 46 4449
486 46 2939
487 46 5138
488 46 2760
489 46 4002
490 46 3448
491 46 2572
492 46 3695
493 46 1424
495 46 1597
496 46 2790
497 46 1829
498 46 2044
499 46 5632
500 46 7
1 47 10
2 47 6
3 47 6
4 47 5
6 47 6
8 47 3
9 47 9
12 47 17
13 47 6
15 47 5
17 47 18
19 47 5
20 47 5
21 47 4
23 47 4
24 47 8
25 47 6
27 47 49
28 47 7
29 47 4
32 47 11
33 47 7
35 47 12
37 47 1
40 47 5
41 47 3248
43 47 4
45 47 3414
47 47 2
49 47 12
52 47 12
53 47 4
54 47 4
55 47 21
58 47 5
61 47 2
62 47 4
63 47 2569
64 47 1
65 47 2
67 47 2614
68 47 3
70 47 3
72 47 9
74 47 3
78 47 27
79 47 2
80 47 2
81 47 6
82 47 3
83 47 7
84 47 5
85 47 14
87 47 8
88 47 18
89 47 15
90 47 5
91 47 9
92 47 4
94 47 4403
95 47 12
96 47 1
97 47 4
98 47 2
99 47 6
101 47 3187
102 47 10
103 47 5
104 47 2
108 47 5
109 47 16
110 47 5
112 47 2
113 47 6
116 47 8
118 47 4041
119 47 6
120 47 28
121 47 4069
124 47 10
126 47 10
127 47 10
128 47 4
129 47 10
131 47 5
133 47 2
137 47 2
139 47 4
141 47 12
143 47 2422
145 47 2497
146 47 4
147 47 6168
148 47 6
150 47 10
155 47 2813
157 47 2
158 47 3262
159 47 7
160 47 6
163 47 4
165 47 23
167 47 2
171 47 12
172 47 6
173 47 5110
175 47 10
177 47 7
178 47 29
179 47 2
180 47 6
181 47 17
183 47 3
184 47 7
185 47 3
186 47 3
187 47 1
188 47 13
189 47 3202
190 47 17
193 47 4
195 47 2744
196 47 13
197 47 8
198 47 5
199 47 2
200 47 4
201 47 18
202 47 4
203 47 3844
204 47 4
205 47 5
208 47 3
210 47 5
211 47 14
213 47 11
214 47 3
216 47 6
217 47 8
218 47 4
220 47 7
222 47 10
223 47 14
227 47 6
229 47 2882
230 47 2
231 47 12
232 47 44
233 47 2
234 47 3
237 47 3
239 47 6
240 47 1705
243 47 4
246 47 2789
247 47 6
250 47 5
251 47 5
252 47 5
254 47 11
255 47 4581
256 47 1
257 47 17
258 47 11
259 47 5
261 47 3025
264 47 7
266 47 4
268 47 1
269 47 10
270 47 26
271 47 4
276 47 7
278 47 1
280 47 1565
281 47 1
282 47 9
284 47 5
285 47 2
287 47 8
290 47 2
292 47 5
293 47 7
294 47 3
295 47 5
296 47 2
299 47 4
300 47 281
301 47 12
302 47 1847
303 47 14
304 47 14
305 47 4054
306 47 2
309 47 4
312 47 4
313 47 17
314 47 4
316 47 4
317 47 3280
318 47 32
320 47 3
322 47 5
324 47 3
325 47 11
326 47 9
330 47 5
331 47 5
334 47 12
335 47 3
336 47 7
337 47 6
338 47 9
339 47 3
340 47 24
341 47 1
343 47 2
348 47 4
349 47 5
351 47 8
354 47 4
355 47 19
356 47 3
357 47 23
358 47 4
359 47 11
360 47 3
361 47 3
362 47 12
363 47 1
364 47 1870
366 47 5
367 47 267
369 47 7
370 47 2
371 47 4
372 47 8
373 47 7
375 47 11
376 47 4
377 47 5
378 47 4
379 47 5
381 47 4
382 47 5
383 47 5
388 47 6
389 47 5
390 47 9
391 47 3
392 47 3
393 47 1
395 47 4
396 47 19
398 47 2
401 47 29
402 47 11
406 47 5
407 47 12
409 47 7
410 47 10
412 47 1
413 47 8
414 47 3955
415 47 11
416 47 2
417 47 1349
418 47 12
420 47 3156
423 47 6
424 47 4
425 47 5
426 47 4
428 47 9
429 47 7
431 47 4494
433 47 7
434 47 8
435 47 4
436 47 10
437 47 2
438 47 8
440 47 3
443 47 9
444 47 2
445 47 12
451 47 202
454 47 6
455 47 6
456 47 9
457 47 3
461 47 4
462 47 4
463 47 8
464 47 2298
465 47 9
466 47 2
467 47 10
468 47 4
469 47 4007
471 47 30
473 47 7
474 47 1796
479 47 2794
480 47 4
482 47 1835
484 47 17
486 47 7
487 47 2
488 47 9
489 47 3
493 47 3
494 47 2213
495 47 11
496 47 10
498 47 14
499 47 27
500 47 2601
19 48 3855
24 48 1699
30 48 1067
31 48 2044
53 48 1753
59 48 1069
72 48 667
75 48 1027
79 48 3005
86 48 1537
96 48 4088
100 48 1990
106 48 1037
131 48 1936
146 48 3757
156 48 3559
159 48 730
161 48 1486
175 48 728
179 48 1891
185 48 40
205 48 3246
222 48 720
239 48 3996
253 48 1068
259 48 35
260 48 2667
263 48 6582
274 48 1550
293 48 4193
309 48 108
316 48 4040
319 48 3667
323 48 1996
345 48 1537
352 48 2668
354 48 42
357 48 3094
361 48 38
373 48 4161
374 48 1039
377 48 4215
381 48 32
390 48 4161
394 48 1946
423 48 4290
426 48 4321
444 48 4316
450 48 2710
454 48 5698
465 48 4175
466 48 4314
472 48 1597
473 48 749
477 48 1500
488 48 706
496 48 740
19 49 5491
24 49 6163
30 49 27
31 49 4106
53 49 3076
59 49 42
72 49 296
75 49 35
79 49 15914
86 49 676
96 49 6176
100 49 4021
106 49 32
131 49 5309
146 49 5364
156 49 6755
159 49 314
161 49 609
175 49 348
179 49 5377
205 49 5065
222 49 299
239 49 4130
253 49 41
260 49 2027
263 49 8677
274 49 636
293 49 4122
309 49 7
316 49 5616
319 49 6730
323 49 4165
345 49 634
352 49 2089
357 49 7586
373 49 5782
374 49 26
377 49 5039
390 49 4191
394 49 4111
423 49 4117
426 49 6510
444 49 6640
450 49 1960
454 49 11872
465 49 5097
466 49 5116
472 49 630
473 49 315
477 49 631
488 49 346
496 49 324
19 50 1755
24 50 2656
31 50 437
53 50 870
79 50 3875
86 50 4
96 50 4383
100 50 455
131 50 4516
146 50 1764
156 50 2062
161 50 4
179 50 4662
205 50 2567
239 50 2323
260 50 92
263 50 874
274 50 3
293 50 2408
316 50 3484
319 50 2099
323 50 476
345 50 4
352 50 79
357 50 1658
373 50 3442
377 50 2453
390 50 2404
394 50 487
423 50 2392
426 50 4542
444 50 4607
450 50 99
454 50 2778
465 50 2482
466 50 2498
472 50 3
19 51 2142
24 51 903
31 51 163
53 51 22
79 51 2643
96 51 2789
100 51 165
131 51 2291
146 51 2128
156 51 1782
179 51 2261
205 51 751
239 51 625
263 51 1554
293 51 678
316 51 2604
319 51 1744
323 51 155
357 51 1551
373 51 2589
377 51 3306
390 51 659
394 51 184
423 51 702
426 51 2803
444 51 2805
454 51 2598
465 51 3346
466 51 3440
1 52 32
2 52 85
3 52 111
5 52 40
6 52 121
7 52 144
8 52 91
9 52 139
10 52 54
11 52 13
12 52 137
14 52 72
15 52 91
16 52 30
17 52 37
18 52 40
19 52 63
21 52 96
22 52 10
23 52 763
24 52 88
26 52 155
27 52 95
28 52 52
29 52 120
30 52 21
31 52 58
33 52 42
34 52 4
36 52 30
37 52 11
38 52 69
39 52 51
40 52 65
41 52 80
42 52 93
43 52 37
44 52 45
45 52 113
46 52 73
47 52 74
48 52 38
49 52 3
51 52 50
52 52 41
53 52 144
54 52 69
55 52 130
56 52 37
57 52 52
58 52 32
59 52 18
60 52 81
63 52 40
65 52 32
66 52 86
67 52 254
68 52 117
69 52 38
70 52 19
73 52 55
74 52 18
75 52 20
76 52 27
77 52 57
78 52 197
79 52 34
81 52 25
83 52 133
84 52 92
85 52 77
86 52 68
87 52 98
88 52 267
89 52 52
90 52 15
93 52 62
94 52 117
95 52 82
96 52 346
97 52 58
98 52 24
99 52 84
100 52 65
101 52 110
102 52 116
104 52 37
105 52 56
106 52 16
108 52 150
110 52 15
111 52 75
114 52 78
115 52 209
116 52 138
117 52 81
118 52 31
121 52 120
122 52 100
124 52 19
125 52 129
126 52 76
127 52 241
128 52 36
129 52 64
130 52 68
131 52 95
132 52 18
133 52 39
134 52 65
136 52 100
137 52 51
138 52 23
139 52 103
140 52 37
141 52 13
142 52 94
143 52 38
144 52 120
145 52 13
146 52 69
147 52 68
148 52 18
149 52 38
150 52 82
151 52 49
152 52 89
153 52 84
154 52 54
155 52 190
156 52 139
158 52 85
159 52 3
160 52 171
161 52 67
162 52 188
163 52 106
164 52 23
165 52 69
166 52 154
168 52 40
169 52 25
170 52 63
171 52 60
173 52 3
174 52 67
175 52 4
176 52 23
177 52 142
178 52 5
179 52 95
181 52 34
182 52 33
185 52 9
186 52 74
187 52 22
188 52 40
189 52 97
190 52 75
191 52 27
193 52 37
194 52 120
195 52 118
196 52 21
197 52 253
199 52 183
200 52 214
202 52 68
203 52 75
204 52 53
205 52 138
206 52 25
207 52 31
208 52 47
209 52 62
210 52 40
211 52 6
212 52 12
213 52 78
214 52 121
215 52 87
216 52 37
217 52 67
218 52 17
220 52 125
222 52 2
224 52 28
225 52 38
226 52 36
227 52 44
229 52 102
231 52 156
232 52 167
233 52 68
234 52 50
235 52 69
237 52 7
238 52 110
239 52 75
240 52 38
241 52 22
242 52 45
243 52 101
245 52 39
246 52 100
247 52 14
248 52 11
251 52 121
252 52 64
253 52 37
254 52 38
255 52 151
256 52 38
257 52 47
258 52 144
259 52 6
260 52 88
261 52 112
263 52 31
264 52 34
265 52 47
267 52 127
268 52 109
269 52 14
270 52 78
271 52 56
272 52 62
273 52 136
274 52 75
275 52 119
276 52 72
278 52 167
279 52 68
280 52 106
281 52 178
284 52 134
285 52 40
287 52 44
288 52 59
289 52 168
290 52 390
291 52 99
292 52 17
293 52 60
294 52 49
295 52 30
296 52 26
297 52 44
298 52 81
299 52 82
300 52 19
301 52 85
302 52 24
303 52 57
304 52 59
305 52 103
307 52 152
308 52 36
309 52 42
310 52 103
311 52 40
312 52 78
313 52 30
314 52 122
316 52 61
317 52 110
318 52 177
319 52 136
320 52 46
321 52 43
322 52 12
323 52 66
324 52 149
325 52 58
326 52 54
327 52 127
328 52 94
330 52 32
331 52 65
332 52 32
334 52 211
336 52 49
337 52 82
338 52 154
339 52 10
340 52 42
342 52 85
343 52 75
344 52 79
345 52 71
346 52 33
347 52 22
348 52 104
349 52 28
350 52 42
351 52 62
352 52 99
354 52 3
355 52 112
356 52 54
357 52 231
358 52 42
359 52 51
360 52 41
361 52 4
362 52 285
364 52 79
365 52 12
366 52 35
367 52 67
368 52 69
369 52 119
370 52 20
371 52 41
372 52 44
373 52 52
374 52 11
375 52 200
377 52 119
378 52 38
379 52 39
380 52 28
381 52 3
382 52 62
383 52 12
384 52 5
385 52 15
386 52 73
388 52 72
389 52 53
390 52 77
391 52 103
392 52 64
393 52 123
394 52 57
395 52 102
396 52 1
397 52 54
398 52 60
399 52 125
400 52 10
401 52 75
402 52 63
403 52 25
405 52 52
411 52 110
412 52 130
413 52 210
414 52 71
415 52 64
416 52 39
417 52 78
418 52 65
419 52 23
420 52 65
423 52 84
425 52 24
426 52 341
427 52 77
428 52 118
429 52 148
430 52 70
431 52 27
432 52 22
434 52 53
435 52 44
436 52 69
437 52 101
439 52 86
440 52 35
441 52 89
442 52 121
443 52 348
444 52 350
446 52 133
448 52 14
449 52 181
450 52 101
451 52 18
452 52 27
453 52 79
454 52 62
455 52 50
456 52 81
457 52 33
459 52 134
460 52 65
462 52 138
463 52 94
464 52 48
465 52 146
466 52 155
467 52 170
469 52 8
471 52 34
472 52 70
473 52 4
474 52 19
475 52 96
476 52 44
477 52 52
478 52 105
479 52 70
480 52 516
481 52 51
482 52 20
483 52 133
485 52 122
486 52 112
487 52 13
488 52 3
489 52 87
490 52 23
491 52 46
492 52 42
494 52 3
496 52 4
498 52 56
499 52 358
500 52 100
1 53 1798
2 53 3249
3 53 6898
5 53 3020
6 53 3274
7 53 1790
8 53 5022
9 53 2258
10 53 2090
11 53 2284
12 53 2200
14 53 2732
15 53 2882
16 53 2565
17 53 1730
18 53 2822
19 53 6462
21 53 5671
22 53 1357
23 53 12616
24 53 5044
26 53 1663
27 53 5527
28 53 3066
29 53 2038
30 53 2253
31 53 1206
33 53 1933
34 53 2080
36 53 3200
37 53 2334
38 53 2093
39 53 2015
40 53 3828
41 53 2709
42 53 6280
43 53 3301
44 53 3313
45 53 3578
46 53 6072
47 53 4624
48 53 2096
49 53 2881
51 53 5289
52 53 2545
53 53 1834
54 53 898
55 53 3069
56 53 2548
57 53 2095
58 53 1474
59 53 2196
60 53 2811
61 53 3501
63 53 2841
65 53 3915
66 53 1243
67 53 2079
68 53 3046
69 53 3535
70 53 2348
72 53 1113
73 53 7116
74 53 1929
75 53 2237
76 53 2120
77 53 4255
78 53 6453
79 53 5603
81 53 2065
83 53 6408
84 53 2600
85 53 2270
86 53 2726
87 53 3210
88 53 4055
89 53 2055
90 53 3019
93 53 3242
94 53 4236
95 53 3392
96 53 6563
97 53 3215
98 53 3843
99 53 3119
100 53 1288
101 53 4111
102 53 4492
104 53 2918
105 53 4119
106 53 2201
108 53 2329
110 53 2209
111 53 3289
114 53 2117
115 53 2849
116 53 2368
117 53 3350
118 53 3028
121 53 3579
122 53 3469
124 53 2800
125 53 2358
126 53 2828
127 53 3303
128 53 4241
129 53 4587
130 53 3296
131 53 4182
132 53 2972
133 53 2540
134 53 4168
136 53 3858
137 53 3496
138 53 804
139 53 919
140 53 2456
141 53 2202
142 53 2214
143 53 2270
144 53 3390
145 53 743
146 53 6476
147 53 2540
148 53 1937
149 53 3044
150 53 4200
151 53 1475
152 53 2654
153 53 3703
154 53 2459
155 53 4313
156 53 6806
158 53 2832
159 53 1070
160 53 3832
161 53 2760
162 53 3737
163 53 5892
164 53 1624
165 53 4095
166 53 2504
168 53 623
169 53 2560
170 53 4049
171 53 877
173 53 3481
174 53 4430
175 53 1094
176 53 537
177 53 2975
178 53 50
179 53 4137
181 53 2027
182 53 3319
185 53 2347
186 53 2044
187 53 2061
188 53 3592
189 53 2683
190 53 2326
191 53 3044
193 53 3502
194 53 7133
195 53 4318
196 53 1468
197 53 5088
199 53 4064
200 53 2340
201 53 11
202 53 4905
203 53 4793
204 53 3697
205 53 3975
206 53 1898
207 53 2138
208 53 3426
209 53 3303
210 53 4758
211 53 1791
212 53 1514
213 53 3345
214 53 2237
215 53 2165
216 53 4454
217 53 1818
218 53 2246
219 53 13
220 53 6318
222 53 1115
224 53 3404
225 53 2798
226 53 2622
227 53 3074
229 53 3037
231 53 2230
232 53 4440
233 53 1537
234 53 3183
235 53 2073
237 53 1507
238 53 8870
239 53 1201
240 53 4722
241 53 1378
242 53 4419
243 53 4379
245 53 4194
246 53 3724
247 53 1889
248 53 1181
249 53 13
251 53 5672
252 53 2698
253 53 2193
254 53 3634
255 53 3876
256 53 3211
257 53 2858
258 53 4612
259 53 2371
260 53 3915
261 53 5201
263 53 2717
264 53 2835
265 53 2527
267 53 2416
268 53 2742
269 53 2205
270 53 2407
271 53 2029
272 53 2196
273 53 4978
274 53 2776
275 53 1761
276 53 2999
278 53 3329
279 53 3345
280 53 2824
281 53 4718
284 53 4431
285 53 3131
286 53 16
287 53 2552
288 53 3571
289 53 1716
290 53 3685
291 53 3021
292 53 4607
293 53 1244
294 53 2072
295 53 2153
296 53 2414
297 53 2448
298 53 3989
299 53 2553
300 53 2722
301 53 2382
302 53 1940
303 53 4828
304 53 2372
305 53 5526
307 53 3537
308 53 2886
309 53 1270
310 53 2434
311 53 4327
312 53 4618
313 53 2416
314 53 10640
316 53 465
317 53 2937
318 53 6166
319 53 7023
320 53 3968
321 53 2496
322 53 160
323 53 1314
324 53 3130
325 53 3816
326 53 2929
327 53 3947
328 53 3900
330 53 1886
331 53 2017
332 53 3421
334 53 3462
336 53 3167
337 53 5132
338 53 4723
339 53 1065
340 53 2451
342 53 3778
343 53 1909
344 53 3440
345 53 2592
346 53 1639
347 53 3952
348 53 3293
349 53 2985
350 53 2736
351 53 863
352 53 3925
354 53 2364
355 53 2565
356 53 3887
357 53 2996
358 53 2785
359 53 2186
360 53 2323
361 53 2300
362 53 2788
363 53 1
364 53 3164
365 53 843
366 53 1442
367 53 3700
368 53 2158
369 53 3364
370 53 2139
371 53 1676
372 53 2319
373 53 472
374 53 2248
375 53 4682
377 53 7086
378 53 2787
379 53 2725
380 53 3975
381 53 2501
382 53 5029
383 53 71
384 53 2530
385 53 2949
386 53 2161
388 53 2149
389 53 946
390 53 1232
391 53 5213
392 53 1921
393 53 2417
394 53 1317
395 53 6775
396 53 1188
397 53 5582
398 53 2233
399 53 3180
400 53 4238
401 53 2895
402 53 2225
403 53 2844
404 53 1614
405 53 6315
411 53 3886
412 53 6316
413 53 4458
414 53 1934
415 53 2558
416 53 4568
417 53 4989
418 53 1783
419 53 2921
420 53 4862
423 53 1193
425 53 4327
426 53 6804
427 53 4106
428 53 3433
429 53 10521
430 53 3137
431 53 2948
432 53 3959
433 53 3465
434 53 2150
435 53 3615
436 53 2173
437 53 2742
439 53 2043
440 53 2045
441 53 2211
442 53 5822
443 53 7721
444 53 6864
446 53 1814
448 53 1419
449 53 3910
450 53 3795
451 53 2637
452 53 4820
453 53 1894
454 53 3864
455 53 2163
456 53 4867
457 53 3042
459 53 1761
460 53 3372
462 53 4352
463 53 4982
464 53 3237
465 53 7159
466 53 7293
467 53 4656
469 53 2192
471 53 1441
472 53 2741
473 53 1183
474 53 3179
475 53 1217
476 53 2267
477 53 2826
478 53 6984
479 53 3244
480 53 4225
481 53 1913
482 53 2005
483 53 3314
485 53 7326
486 53 3908
487 53 1974
488 53 1122
489 53 2461
490 53 628
491 53 1495
492 53 5105
494 53 2603
496 53 1085
498 53 5330
499 53 7758
500 53 3534
1 54 738
2 54 309
3 54 894
4 54 2105
5 54 1253
6 54 1142
7 54 783
8 54 148
9 54 977
10 54 1499
11 54 521
12 54 1448
13 54 2488
14 54 635
15 54 1358
16 54 1052
17 54 1344
18 54 563
19 54 560
20 54 1433
21 54 1682
22 54 1670
23 54 60
24 54 776
25 54 1758
26 54 768
27 54 1310
28 54 2144
29 54 271
30 54 1731
31 54 633
32 54 2202
33 54 1576
34 54 3406
35 54 2573
36 54 1310
37 54 1477
38 54 1783
39 54 1380
40 54 1192
41 54 2388
42 54 581
43 54 792
44 54 1299
45 54 353
46 54 1541
47 54 969
48 54 1452
49 54 1556
50 54 3536
51 54 662
52 54 1765
53 54 786
54 54 610
55 54 695
56 54 322
57 54 1138
58 54 825
59 54 1705
60 54 1795
61 54 2658
62 54 1649
63 54 1029
64 54 3343
65 54 896
66 54 584
67 54 683
68 54 584
69 54 414
70 54 1879
71 54 3721
72 54 2080
73 54 784
74 54 1624
75 54 1775
76 54 1628
77 54 1081
78 54 830
79 54 2027
80 54 826
81 54 1486
82 54 4357
83 54 1712
84 54 1031
85 54 2116
86 54 2383
87 54 774
88 54 674
89 54 1215
90 54 1551
91 54 2288
92 54 3268
93 54 1082
94 54 438
95 54 891
96 54 384
97 54 1582
98 54 882
99 54 411
100 54 643
101 54 1983
102 54 1257
103 54 2449
104 54 987
105 54 244
106 54 1775
107 54 4001
108 54 1361
109 54 1738
110 54 1529
111 54 381
112 54 1670
113 54 2039
114 54 1970
115 54 220
116 54 1632
117 54 1073
118 54 191
119 54 2539
120 54 1095
121 54 997
122 54 1605
123 54 2124
124 54 1509
125 54 1228
126 54 939
127 54 152
128 54 2110
129 54 537
130 54 362
131 54 551
132 54 734
133 54 1275
134 54 1630
135 54 1814
136 54 571
137 54 1206
138 54 674
139 54 2174
140 54 889
141 54 799
142 54 658
143 54 1460
144 54 964
145 54 3122
146 54 557
147 54 1103
148 54 1687
149 54 1333
150 54 1159
151 54 930
152 54 2019
153 54 347
154 54 698
155 54 974
156 54 519
157 54 2752
158 54 1417
159 54 2145
160 54 776
161 54 2389
162 54 881
163 54 212
164 54 799
165 54 3626
166 54 377
167 54 1207
168 54 678
169 54 1136
170 54 1620
171 54 660
172 54 2776
173 54 3161
174 54 1007
175 54 2072
176 54 1302
177 54 1502
178 54 1955
179 54 564
180 54 2945
181 54 2142
182 54 1191
183 54 1617
184 54 1399
185 54 1086
186 54 1850
187 54 1426
188 54 805
189 54 3092
190 54 379
191 54 2376
192 54 1625
193 54 1200
194 54 274
195 54 747
196 54 1796
197 54 124
198 54 3154
199 54 792
200 54 429
201 54 2408
202 54 652
203 54 772
204 54 660
205 54 406
206 54 824
207 54 382
208 54 1205
209 54 365
210 54 418
211 54 2428
212 54 329
213 54 2157
214 54 1057
215 54 644
216 54 1057
217 54 1009
218 54 758
219 54 3693
220 54 1656
221 54 1830
222 54 2095
223 54 2295
224 54 2158
225 54 526
226 54 2186
227 54 647
228 54 1813
229 54 1218
230 54 2640
231 54 1377
232 54 1500
233 54 320
234 54 1540
235 54 1782
236 54 1735
237 54 1070
238 54 73
239 54 1441
240 54 1048
241 54 1381
242 54 499
243 54 413
244 54 1555
245 54 1112
246 54 1583
247 54 2466
248 54 949
249 54 3786
250 54 1559
251 54 1682
252 54 692
253 54 1767
254 54 1593
255 54 1527
256 54 853
257 54 1675
258 54 1250
259 54 1019
260 54 1875
261 54 131
262 54 3739
263 54 1382
264 54 1698
265 54 2146
266 54 2779
267 54 455
268 54 814
269 54 826
270 54 947
271 54 483
272 54 571
273 54 700
274 54 2346
275 54 797
276 54 466
277 54 2010
278 54 1734
279 54 355
280 54 176
281 54 191
282 54 1572
283 54 1154
284 54 335
285 54 1631
286 54 856
287 54 1841
288 54 855
289 54 728
290 54 196
291 54 536
292 54 246
293 54 1422
294 54 1274
295 54 1776
296 54 1537
297 54 767
298 54 2035
299 54 525
300 54 1294
301 54 866
302 54 1265
303 54 1464
304 54 983
305 54 1928
306 54 1252
307 54 891
308 54 652
309 54 1887
310 54 688
311 54 513
312 54 1013
313 54 1565
314 54 645
315 54 1845
316 54 3032
317 54 2315
318 54 857
319 54 530
320 54 615
321 54 760
322 54 2164
323 54 660
324 54 611
325 54 872
326 54 2032
327 54 388
328 54 563
329 54 2881
330 54 942
331 54 968
332 54 2156
333 54 1918
334 54 573
335 54 1004
336 54 704
337 54 1016
338 54 822
339 54 1747
340 54 1131
341 54 2130
342 54 550
343 54 239
344 54 389
345 54 2388
346 54 1517
347 54 465
348 54 307
349 54 2364
350 54 523
351 54 641
352 54 1853
353 54 2484
354 54 1045
355 54 998
356 54 1238
357 54 732
358 54 156
359 54 1315
360 54 1526
361 54 1016
362 54 532
363 54 1905
364 54 2045
365 54 609
366 54 670
367 54 1013
368 54 1484
369 54 132
370 54 884
371 54 1840
372 54 1515
373 54 3052
374 54 1735
375 54 981
376 54 3377
377 54 791
378 54 2803
379 54 963
380 54 353
381 54 1015
382 54 1760
383 54 2765
384 54 985
385 54 279
386 54 1501
387 54 1338
388 54 2728
389 54 1452
390 54 1513
391 54 1489
392 54 868
393 54 1610
394 54 643
395 54 883
396 54 1582
397 54 1210
398 54 1207
399 54 567
400 54 1475
401 54 1043
402 54 1262
403 54 2533
404 54 1532
405 54 1745
406 54 2111
407 54 3100
408 54 1723
409 54 2429
410 54 1866
411 54 553
412 54 1740
413 54 285
414 54 1142
415 54 1191
416 54 374
417 54 218
418 54 649
419 54 105
420 54 1695
421 54 1451
422 54 1817
423 54 1499
424 54 2086
425 54 759
426 54 361
427 54 2053
428 54 148
429 54 659
430 54 1095
431 54 1543
432 54 439
433 54 2652
434 54 1434
435 54 1070
436 54 1302
437 54 808
438 54 1833
439 54 2091
440 54 1792
441 54 660
442 54 196
443 54 105
444 54 383
445 54 1435
446 54 791
447 54 2278
448 54 1382
449 54 1519
450 54 1888
451 54 1251
452 54 677
453 54 2288
454 54 2216
455 54 1532
456 54 1178
457 54 1602
458 54 1492
459 54 783
460 54 366
461 54 1825
462 54 321
463 54 154
464 54 729
465 54 764
466 54 797
467 54 806
468 54 1994
469 54 2861
470 54 1096
471 54 1775
472 54 2320
473 54 2142
474 54 1406
475 54 629
476 54 849
477 54 2399
478 54 267
479 54 2044
480 54 228
481 54 684
482 54 1259
483 54 935
484 54 3988
485 54 286
486 54 706
487 54 1709
488 54 2068
489 54 1177
490 54 1050
491 54 834
492 54 1158
493 54 919
494 54 1883
495 54 2550
496 54 2112
497 54 1956
498 54 1678
499 54 216
500 54 1839
1 55 40
2 55 40
3 55 83
5 55 32
6 55 60
7 55 14
8 55 38
10 55 4
11 55 41
12 55 49
14 55 33
15 55 9
16 55 16
17 55 9
18 55 50
19 55 114
21 55 81
22 55 9
23 55 1624
24 55 26
26 55 28
27 55 56
29 55 320
30 55 24
31 55 59
33 55 19
36 55 5
37 55 8
38 55 42
39 55 21
40 55 55
41 55 42
42 55 33
43 55 15
44 55 31
45 55 99
46 55 135
47 55 26
48 55 10
51 55 72
52 55 3
53 55 27
55 55 42
56 55 47
57 55 5
58 55 33
59 55 22
60 55 19
61 55 17
63 55 13
65 55 15
66 55 20
67 55 75
68 55 61
69 55 93
70 55 4
73 55 75
74 55 20
75 55 21
76 55 25
77 55 19
78 55 44
79 55 140
81 55 9
83 55 44
84 55 3
85 55 84
86 55 2
87 55 51
88 55 65
89 55 73
90 55 42
93 55 11
94 55 28
95 55 3
96 55 116
97 55 30
98 55 7
99 55 11
100 55 54
101 55 96
102 55 6
104 55 6
105 55 36
106 55 13
108 55 23
110 55 19
111 55 44
114 55 6
115 55 877
116 55 12
117 55 36
118 55 42
121 55 77
122 55 12
125 55 155
126 55 7
127 55 155
128 55 14
129 55 41
130 55 40
131 55 11
132 55 38
133 55 43
134 55 66
136 55 80
137 55 25
138 55 7
139 55 7
140 55 11
141 55 35
142 55 17
143 55 6
144 55 44
146 55 113
147 55 26
148 55 22
150 55 23
151 55 3
152 55 40
153 55 131
154 55 28
155 55 73
156 55 44
158 55 47
160 55 120
161 55 5
162 55 35
163 55 149
164 55 25
165 55 8
166 55 61
168 55 6
169 55 16
170 55 62
173 55 29
177 55 2
178 55 8
179 55 7
182 55 33
185 55 46
186 55 14
187 55 13
188 55 185
189 55 8
190 55 52
191 55 8
193 55 24
194 55 53
195 55 33
196 55 7
197 55 522
199 55 68
200 55 58
202 55 33
203 55 12
204 55 93
205 55 104
206 55 12
207 55 7
208 55 31
209 55 35
210 55 9
211 55 23
212 55 43
213 55 24
214 55 110
215 55 17
216 55 34
217 55 25
218 55 40
220 55 50
224 55 45
225 55 56
226 55 46
227 55 46
229 55 15
231 55 32
232 55 10
233 55 8
234 55 58
235 55 37
238 55 777
239 55 9
240 55 21
241 55 7
242 55 83
243 55 119
245 55 9
246 55 36
247 55 2
248 55 12
251 55 45
252 55 83
253 55 15
254 55 50
255 55 41
256 55 67
257 55 3
258 55 107
259 55 42
260 55 40
261 55 68
263 55 16
264 55 5
265 55 52
267 55 66
268 55 75
269 55 40
270 55 65
271 55 19
272 55 54
273 55 92
274 55 4
275 55 18
276 55 47
277 55 5
278 55 17
279 55 48
280 55 35
281 55 46
284 55 78
287 55 5
288 55 57
289 55 15
290 55 98
291 55 46
292 55 51
293 55 9
294 55 37
296 55 34
297 55 19
298 55 21
299 55 61
300 55 8
301 55 28
302 55 20
303 55 20
304 55 29
305 55 22
307 55 63
308 55 63
309 55 6
310 55 97
311 55 69
312 55 28
313 55 22
314 55 99
317 55 10
318 55 38
319 55 45
320 55 32
321 55 16
322 55 7
323 55 38
324 55 56
325 55 2
326 55 59
327 55 95
328 55 92
330 55 40
331 55 88
332 55 35
334 55 32
336 55 52
337 55 7
338 55 18
339 55 28
340 55 18
342 55 72
343 55 39
344 55 46
345 55 3
346 55 18
347 55 6
348 55 30
349 55 10
350 55 52
352 55 51
354 55 57
355 55 3
356 55 56
357 55 97
358 55 106
359 55 32
361 55 39
362 55 3
364 55 7
365 55 3
366 55 16
367 55 32
368 55 19
369 55 45
371 55 58
372 55 6
374 55 19
375 55 41
377 55 77
379 55 2
380 55 51
381 55 41
382 55 3
384 55 39
385 55 65
386 55 25
389 55 3
390 55 9
391 55 50
392 55 24
393 55 11
394 55 55
395 55 81
396 55 4
397 55 71
398 55 44
399 55 47
400 55 30
401 55 20
402 55 30
403 55 33
404 55 3
405 55 47
411 55 89
412 55 49
413 55 7
414 55 9
415 55 50
416 55 13
417 55 109
418 55 27
419 55 51
420 55 70
423 55 11
425 55 38
426 55 103
427 55 40
428 55 56
429 55 93
430 55 6
431 55 128
432 55 2
433 55 12
434 55 15
435 55 31
436 55 6
437 55 85
439 55 2
440 55 1
441 55 13
442 55 449
443 55 112
444 55 85
446 55 14
448 55 12
449 55 36
450 55 56
451 55 11
452 55 102
453 55 3
454 55 28
455 55 12
456 55 60
457 55 33
459 55 17
460 55 48
462 55 81
463 55 47
464 55 35
465 55 89
466 55 87
467 55 99
469 55 5
471 55 8
472 55 5
474 55 1
475 55 20
476 55 42
477 55 8
478 55 53
479 55 19
480 55 78
481 55 38
482 55 20
483 55 10
485 55 40
486 55 7
489 55 19
490 55 21
491 55 36
492 55 322
494 55 4
498 55 48
499 55 139
500 55 33
1 56 53
2 56 85
3 56 1155
5 56 237
6 56 845
7 56 814
8 56 888
9 56 209
10 56 64
11 56 226
12 56 1266
14 56 160
15 56 12
16 56 89
17 56 77
18 56 798
19 56 1553
21 56 135
22 56 24
23 56 1844
24 56 183
26 56 793
27 56 229
28 56 109
29 56 1252
30 56 56
31 56 151
33 56 70
34 56 54
36 56 112
37 56 46
38 56 269
39 56 158
40 56 402
41 56 37
42 56 1284
43 56 1118
44 56 227
45 56 2007
46 56 1784
47 56 125
48 56 136
49 56 44
51 56 896
52 56 86
53 56 798
54 56 30
55 56 411
56 56 234
57 56 82
58 56 149
59 56 59
60 56 61
61 56 34
63 56 54
65 56 617
66 56 63
67 56 1262
68 56 931
69 56 382
70 56 10
72 56 10
73 56 572
74 56 185
75 56 67
76 56 64
77 56 49
78 56 371
79 56 226
81 56 146
83 56 356
84 56 135
85 56 305
86 56 85
87 56 291
88 56 190
89 56 27
90 56 35
93 56 162
94 56 640
95 56 205
96 56 3080
97 56 92
98 56 683
99 56 259
100 56 169
101 56 270
102 56 212
104 56 69
105 56 97
106 56 46
108 56 96
110 56 45
111 56 55
114 56 440
115 56 1611
116 56 329
117 56 914
118 56 207
121 56 120
122 56 121
124 56 137
125 56 657
126 56 139
127 56 2405
128 56 96
129 56 979
130 56 48
131 56 219
132 56 838
133 56 43
134 56 816
136 56 1046
137 56 42
138 56 55
139 56 64
140 56 59
141 56 126
142 56 75
143 56 65
144 56 259
146 56 1640
147 56 257
148 56 159
149 56 463
150 56 135
151 56 349
152 56 92
153 56 281
154 56 276
155 56 644
156 56 1565
158 56 61
159 56 13
160 56 916
161 56 81
162 56 281
163 56 1164
164 56 143
165 56 217
166 56 431
168 56 208
169 56 97
170 56 769
171 56 22
173 56 66
174 56 141
175 56 7
176 56 92
177 56 32
179 56 204
181 56 45
182 56 357
185 56 77
186 56 7
187 56 148
188 56 474
189 56 55
190 56 788
193 56 39
194 56 845
195 56 144
196 56 34
197 56 1624
199 56 1251
200 56 1271
202 56 874
203 56 120
204 56 711
205 56 706
206 56 151
207 56 121
208 56 43
209 56 55
210 56 260
211 56 54
212 56 313
213 56 85
214 56 171
215 56 80
216 56 426
217 56 35
218 56 290
220 56 398
222 56 7
224 56 61
225 56 811
226 56 25
227 56 159
229 56 106
231 56 1326
232 56 337
233 56 109
234 56 134
235 56 289
237 56 41
238 56 1318
239 56 127
240 56 84
241 56 46
242 56 261
243 56 177
245 56 56
246 56 94
247 56 41
248 56 3
251 56 527
252 56 379
253 56 48
254 56 72
255 56 950
256 56 101
257 56 356
258 56 361
259 56 76
260 56 424
261 56 1230
263 56 73
264 56 343
265 56 20
267 56 502
268 56 407
269 56 130
270 56 59
271 56 349
272 56 114
273 56 1761
274 56 74
275 56 792
276 56 627
278 56 125
279 56 64
280 56 103
281 56 1297
284 56 779
285 56 90
287 56 95
288 56 417
289 56 762
290 56 1155
291 56 239
292 56 375
293 56 113
294 56 94
295 56 102
296 56 90
297 56 75
298 56 92
299 56 464
300 56 146
301 56 257
302 56 128
303 56 104
304 56 224
305 56 457
307 56 319
308 56 382
309 56 37
310 56 227
311 56 239
312 56 128
313 56 105
314 56 1280
316 56 44
317 56 260
318 56 392
319 56 1533
320 56 858
321 56 48
322 56 23
323 56 170
324 56 956
325 56 931
326 56 77
327 56 1611
328 56 1020
330 56 308
331 56 179
332 56 71
334 56 449
336 56 154
337 56 1187
338 56 94
339 56 57
340 56 1021
342 56 1051
343 56 1205
344 56 59
345 56 78
346 56 517
347 56 23
348 56 97
349 56 207
350 56 808
351 56 27
352 56 439
354 56 80
355 56 62
356 56 426
357 56 214
358 56 490
359 56 83
360 56 96
361 56 80
362 56 140
364 56 153
365 56 48
366 56 117
367 56 59
368 56 79
369 56 1155
370 56 69
371 56 156
372 56 84
373 56 29
374 56 66
375 56 790
377 56 609
378 56 49
379 56 70
380 56 904
381 56 86
382 56 423
383 56 2
384 56 64
385 56 674
386 56 127
388 56 25
389 56 12
390 56 135
391 56 1456
392 56 159
393 56 343
394 56 175
395 56 1111
396 56 11
397 56 1455
398 56 30
399 56 628
400 56 923
401 56 343
402 56 66
403 56 160
404 56 9
405 56 478
411 56 1016
412 56 401
413 56 1527
414 56 93
415 56 55
416 56 279
417 56 654
418 56 19
419 56 531
420 56 1566
423 56 123
425 56 201
426 56 3118
427 56 80
428 56 1192
429 56 1274
430 56 147
431 56 228
432 56 16
433 56 24
434 56 94
435 56 243
436 56 80
437 56 383
439 56 400
440 56 50
441 56 90
442 56 1523
443 56 1362
444 56 3131
446 56 781
448 56 49
449 56 200
450 56 388
451 56 147
452 56 1081
453 56 36
454 56 216
455 56 67
456 56 115
457 56 364
459 56 781
460 56 57
462 56 785
463 56 930
464 56 268
465 56 623
466 56 654
467 56 1272
469 56 5
471 56 51
472 56 87
473 56 8
474 56 327
475 56 54
476 56 237
477 56 98
478 56 888
479 56 33
480 56 718
481 56 322
482 56 129
483 56 874
485 56 832
486 56 444
487 56 120
488 56 17
489 56 458
490 56 8
491 56 127
492 56 581
494 56 117
496 56 7
498 56 293
499 56 1324
500 56 163
1 57 1853
2 57 562
3 57 542
4 57 1512
5 57 559
6 57 469
7 57 349
8 57 127
9 57 191
10 57 3758
11 57 95
12 57 670
13 57 1288
14 57 453
15 57 1979
16 57 1522
17 57 574
18 57 254
19 57 100
20 57 3108
21 57 827
22 57 2129
23 57 4
24 57 1197
25 57 1883
26 57 313
27 57 447
28 57 2292
29 57 133
30 57 1982
31 57 1079
32 57 1955
33 57 1246
34 57 2526
35 57 2253
36 57 827
37 57 1289
38 57 1916
39 57 659
40 57 1693
41 57 3504
42 57 70
43 57 277
44 57 1063
45 57 172
46 57 198
47 57 1308
48 57 1227
49 57 1859
50 57 1499
51 57 755
52 57 2185
53 57 477
54 57 1219
55 57 425
56 57 713
57 57 1662
58 57 1526
59 57 1909
60 57 2208
61 57 3273
62 57 1893
63 57 594
64 57 1495
65 57 600
66 57 1066
67 57 575
68 57 813
69 57 210
70 57 2267
71 57 1739
72 57 2484
73 57 333
74 57 756
75 57 1971
76 57 2408
77 57 1085
78 57 197
79 57 2123
80 57 1442
81 57 1385
82 57 1542
83 57 159
84 57 2107
85 57 1163
86 57 1782
87 57 2171
88 57 197
89 57 2049
90 57 1812
91 57 2671
92 57 1943
93 57 965
94 57 471
95 57 342
96 57 416
97 57 1895
98 57 655
99 57 679
100 57 1108
101 57 2719
102 57 1624
103 57 1105
104 57 225
105 57 68
106 57 1962
107 57 1179
108 57 677
109 57 2898
110 57 1547
111 57 886
112 57 1323
113 57 1246
114 57 1215
115 57 20
116 57 1265
117 57 264
118 57 1376
119 57 2148
120 57 1651
121 57 667
122 57 1720
123 57 1765
124 57 1993
125 57 414
126 57 280
127 57 135
128 57 1073
129 57 99
130 57 821
131 57 1877
132 57 1606
133 57 2374
134 57 560
135 57 861
136 57 259
137 57 2248
138 57 1171
139 57 1352
140 57 1329
141 57 1281
142 57 1193
143 57 946
144 57 103
145 57 2703
146 57 113
147 57 388
148 57 782
149 57 144
150 57 175
151 57 1208
152 57 345
153 57 411
154 57 631
155 57 572
156 57 44
157 57 2368
158 57 2409
159 57 2422
160 57 461
161 57 1807
162 57 241
163 57 53
164 57 1070
165 57 2965
166 57 264
167 57 1582
168 57 1304
169 57 1442
170 57 517
171 57 1228
172 57 1455
173 57 772
174 57 1140
175 57 2429
176 57 973
177 57 1393
178 57 1115
179 57 1889
180 57 1404
181 57 2533
182 57 880
183 57 2204
184 57 1059
185 57 904
186 57 2727
187 57 1408
188 57 1096
189 57 2987
190 57 1276
191 57 1303
192 57 1722
193 57 2320
194 57 161
195 57 1024
196 57 1619
197 57 54
198 57 1414
199 57 221
200 57 108
201 57 1421
202 57 336
203 57 1424
204 57 134
205 57 131
206 57 671
207 57 1313
208 57 2227
209 57 870
210 57 1393
211 57 2946
212 57 726
213 57 364
214 57 553
215 57 1216
216 57 326
217 57 1162
218 57 466
219 57 2515
220 57 160
221 57 862
222 57 2438
223 57 1972
224 57 2334
225 57 261
226 57 713
227 57 501
228 57 896
229 57 510
230 57 1430
231 57 623
232 57 807
233 57 469
234 57 839
235 57 1940
236 57 1701
237 57 2089
238 57 5
239 57 2613
240 57 1266
241 57 1712
242 57 577
243 57 170
244 57 2889
245 57 1033
246 57 1986
247 57 2514
248 57 1236
249 57 2600
250 57 2501
251 57 1306
252 57 725
253 57 1900
254 57 2219
255 57 994
256 57 1823
257 57 1623
258 57 189
259 57 916
260 57 449
261 57 146
262 57 1409
263 57 1415
264 57 1623
265 57 693
266 57 1461
267 57 245
268 57 989
269 57 1225
270 57 1575
271 57 960
272 57 1021
273 57 161
274 57 1896
275 57 291
276 57 97
277 57 1643
278 57 2176
279 57 921
280 57 662
281 57 283
282 57 1716
283 57 898
284 57 292
285 57 1579
286 57 2630
287 57 2221
288 57 332
289 57 316
290 57 227
291 57 466
292 57 373
293 57 2568
294 57 1500
295 57 3425
296 57 1017
297 57 2041
298 57 1232
299 57 411
300 57 995
301 57 830
302 57 836
303 57 1887
304 57 1572
305 57 315
306 57 1271
307 57 118
308 57 123
309 57 2120
310 57 674
311 57 595
312 57 1291
313 57 1086
314 57 119
315 57 881
316 57 3439
317 57 1966
318 57 222
319 57 47
320 57 107
321 57 2064
322 57 1253
323 57 1045
324 57 816
325 57 1045
326 57 1270
327 57 31
328 57 234
329 57 1581
330 57 1487
331 57 1014
332 57 2264
333 57 1608
334 57 334
335 57 2239
336 57 461
337 57 392
338 57 1150
339 57 1136
340 57 182
341 57 1068
342 57 240
343 57 57
344 57 882
345 57 1809
346 57 1084
347 57 841
348 57 617
349 57 1569
350 57 254
351 57 1178
352 57 464
353 57 1537
354 57 903
355 57 1094
356 57 1719
357 57 333
358 57 78
359 57 2754
360 57 1612
361 57 924
362 57 248
363 57 3138
364 57 1051
365 57 1181
366 57 1523
367 57 1808
368 57 1997
369 57 198
370 57 1242
371 57 2198
372 57 1567
373 57 3557
374 57 1970
375 57 274
376 57 949
377 57 263
378 57 1332
379 57 2504
380 57 146
381 57 947
382 57 220
383 57 1807
384 57 1242
385 57 209
386 57 1247
387 57 1638
388 57 2076
389 57 1923
390 57 2616
391 57 242
392 57 298
393 57 1211
394 57 1087
395 57 566
396 57 1404
397 57 1002
398 57 1584
399 57 672
400 57 225
401 57 2298
402 57 2798
403 57 1039
404 57 1592
405 57 1128
406 57 2244
407 57 1347
408 57 1500
409 57 1121
410 57 2392
411 57 270
412 57 152
413 57 37
414 57 1438
415 57 1095
416 57 1412
417 57 224
418 57 2353
419 57 216
420 57 499
421 57 1235
422 57 1271
423 57 2618
424 57 1092
425 57 97
426 57 391
427 57 717
428 57 206
429 57 122
430 57 958
431 57 1439
432 57 866
433 57 3281
434 57 1484
435 57 470
436 57 1486
437 57 1015
438 57 2187
439 57 1201
440 57 1679
441 57 1239
442 57 23
443 57 15
444 57 408
445 57 1640
446 57 311
447 57 1821
448 57 1656
449 57 466
450 57 458
451 57 975
452 57 128
453 57 3456
454 57 896
455 57 1364
456 57 304
457 57 703
458 57 1558
459 57 318
460 57 860
461 57 1628
462 57 290
463 57 125
464 57 723
465 57 296
466 57 297
467 57 323
468 57 2213
469 57 3822
470 57 1312
471 57 1474
472 57 1837
473 57 2398
474 57 667
475 57 1083
476 57 592
477 57 1790
478 57 212
479 57 1749
480 57 51
481 57 599
482 57 796
483 57 1084
484 57 2254
485 57 159
486 57 570
487 57 2468
488 57 2463
489 57 1405
490 57 2098
491 57 1498
492 57 149
493 57 1247
494 57 2045
495 57 1459
496 57 2357
497 57 1590
498 57 703
499 57 76
500 57 1528
1 58 1165
2 58 1521
3 58 813
4 58 1772
5 58 913
6 58 1060
7 58 942
8 58 1341
9 58 718
10 58 1774
11 58 793
12 58 1282
13 58 1726
14 58 1025
15 58 855
16 58 540
17 58 868
18 58 953
19 58 1462
20 58 1284
21 58 1307
22 58 1048
23 58 400
24 58 1019
25 58 1922
26 58 993
27 58 2894
28 58 3503
29 58 932
30 58 2135
31 58 1485
32 58 2031
33 58 675
34 58 2744
35 58 2009
36 58 608
37 58 1349
38 58 1821
39 58 1036
40 58 3284
41 58 4443
42 58 937
43 58 901
44 58 922
45 58 822
46 58 547
47 58 737
48 58 2535
49 58 1407
50 58 1716
51 58 1298
52 58 1935
53 58 341
54 58 1405
55 58 708
56 58 160
57 58 1820
58 58 429
59 58 2161
60 58 2174
61 58 1687
62 58 2498
63 58 838
64 58 2411
65 58 442
66 58 1168
67 58 642
68 58 1193
69 58 963
70 58 1260
71 58 1670
72 58 2616
73 58 667
74 58 1211
75 58 2140
76 58 1941
77 58 1182
78 58 329
79 58 1412
80 58 1019
81 58 2275
82 58 2459
83 58 1292
84 58 852
85 58 1315
86 58 2067
87 58 1761
88 58 1152
89 58 1579
90 58 1629
91 58 2517
92 58 1774
93 58 416
94 58 2269
95 58 1399
96 58 1198
97 58 954
98 58 419
99 58 1880
100 58 1575
101 58 1686
102 58 1952
103 58 2329
104 58 720
105 58 209
106 58 2146
107 58 1345
108 58 1014
109 58 1857
110 58 1254
111 58 1401
112 58 1238
113 58 2098
114 58 919
115 58 603
116 58 1398
117 58 614
118 58 3384
119 58 2205
120 58 1444
121 58 1459
122 58 1787
123 58 1445
124 58 2150
125 58 693
126 58 2056
127 58 1210
128 58 2117
129 58 590
130 58 1356
131 58 371
132 58 1725
133 58 1694
134 58 936
135 58 1584
136 58 785
137 58 472
138 58 804
139 58 1673
140 58 1002
141 58 979
142 58 1247
143 58 1230
144 58 1338
145 58 2082
146 58 1402
147 58 376
148 58 1365
149 58 527
150 58 300
151 58 531
152 58 1703
153 58 1059
154 58 485
155 58 745
156 58 533
157 58 1524
158 58 1296
159 58 2594
160 58 1467
161 58 2152
162 58 461
163 58 699
164 58 1456
165 58 2243
166 58 867
167 58 1235
168 58 583
169 58 571
170 58 925
171 58 1441
172 58 1876
173 58 666
174 58 2034
175 58 2552
176 58 2555
177 58 2264
178 58 1645
179 58 380
180 58 3180
181 58 1562
182 58 1538
183 58 1357
184 58 2048
185 58 1266
186 58 2853
187 58 2288
188 58 846
189 58 1744
190 58 1021
191 58 1890
192 58 2865
193 58 519
194 58 587
195 58 1226
196 58 1873
197 58 527
198 58 2229
199 58 733
200 58 563
201 58 1783
202 58 982
203 58 1400
204 58 448
205 58 1362
206 58 942
207 58 720
208 58 524
209 58 1360
210 58 1371
211 58 830
212 58 941
213 58 1004
214 58 1117
215 58 1327
216 58 835
217 58 1710
218 58 846
219 58 1965
220 58 1323
221 58 1713
222 58 2604
223 58 2118
224 58 2665
225 58 936
226 58 1126
227 58 606
228 58 1738
229 58 1258
230 58 2037
231 58 1312
232 58 1243
233 58 891
234 58 2311
235 58 1827
236 58 1227
237 58 1267
238 58 181
239 58 2349
240 58 1260
241 58 1365
242 58 1400
243 58 1035
244 58 2254
245 58 1190
246 58 2001
247 58 2022
248 58 1960
249 58 1942
250 58 1898
251 58 1568
252 58 1930
253 58 2190
254 58 948
255 58 2131
256 58 1961
257 58 2004
258 58 698
259 58 1286
260 58 1002
261 58 1691
262 58 1757
263 58 2460
264 58 2049
265 58 1152
266 58 1941
267 58 849
268 58 1801
269 58 944
270 58 1660
271 58 515
272 58 668
273 58 551
274 58 2152
275 58 975
276 58 303
277 58 2172
278 58 988
279 58 1388
280 58 1420
281 58 407
282 58 1591
283 58 2801
284 58 727
285 58 1782
286 58 1615
287 58 1918
288 58 1146
289 58 951
290 58 688
291 58 898
292 58 872
293 58 2382
294 58 1435
295 58 1014
296 58 1299
297 58 954
298 58 641
299 58 1583
300 58 1127
301 58 1435
302 58 3229
303 58 1155
304 58 1470
305 58 2082
306 58 1464
307 58 1332
308 58 1096
309 58 1620
310 58 1803
311 58 1450
312 58 744
313 58 1163
314 58 707
315 58 1769
316 58 1104
317 58 1257
318 58 281
319 58 526
320 58 1437
321 58 927
322 58 1728
323 58 1536
324 58 1159
325 58 666
326 58 1583
327 58 253
328 58 733
329 58 2999
330 58 882
331 58 1193
332 58 2518
333 58 2705
334 58 1031
335 58 1081
336 58 611
337 58 1155
338 58 2376
339 58 1191
340 58 1234
341 58 2273
342 58 775
343 58 527
344 58 1317
345 58 2115
346 58 1064
347 58 1360
348 58 1553
349 58 2002
350 58 945
351 58 1347
352 58 1002
353 58 3650
354 58 1361
355 58 2002
356 58 3291
357 58 914
358 58 417
359 58 1369
360 58 1763
361 58 1355
362 58 376
363 58 1638
364 58 685
365 58 761
366 58 2185
367 58 1470
368 58 626
369 58 716
370 58 938
371 58 1061
372 58 1737
373 58 1081
374 58 2139
375 58 969
376 58 1321
377 58 742
378 58 2043
379 58 969
380 58 851
381 58 1313
382 58 2512
383 58 1803
384 58 2276
385 58 290
386 58 1675
387 58 2805
388 58 994
389 58 710
390 58 2304
391 58 1026
392 58 1189
393 58 1409
394 58 1511
395 58 827
396 58 868
397 58 496
398 58 1965
399 58 1270
400 58 547
401 58 738
402 58 1270
403 58 868
404 58 1267
405 58 439
406 58 1476
407 58 2204
408 58 1131
409 58 2262
410 58 2193
411 58 718
412 58 1279
413 58 606
414 58 1332
415 58 2347
416 58 1304
417 58 272
418 58 1403
419 58 610
420 58 1296
421 58 1252
422 58 1634
423 58 2418
424 58 2115
425 58 887
426 58 1191
427 58 751
428 58 726
429 58 671
430 58 401
431 58 2053
432 58 1343
433 58 1649
434 58 1820
435 58 1512
436 58 1935
437 58 1826
438 58 1266
439 58 969
440 58 1996
441 58 1224
442 58 438
443 58 607
444 58 1257
445 58 1603
446 58 899
447 58 1461
448 58 1404
449 58 1569
450 58 1078
451 58 1168
452 58 682
453 58 1716
454 58 1659
455 58 1625
456 58 1340
457 58 1263
458 58 1471
459 58 1047
460 58 1361
461 58 1181
462 58 690
463 58 1386
464 58 2859
465 58 776
466 58 737
467 58 1031
468 58 2262
469 58 2366
470 58 3346
471 58 1429
472 58 2152
473 58 2569
474 58 638
475 58 1151
476 58 1769
477 58 2143
478 58 596
479 58 1554
480 58 253
481 58 1016
482 58 3282
483 58 1645
484 58 1720
485 58 586
486 58 1891
487 58 1631
488 58 2574
489 58 795
490 58 2023
491 58 446
492 58 234
493 58 2859
494 58 1910
495 58 1055
496 58 2576
497 58 2764
498 58 1017
499 58 466
500 58 793
1 59 1306
2 59 1351
3 59 1774
5 59 1395
6 59 2767
7 59 1598
8 59 2481
9 59 1944
10 59 429
11 59 2561
12 59 2423
14 59 1590
15 59 3476
16 59 1209
17 59 1825
18 59 1848
19 59 4013
21 59 3852
22 59 1052
23 59 2423
24 59 1700
26 59 1577
27 59 2068
28 59 1213
29 59 1077
30 59 1840
31 59 2331
32 59 15
33 59 2304
34 59 1511
35 59 3
36 59 1451
37 59 1210
38 59 2380
39 59 1881
40 59 2804
41 59 3239
42 59 2547
43 59 1676
44 59 931
45 59 2201
46 59 2958
47 59 1220
48 59 2512
49 59 1248
51 59 2577
52 59 1489
53 59 2349
54 59 1396
55 59 903
56 59 2044
57 59 1609
58 59 1119
59 59 1869
60 59 2133
61 59 2363
62 59 36
63 59 2676
65 59 1513
66 59 2692
67 59 2290
68 59 1774
69 59 2866
70 59 1459
72 59 999
73 59 1930
74 59 1467
75 59 1901
76 59 1359
77 59 633
78 59 1454
79 59 4471
81 59 1581
82 59 30
83 59 2876
84 59 1538
85 59 3486
86 59 1207
87 59 1915
88 59 2888
89 59 1925
90 59 1988
93 59 1513
94 59 2525
95 59 2238
96 59 4808
97 59 2287
98 59 1583
99 59 1707
100 59 2417
101 59 2549
102 59 2004
104 59 1528
105 59 2129
106 59 1858
108 59 1805
110 59 1543
111 59 2949
114 59 1537
115 59 1866
116 59 2302
117 59 1819
118 59 2667
121 59 1936
122 59 1631
124 59 3874
125 59 1966
126 59 1403
127 59 2569
128 59 1319
129 59 1141
130 59 2993
131 59 3123
132 59 2249
133 59 2396
134 59 2700
136 59 2182
137 59 1700
138 59 1409
139 59 1721
140 59 942
141 59 1507
142 59 2048
143 59 769
144 59 2242
145 59 2089
146 59 4098
147 59 2300
148 59 1511
149 59 3256
150 59 2025
151 59 1791
152 59 1478
153 59 1800
154 59 1254
155 59 2198
156 59 2335
158 59 2093
159 59 1030
160 59 2710
161 59 1211
162 59 1924
163 59 1906
164 59 2155
165 59 1991
166 59 2893
168 59 1067
169 59 1192
170 59 2624
171 59 1330
173 59 3721
174 59 1894
175 59 984
176 59 1787
177 59 2280
178 59 450
179 59 3266
181 59 1169
182 59 1480
185 59 1279
186 59 571
187 59 1591
188 59 1943
189 59 2072
190 59 2143
191 59 1917
193 59 1719
194 59 1288
195 59 2707
196 59 1001
197 59 1936
199 59 1639
200 59 609
201 59 60
202 59 1955
203 59 1399
204 59 1589
205 59 1733
206 59 2036
207 59 1561
208 59 1710
209 59 2961
210 59 1306
211 59 1575
212 59 2620
213 59 1774
214 59 1532
215 59 1920
216 59 2106
217 59 1178
218 59 1668
219 59 41
220 59 2883
222 59 991
223 59 11
224 59 2719
225 59 2047
226 59 2054
227 59 3374
229 59 868
231 59 2428
232 59 1794
233 59 1406
234 59 473
235 59 2400
237 59 1102
238 59 1760
239 59 1363
240 59 1981
241 59 653
242 59 2590
243 59 2457
245 59 660
246 59 4314
247 59 869
248 59 722
249 59 47
251 59 1801
252 59 2130
253 59 1837
254 59 1455
255 59 3704
256 59 2676
257 59 1817
258 59 2592
259 59 1328
260 59 2328
261 59 3237
263 59 2084
264 59 1828
265 59 2097
267 59 2843
268 59 1982
269 59 1553
270 59 1381
271 59 1794
272 59 740
273 59 1247
274 59 1236
275 59 1600
276 59 864
278 59 1594
279 59 2922
280 59 1153
281 59 1385
284 59 2201
285 59 3668
286 59 228
287 59 1468
288 59 1862
289 59 1569
290 59 1503
291 59 2531
292 59 940
293 59 1417
294 59 1726
295 59 807
296 59 1631
297 59 1717
298 59 1971
299 59 2609
300 59 1145
301 59 2464
302 59 2447
303 59 2721
304 59 2047
305 59 1996
307 59 2290
308 59 2424
309 59 2100
310 59 1440
311 59 2464
312 59 1171
313 59 2245
314 59 2169
316 59 736
317 59 994
318 59 1447
319 59 2259
320 59 1903
321 59 1661
322 59 434
323 59 2353
324 59 1802
325 59 2437
326 59 952
327 59 1946
328 59 2158
330 59 1157
331 59 2327
332 59 2735
334 59 2435
336 59 3299
337 59 2517
338 59 1959
339 59 1122
340 59 2123
342 59 2138
343 59 1186
344 59 2906
345 59 1223
346 59 2019
347 59 1533
348 59 1331
349 59 1945
350 59 2010
351 59 1269
352 59 2349
354 59 1337
355 59 1803
356 59 2765
357 59 3223
358 59 1034
359 59 1847
360 59 2064
361 59 1326
362 59 2229
363 59 49
364 59 1776
365 59 1364
366 59 2680
367 59 1528
368 59 982
369 59 2679
370 59 1212
371 59 2553
372 59 2101
373 59 721
374 59 1973
375 59 1911
377 59 1585
378 59 2459
379 59 2349
380 59 791
381 59 1263
382 59 1960
383 59 803
384 59 2930
385 59 1365
386 59 1807
388 59 1954
389 59 857
390 59 1383
391 59 941
392 59 1677
393 59 2262
394 59 2424
395 59 1807
396 59 1685
397 59 2724
398 59 3538
399 59 1931
400 59 2321
401 59 2908
402 59 1813
403 59 2801
404 59 1129
405 59 820
411 59 2014
412 59 2929
413 59 1288
414 59 3708
415 59 1840
416 59 1274
417 59 1866
418 59 1596
419 59 917
420 59 2771
422 59 4
423 59 1354
424 59 7
425 59 1259
426 59 5008
427 59 1429
428 59 2815
429 59 2239
430 59 1455
431 59 3249
432 59 1452
433 59 2309
434 59 1527
435 59 1195
436 59 1558
437 59 1918
439 59 1513
440 59 1788
441 59 1968
442 59 1796
443 59 2341
444 59 5140
446 59 1533
447 59 6
448 59 632
449 59 2239
450 59 2355
451 59 1227
452 59 3061
453 59 2138
454 59 1657
455 59 2006
456 59 1829
457 59 2205
459 59 1657
460 59 3101
462 59 2220
463 59 2594
464 59 1279
465 59 1629
466 59 1593
467 59 2985
469 59 2432
471 59 1970
472 59 1199
473 59 1047
474 59 1661
475 59 2799
476 59 1439
477 59 1251
478 59 1356
479 59 2311
480 59 1605
481 59 1534
482 59 2515
483 59 1923
485 59 1262
486 59 1688
487 59 1788
488 59 1077
489 59 1850
490 59 872
491 59 1105
492 59 1508
494 59 2396
496 59 1027
498 59 2667
499 59 1641
500 59 2243
1 60 28
2 60 107
3 60 829
5 60 127
6 60 313
7 60 215
8 60 689
9 60 111
10 60 15
11 60 1169
12 60 262
14 60 54
15 60 57
16 60 75
17 60 53
18 60 172
19 60 2078
21 60 111
22 60 4
23 60 1469
24 60 159
26 60 191
27 60 118
28 60 61
29 60 703
30 60 23
31 60 76
33 60 101
34 60 35
36 60 28
37 60 10
38 60 115
39 60 433
40 60 54
41 60 31
42 60 1120
43 60 106
44 60 183
45 60 632
46 60 502
47 60 175
48 60 18
49 60 4
51 60 580
52 60 2
53 60 471
54 60 20
55 60 149
56 60 128
57 60 88
58 60 118
59 60 20
60 60 49
61 60 53
63 60 81
65 60 64
66 60 51
67 60 190
68 60 150
69 60 222
70 60 12
72 60 4
73 60 211
74 60 80
75 60 21
76 60 61
77 60 82
78 60 284
79 60 186
81 60 14
83 60 205
84 60 71
85 60 171
86 60 56
87 60 136
88 60 135
89 60 10
90 60 32
93 60 89
94 60 407
95 60 151
96 60 1970
97 60 49
98 60 82
99 60 131
100 60 67
101 60 67
102 60 145
104 60 57
105 60 199
106 60 19
108 60 166
110 60 31
111 60 131
114 60 94
115 60 827
116 60 300
117 60 92
118 60 96
121 60 153
122 60 18
124 60 174
125 60 235
126 60 143
127 60 331
128 60 149
129 60 692
130 60 143
131 60 244
132 60 70
133 60 19
134 60 145
136 60 36
137 60 33
138 60 49
139 60 5
140 60 75
141 60 226
142 60 68
143 60 19
144 60 187
146 60 2052
147 60 125
148 60 48
149 60 407
150 60 290
151 60 144
152 60 145
153 60 94
154 60 786
155 60 512
156 60 458
158 60 10
159 60 6
160 60 357
161 60 50
162 60 110
163 60 120
164 60 70
165 60 54
166 60 163
168 60 56
169 60 72
170 60 150
171 60 24
173 60 145
174 60 59
175 60 2
176 60 60
177 60 22
179 60 215
181 60 9
182 60 175
185 60 162
186 60 39
187 60 17
188 60 333
189 60 27
190 60 140
191 60 12
193 60 37
194 60 194
195 60 480
196 60 14
197 60 1333
199 60 179
200 60 346
202 60 242
203 60 94
204 60 651
205 60 533
206 60 77
207 60 128
208 60 34
209 60 135
210 60 40
211 60 12
212 60 72
213 60 67
214 60 276
215 60 63
216 60 71
217 60 42
218 60 91
220 60 235
222 60 6
224 60 40
225 60 162
226 60 53
227 60 250
229 60 44
231 60 312
232 60 162
233 60 170
234 60 46
235 60 137
237 60 13
238 60 138
239 60 9
240 60 59
241 60 20
242 60 79
243 60 111
245 60 87
246 60 238
248 60 8
251 60 278
252 60 83
253 60 16
254 60 40
255 60 116
256 60 63
257 60 31
258 60 179
259 60 146
260 60 77
261 60 301
263 60 43
264 60 27
265 60 56
267 60 157
268 60 114
269 60 236
270 60 223
271 60 227
272 60 215
273 60 637
274 60 63
275 60 225
276 60 116
278 60 43
279 60 126
280 60 139
281 60 289
284 60 1121
285 60 26
287 60 1
288 60 211
289 60 210
290 60 931
291 60 182
292 60 127
293 60 10
294 60 93
295 60 3
296 60 116
297 60 49
298 60 102
299 60 178
300 60 13
301 60 46
302 60 153
303 60 48
304 60 7
305 60 204
307 60 187
308 60 357
309 60 50
310 60 72
311 60 57
312 60 171
313 60 92
314 60 320
316 60 14
317 60 74
318 60 286
319 60 425
320 60 349
321 60 52
323 60 52
324 60 135
325 60 152
326 60 289
327 60 312
328 60 42
330 60 66
331 60 132
332 60 36
334 60 86
336 60 273
337 60 85
338 60 105
339 60 40
340 60 116
342 60 38
343 60 577
344 60 147
345 60 66
346 60 208
347 60 52
348 60 131
349 60 27
350 60 150
351 60 23
352 60 63
354 60 153
355 60 142
356 60 54
357 60 153
358 60 346
359 60 33
360 60 88
361 60 147
362 60 138
364 60 61
365 60 37
366 60 195
367 60 76
368 60 72
369 60 885
370 60 12
371 60 54
372 60 84
373 60 10
374 60 15
375 60 974
377 60 344
378 60 35
379 60 57
380 60 559
381 60 150
382 60 70
383 60 9
384 60 4
385 60 165
386 60 51
388 60 19
389 60 20
390 60 7
391 60 801
392 60 60
393 60 281
394 60 70
395 60 775
396 60 3
397 60 314
398 60 30
399 60 154
400 60 395
401 60 112
402 60 30
403 60 37
404 60 9
405 60 31
411 60 38
412 60 236
413 60 937
414 60 30
415 60 38
416 60 41
417 60 329
418 60 33
419 60 85
420 60 178
423 60 10
425 60 598
426 60 2006
427 60 34
428 60 864
429 60 273
430 60 108
431 60 255
432 60 65
433 60 49
434 60 42
435 60 86
436 60 58
437 60 127
439 60 98
440 60 10
441 60 54
442 60 1055
443 60 1547
444 60 2035
446 60 252
448 60 21
449 60 190
450 60 91
451 60 26
452 60 994
453 60 6
454 60 74
455 60 67
456 60 284
457 60 89
459 60 202
460 60 131
462 60 1164
463 60 621
464 60 59
465 60 329
466 60 329
467 60 448
471 60 8
472 60 60
473 60 4
474 60 85
475 60 51
476 60 422
477 60 65
478 60 167
479 60 58
480 60 207
481 60 78
482 60 163
483 60 86
485 60 183
486 60 208
487 60 13
488 60 6
489 60 57
490 60 10
491 60 122
492 60 1141
494 60 21
496 60 2
498 60 610
499 60 729
500 60 37
1 61 4167
2 61 2461
3 61 9700
4 61 2146
5 61 5485
6 61 6597
7 61 5753
8 61 8043
9 61 5393
10 61 5315
11 61 3758
12 61 3161
13 61 3719
14 61 1854
15 61 2349
16 61 4346
17 61 4242
18 61 2353
19 61 8522
20 61 2205
21 61 6066
22 61 2318
23 61 2994
24 61 2871
25 61 2405
26 61 5950
27 61 4404
28 61 3371
29 61 3725
30 61 6430
31 61 4296
32 61 2887
33 61 3820
34 61 3365
35 61 2319
36 61 4215
37 61 10850
38 61 5080
39 61 3096
40 61 3276
41 61 5548
42 61 3672
43 61 3030
44 61 4984
45 61 3689
46 61 5214
47 61 5616
48 61 3926
49 61 5013
50 61 4040
51 61 7183
52 61 4710
53 61 10233
54 61 2250
55 61 2574
56 61 2683
57 61 5474
58 61 5823
59 61 6334
60 61 3823
61 61 4148
62 61 3408
63 61 4510
64 61 1246
65 61 3655
66 61 5401
67 61 6718
68 61 4449
69 61 5535
70 61 4053
71 61 8067
72 61 8324
73 61 3131
74 61 3397
75 61 6433
76 61 2173
77 61 2598
78 61 4062
79 61 7839
80 61 2206
81 61 5515
82 61 1989
83 61 2697
84 61 3995
85 61 4710
86 61 3398
87 61 3945
88 61 3572
89 61 4294
90 61 3903
91 61 2427
92 61 6519
93 61 4193
94 61 6361
95 61 3919
96 61 5255
97 61 5098
98 61 3477
99 61 3588
100 61 4238
101 61 8711
102 61 6114
103 61 4852
104 61 7071
105 61 4523
106 61 6507
107 61 2643
108 61 3459
109 61 5522
110 61 4131
111 61 5493
112 61 1370
113 61 1810
114 61 7933
115 61 3467
116 61 4948
117 61 10254
118 61 4778
119 61 3009
120 61 3420
121 61 3951
122 61 4789
123 61 3121
124 61 2561
125 61 2256
126 61 4313
127 61 4798
128 61 4032
129 61 1502
130 61 5528
131 61 3510
132 61 3741
133 61 3925
134 61 2876
135 61 2643
136 61 2527
137 61 3161
138 61 3604
139 61 4546
140 61 3666
141 61 5920
142 61 2212
143 61 5773
144 61 5065
145 61 5350
146 61 8598
147 61 3393
148 61 3281
149 61 4098
150 61 5427
151 61 2890
152 61 3751
153 61 2221
154 61 3942
155 61 6325
156 61 3147
157 61 4287
158 61 4554
159 61 8290
160 61 3329
161 61 3370
162 61 4491
163 61 5290
164 61 4216
165 61 5811
166 61 4626
167 61 2038
168 61 7037
169 61 4310
170 61 2910
171 61 2344
172 61 2517
173 61 6581
174 61 4931
175 61 8087
176 61 4796
177 61 4117
178 61 3729
179 61 3584
180 61 4846
181 61 6072
182 61 4509
183 61 2678
184 61 5113
185 61 8616
186 61 5640
187 61 5439
188 61 3835
189 61 8040
190 61 3587
191 61 5185
192 61 2595
193 61 3279
194 61 5000
195 61 4980
196 61 3178
197 61 2378
198 61 3303
199 61 3996
200 61 7696
201 61 4348
202 61 5191
203 61 5956
204 61 11522
205 61 4215
206 61 2262
207 61 2369
208 61 3193
209 61 5582
210 61 3756
211 61 5666
212 61 3299
213 61 3916
214 61 6691
215 61 2148
216 61 4013
217 61 3364
218 61 4605
219 61 2707
220 61 2654
221 61 1305
222 61 8260
223 61 2759
224 61 7280
225 61 2374
226 61 3442
227 61 3562
228 61 2819
229 61 3695
230 61 2315
231 61 3123
232 61 3510
233 61 4169
234 61 5700
235 61 5336
236 61 1276
237 61 3033
238 61 1878
239 61 3605
240 61 5610
241 61 3909
242 61 5303
243 61 4378
244 61 2591
245 61 2676
246 61 7409
247 61 3902
248 61 3167
249 61 2695
250 61 1877
251 61 4675
252 61 4563
253 61 6424
254 61 3666
255 61 6419
256 61 4178
257 61 4628
258 61 4954
259 61 8818
260 61 3203
261 61 6080
262 61 4018
263 61 3412
264 61 4547
265 61 3608
266 61 2531
267 61 4735
268 61 3952
269 61 5967
270 61 4022
271 61 4393
272 61 4721
273 61 3706
274 61 3279
275 61 5594
276 61 4819
277 61 2809
278 61 5564
279 61 5580
280 61 6111
281 61 2461
282 61 1849
283 61 1644
284 61 3519
285 61 4795
286 61 3363
287 61 4646
288 61 5388
289 61 5657
290 61 5141
291 61 6629
292 61 3151
293 61 3716
294 61 4698
295 61 3639
296 61 5699
297 61 5520
298 61 4920
299 61 4934
300 61 4463
301 61 2320
302 61 4186
303 61 5576
304 61 3985
305 61 5382
306 61 2411
307 61 5179
308 61 3440
309 61 6285
310 61 4778
311 61 5323
312 61 5733
313 61 4922
314 61 3180
315 61 1363
316 61 6402
317 61 3875
318 61 4052
319 61 3037
320 61 4656
321 61 5402
322 61 4499
323 61 4278
324 61 4452
325 61 4072
326 61 5520
327 61 4470
328 61 2601
329 61 5190
330 61 3851
331 61 4001
332 61 7271
333 61 5288
334 61 4593
335 61 1263
336 61 3606
337 61 4299
338 61 4264
339 61 2933
340 61 4849
341 61 3620
342 61 2677
343 61 3486
344 61 5468
345 61 3465
346 61 4766
347 61 4877
348 61 2498
349 61 3693
350 61 2394
351 61 2327
352 61 3085
353 61 3986
354 61 8647
355 61 3709
356 61 3373
357 61 3298
358 61 1712
359 61 4129
360 61 3578
361 61 8642
362 61 6659
363 61 2479
364 61 8402
365 61 3636
366 61 6333
367 61 8831
368 61 3615
369 61 8922
370 61 3450
371 61 5939
372 61 3628
373 61 6310
374 61 6555
375 61 4659
376 61 4122
377 61 6371
378 61 4811
379 61 3126
380 61 4633
381 61 8576
382 61 3840
383 61 3524
384 61 4706
385 61 2853
386 61 3833
387 61 2148
388 61 2290
389 61 2570
390 61 3755
391 61 2832
392 61 2370
393 61 5006
394 61 4301
395 61 10008
396 61 2968
397 61 4109
398 61 5834
399 61 6375
400 61 5786
401 61 4214
402 61 4178
403 61 5348
404 61 4483
405 61 4518
406 61 2029
407 61 3255
408 61 4172
409 61 4794
410 61 2785
411 61 2613
412 61 2703
413 61 6059
414 61 5423
415 61 11582
416 61 3660
417 61 3818
418 61 6507
419 61 2651
420 61 3936
421 61 2217
422 61 3036
423 61 3614
424 61 2662
425 61 5134
426 61 5545
427 61 4875
428 61 8945
429 61 3202
430 61 4348
431 61 5849
432 61 4981
433 61 4095
434 61 4055
435 61 4784
436 61 4009
437 61 4130
438 61 2473
439 61 8135
440 61 7717
441 61 2133
442 61 3088
443 61 2376
444 61 5578
445 61 1842
446 61 6140
447 61 2592
448 61 3976
449 61 5792
450 61 3176
451 61 4661
452 61 5317
453 61 4783
454 61 6175
455 61 5364
456 61 4483
457 61 4490
458 61 1855
459 61 5770
460 61 5419
461 61 2086
462 61 3563
463 61 7999
464 61 5387
465 61 6437
466 61 6338
467 61 9560
468 61 4153
469 61 5833
470 61 2052
471 61 6845
472 61 3284
473 61 8297
474 61 5245
475 61 5321
476 61 5655
477 61 3267
478 61 4988
479 61 3149
480 61 3634
481 61 4360
482 61 4124
483 61 4313
484 61 2552
485 61 4964
486 61 4467
487 61 3869
488 61 8427
489 61 5248
490 61 4340
491 61 5968
492 61 5741
493 61 1681
494 61 7837
495 61 2575
496 61 8239
497 61 5481
498 61 2679
499 61 3027
500 61 3731
1 62 40
2 62 1946
3 62 96
4 62 660
5 62 126
6 62 373
7 62 40
8 62 179
9 62 595
10 62 1082
11 62 132
12 62 475
13 62 1223
14 62 25
15 62 4577
16 62 1331
17 62 1146
18 62 290
19 62 971
20 62 215
21 62 93
22 62 315
23 62 670
24 62 2439
25 62 231
26 62 40
27 62 99
28 62 621
29 62 1687
30 62 66
31 62 253
32 62 1046
33 62 59
34 62 486
35 62 746
36 62 770
37 62 37
38 62 45
39 62 1725
40 62 1107
41 62 416
42 62 511
43 62 383
44 62 113
45 62 4128
46 62 139
47 62 87
48 62 1599
49 62 102
50 62 41
51 62 72
52 62 93
53 62 268
54 62 560
55 62 1004
56 62 598
57 62 125
58 62 97
59 62 69
60 62 619
61 62 173
62 62 343
63 62 96
64 62 2167
65 62 47
66 62 562
67 62 113
68 62 326
69 62 36
70 62 990
71 62 78
72 62 117
73 62 1001
74 62 80
75 62 94
76 62 1047
77 62 412
78 62 1677
79 62 1634
80 62 298
81 62 191
82 62 67
83 62 1091
84 62 1160
85 62 995
86 62 154
87 62 96
88 62 1018
89 62 2191
90 62 2358
91 62 1186
92 62 46
93 62 251
94 62 2462
95 62 159
96 62 658
97 62 154
98 62 52
99 62 350
100 62 216
101 62 63
102 62 190
103 62 383
104 62 636
105 62 927
106 62 59
107 62 44
108 62 1553
109 62 280
110 62 152
111 62 793
112 62 105
113 62 138
114 62 173
115 62 59
116 62 2470
117 62 65
118 62 1082
119 62 40
120 62 210
121 62 722
122 62 4
123 62 172
124 62 1251
125 62 808
126 62 366
127 62 1390
128 62 177
129 62 2145
130 62 741
131 62 1591
132 62 561
133 62 170
134 62 1601
135 62 406
136 62 144
137 62 624
138 62 444
139 62 136
140 62 793
141 62 90
142 62 2104
143 62 1153
144 62 157
145 62 236
146 62 995
147 62 2231
148 62 105
149 62 667
150 62 203
151 62 319
152 62 22
153 62 999
154 62 7
155 62 2419
156 62 917
157 62 10
158 62 2945
159 62 105
160 62 2076
161 62 130
162 62 181
163 62 1014
164 62 114
165 62 156
166 62 60
167 62 784
168 62 62
169 62 1347
170 62 1616
171 62 580
172 62 156
173 62 356
174 62 116
175 62 124
176 62 246
178 62 633
179 62 1661
180 62 222
181 62 60
182 62 846
183 62 29
184 62 329
185 62 133
186 62 419
187 62 151
188 62 3000
189 62 103
190 62 180
191 62 1450
192 62 155
193 62 528
194 62 608
195 62 11
196 62 303
197 62 1094
198 62 153
199 62 414
200 62 4
201 62 137
202 62 1425
203 62 565
204 62 248
205 62 158
206 62 253
207 62 1147
208 62 635
209 62 795
210 62 1245
211 62 486
212 62 500
213 62 44
214 62 90
215 62 2219
216 62 666
217 62 108
218 62 91
219 62 281
220 62 1069
221 62 375
222 62 105
223 62 1076
224 62 293
225 62 290
226 62 799
227 62 157
228 62 372
229 62 664
230 62 49
231 62 472
232 62 1812
233 62 197
234 62 1033
235 62 49
236 62 269
237 62 60
238 62 1297
239 62 233
240 62 635
241 62 380
242 62 251
243 62 164
244 62 30
245 62 492
246 62 403
247 62 382
248 62 1126
249 62 267
250 62 104
251 62 568
252 62 10
253 62 104
254 62 2661
255 62 129
256 62 600
257 62 151
258 62 71
259 62 130
260 62 99
261 62 329
262 62 44
263 62 1818
264 62 164
265 62 819
266 62 178
267 62 64
268 62 840
269 62 92
270 62 2457
271 62 171
272 62 168
273 62 160
274 62 151
275 62 35
276 62 300
277 62 102
278 62 1424
279 62 783
280 62 36
281 62 396
282 62 27
283 62 1003
284 62 121
285 62 167
286 62 569
287 62 97
288 62 1529
289 62 39
290 62 1336
291 62 532
292 62 77
293 62 230
294 62 1131
295 62 1072
296 62 101
297 62 322
298 62 81
299 62 1558
300 62 236
301 62 233
302 62 4095
303 62 181
304 62 182
305 62 1507
306 62 479
307 62 139
308 62 912
309 62 13
310 62 930
311 62 240
312 62 78
313 62 454
314 62 1639
315 62 382
316 62 1014
317 62 506
318 62 1675
319 62 875
320 62 57
321 62 305
322 62 392
323 62 247
324 62 323
325 62 696
326 62 1215
327 62 546
328 62 163
329 62 465
330 62 175
331 62 996
332 62 259
333 62 47
334 62 190
335 62 581
336 62 142
337 62 67
338 62 1134
339 62 50
340 62 47
341 62 472
342 62 136
343 62 81
344 62 784
345 62 132
346 62 282
347 62 197
348 62 2006
349 62 134
350 62 319
351 62 570
352 62 97
353 62 71
354 62 136
355 62 1136
356 62 1086
357 62 1153
358 62 670
359 62 116
360 62 184
361 62 123
362 62 91
363 62 108
364 62 44
365 62 422
366 62 90
367 62 507
368 62 177
369 62 35
370 62 48
371 62 499
372 62 191
373 62 1066
374 62 66
375 62 469
376 62 72
377 62 1276
378 62 46
379 62 1219
380 62 432
381 62 117
382 62 294
383 62 1177
384 62 102
385 62 25
386 62 218
387 62 476
388 62 1290
389 62 57
390 62 273
391 62 52
392 62 159
393 62 2553
394 62 253
395 62 61
396 62 32
397 62 618
398 62 985
399 62 91
400 62 153
401 62 137
402 62 132
403 62 123
404 62 38
405 62 1140
406 62 168
407 62 100
408 62 28
409 62 367
410 62 56
411 62 152
412 62 1132
413 62 52
414 62 165
415 62 53
416 62 1174
417 62 350
418 62 90
419 62 1252
420 62 3079
421 62 164
422 62 1029
423 62 244
424 62 57
425 62 11
426 62 688
427 62 27
428 62 44
429 62 1586
430 62 267
431 62 2529
432 62 200
433 62 156
434 62 10
435 62 449
436 62 9
437 62 742
438 62 10
439 62 155
440 62 851
441 62 2213
442 62 1143
443 62 74
444 62 705
445 62 84
446 62 35
447 62 39
448 62 391
449 62 225
450 62 85
451 62 213
452 62 36
453 62 140
454 62 1002
455 62 21
456 62 155
457 62 192
458 62 315
459 62 44
460 62 755
461 62 46
462 62 114
463 62 203
464 62 162
465 62 1240
466 62 1322
467 62 227
468 62 30
469 62 96
470 62 533
471 62 138
472 62 153
473 62 116
474 62 148
475 62 634
476 62 139
477 62 138
478 62 589
479 62 163
480 62 371
481 62 1527
482 62 4025
483 62 38
484 62 172
485 62 595
486 62 150
487 62 85
488 62 96
489 62 870
490 62 62
491 62 103
492 62 340
493 62 843
494 62 4
495 62 148
496 62 123
497 62 37
498 62 1789
499 62 524
500 62 127
1 63 1745
2 63 2646
3 63 3042
4 63 1012
5 63 2301
6 63 2556
7 63 2741
8 63 3575
9 63 2632
10 63 1938
11 63 1325
12 63 2292
13 63 1308
14 63 2640
15 63 2398
16 63 3465
17 63 2043
18 63 3946
19 63 4990
20 63 1024
21 63 2979
22 63 1086
23 63 1508
24 63 1890
25 63 1293
26 63 2717
27 63 3355
28 63 2786
29 63 1963
30 63 2602
31 63 1638
32 63 1958
33 63 2737
34 63 4195
35 63 1294
36 63 2773
37 63 3354
38 63 2015
39 63 2480
40 63 4165
41 63 2999
42 63 3520
43 63 1515
44 63 1921
45 63 1855
46 63 3844
47 63 3855
48 63 3516
49 63 2507
50 63 563
51 63 3709
52 63 1224
53 63 4061
54 63 1514
55 63 2736
56 63 3099
57 63 1459
58 63 3058
59 63 2568
60 63 3335
61 63 892
62 63 2743
63 63 2990
64 63 1168
65 63 2865
66 63 2728
67 63 2243
68 63 2060
69 63 2230
70 63 2864
71 63 997
72 63 2712
73 63 2052
74 63 1725
75 63 2625
76 63 1416
77 63 1510
78 63 1837
79 63 2237
80 63 937
81 63 1814
82 63 662
83 63 3501
84 63 2423
85 63 2318
86 63 3643
87 63 2515
88 63 1211
89 63 3128
90 63 2415
91 63 1775
92 63 1507
93 63 1429
94 63 5685
95 63 1628
96 63 4193
97 63 3279
98 63 2864
99 63 3282
100 63 1652
101 63 1163
102 63 1854
103 63 1693
104 63 2155
105 63 2610
106 63 2587
107 63 1518
108 63 1858
109 63 1917
110 63 2188
111 63 2888
112 63 2022
113 63 1399
114 63 2152
115 63 2644
116 63 2693
117 63 1353
118 63 3761
119 63 953
120 63 2451
121 63 2533
122 63 2838
123 63 1105
124 63 4302
125 63 3081
126 63 3181
127 63 2415
128 63 3649
129 63 800
130 63 3033
131 63 1663
132 63 1369
133 63 2155
134 63 1893
135 63 1270
136 63 1540
137 63 2029
138 63 1624
139 63 2643
140 63 1519
141 63 1655
142 63 1551
143 63 2629
144 63 3031
145 63 3948
146 63 5121
147 63 1553
148 63 1640
149 63 2734
150 63 3285
151 63 2078
152 63 2437
153 63 2084
154 63 2230
155 63 1715
156 63 2585
157 63 1293
158 63 2850
159 63 2676
160 63 3099
161 63 3587
162 63 3217
163 63 2264
164 63 2927
165 63 3250
166 63 1041
167 63 754
168 63 1806
169 63 3330
170 63 1942
171 63 1411
172 63 1301
173 63 3158
174 63 2573
175 63 2721
176 63 3411
177 63 3741
178 63 1525
179 63 1646
180 63 1153
181 63 3894
182 63 2079
183 63 1054
184 63 848
185 63 2706
186 63 2138
187 63 1777
188 63 2950
189 63 2535
190 63 3541
191 63 2656
192 63 1083
193 63 1967
194 63 1448
195 63 2332
196 63 3711
197 63 1057
198 63 1153
199 63 1526
200 63 1405
201 63 2249
202 63 2991
203 63 3169
204 63 2425
205 63 3834
206 63 1467
207 63 2673
208 63 2011
209 63 2970
210 63 3013
211 63 2510
212 63 2583
213 63 4238
214 63 3649
215 63 1513
216 63 2302
217 63 1340
218 63 2128
219 63 2555
220 63 3569
221 63 449
222 63 2741
223 63 1922
224 63 3974
225 63 3993
226 63 1055
227 63 1963
228 63 1315
229 63 2985
230 63 1309
231 63 2240
232 63 2782
233 63 1812
234 63 1227
235 63 1981
236 63 1119
237 63 1249
238 63 2228
239 63 3041
240 63 3395
241 63 1362
242 63 4592
243 63 3236
244 63 969
245 63 1504
246 63 1771
247 63 2255
248 63 1813
249 63 2580
250 63 1732
251 63 2311
252 63 1407
253 63 2562
254 63 1833
255 63 2851
256 63 3740
257 63 2988
258 63 3655
259 63 2658
260 63 2347
261 63 3480
262 63 575
263 63 3623
264 63 2850
265 63 1113
266 63 1309
267 63 1033
268 63 2444
269 63 1633
270 63 3382
271 63 2206
272 63 1975
273 63 2019
274 63 3571
275 63 2712
276 63 2119
277 63 2270
278 63 2858
279 63 3077
280 63 3597
281 63 2172
282 63 1586
283 63 1057
284 63 3155
285 63 2294
286 63 1723
287 63 1291
288 63 1871
289 63 2750
290 63 1875
291 63 3440
292 63 1959
293 63 3051
294 63 2722
295 63 2408
296 63 1963
297 63 2665
298 63 3895
299 63 2706
300 63 3381
301 63 1684
302 63 3257
303 63 2892
304 63 2864
305 63 3746
306 63 1133
307 63 3090
308 63 1744
309 63 2023
310 63 1295
311 63 4616
312 63 3884
313 63 1892
314 63 2543
315 63 451
316 63 3969
317 63 3192
318 63 1860
319 63 2664
320 63 1814
321 63 2701
322 63 1590
323 63 1698
324 63 2013
325 63 2710
326 63 3554
327 63 1720
328 63 1501
329 63 940
330 63 1780
331 63 2783
332 63 3941
333 63 1254
334 63 3017
335 63 1147
336 63 1991
337 63 1980
338 63 2284
339 63 1943
340 63 1698
341 63 1519
342 63 1552
343 63 2489
344 63 2950
345 63 3586
346 63 2289
347 63 1747
348 63 2890
349 63 2332
350 63 4031
351 63 1435
352 63 2313
353 63 1770
354 63 2701
355 63 2095
356 63 4264
357 63 3282
358 63 2073
359 63 2309
360 63 4079
361 63 2680
362 63 972
363 63 1545
364 63 2259
365 63 1604
366 63 2847
367 63 3597
368 63 2671
369 63 1782
370 63 1745
371 63 3088
372 63 3827
373 63 3882
374 63 2562
375 63 1640
376 63 1463
377 63 4430
378 63 3025
379 63 3093
380 63 2028
381 63 2763
382 63 2131
383 63 1503
384 63 3305
385 63 2119
386 63 3490
387 63 945
388 63 2990
389 63 1977
390 63 3163
391 63 2981
392 63 989
393 63 2633
394 63 1650
395 63 2917
396 63 2013
397 63 2490
398 63 2613
399 63 2015
400 63 2753
401 63 1914
402 63 2179
403 63 2641
404 63 3323
405 63 2968
406 63 1892
407 63 1184
408 63 791
409 63 1639
410 63 1175
411 63 1524
412 63 3560
413 63 2823
414 63 4259
415 63 1996
416 63 2996
417 63 4411
418 63 4273
419 63 2308
420 63 3161
421 63 1237
422 63 1831
423 63 3208
424 63 1675
425 63 2466
426 63 4278
427 63 3062
428 63 1720
429 63 2466
430 63 1458
431 63 3105
432 63 1682
433 63 949
434 63 1311
435 63 2676
436 63 1315
437 63 2465
438 63 1370
439 63 2234
440 63 1538
441 63 1544
442 63 3023
443 63 3321
444 63 4349
445 63 2275
446 63 2758
447 63 1301
448 63 1280
449 63 1060
450 63 2300
451 63 3450
452 63 2110
453 63 2778
454 63 3966
455 63 1904
456 63 1577
457 63 2832
458 63 1426
459 63 2731
460 63 2955
461 63 1480
462 63 3014
463 63 3545
464 63 2829
465 63 4443
466 63 4494
467 63 2532
468 63 1508
469 63 3730
470 63 900
471 63 1465
472 63 3622
473 63 2784
474 63 3774
475 63 2667
476 63 2055
477 63 3656
478 63 1491
479 63 4538
480 63 1094
481 63 2499
482 63 3255
483 63 2560
484 63 926
485 63 1445
486 63 1905
487 63 3321
488 63 2731
489 63 2518
490 63 1705
491 63 2920
492 63 1570
493 63 968
494 63 2646
495 63 1503
496 63 2697
497 63 1271
498 63 3936
499 63 2396
500 63 1096
1 64 2028
2 64 1181
3 64 2196
5 64 1699
6 64 1787
7 64 1664
8 64 975
9 64 1282
10 64 1775
11 64 748
12 64 1834
14 64 1435
15 64 1821
16 64 1431
17 64 815
18 64 2632
19 64 3238
21 64 2084
22 64 3635
23 64 7
24 64 1990
26 64 1583
27 64 2183
28 64 2299
30 64 2271
31 64 1816
33 64 2431
34 64 3122
36 64 1150
37 64 1167
38 64 2266
39 64 1669
40 64 3174
41 64 2220
42 64 1553
43 64 773
44 64 1202
45 64 1709
46 64 2706
47 64 1950
48 64 2437
49 64 2445
51 64 1220
52 64 1942
53 64 2334
55 64 6
56 64 1367
57 64 2308
58 64 611
59 64 2332
60 64 2686
61 64 2582
63 64 4763
65 64 1116
66 64 952
67 64 2499
68 64 1119
69 64 1348
70 64 1879
72 64 2744
73 64 452
74 64 1691
75 64 2291
76 64 1815
77 64 2112
78 64 1571
79 64 3025
81 64 1397
83 64 2174
84 64 2776
85 64 2281
86 64 1765
87 64 1285
88 64 1260
89 64 2050
90 64 985
93 64 2255
94 64 1759
95 64 1606
96 64 2052
97 64 1552
98 64 1100
100 64 1726
101 64 2986
102 64 1480
104 64 1493
105 64 1489
106 64 2200
108 64 629
110 64 2520
111 64 2133
114 64 1496
115 64 63
116 64 1363
117 64 765
118 64 1401
121 64 2813
122 64 2032
124 64 2898
125 64 1585
126 64 1809
127 64 1074
128 64 2252
129 64 1808
130 64 2161
131 64 2206
132 64 2503
133 64 678
134 64 178
136 64 1866
137 64 1049
138 64 1839
139 64 1652
140 64 7
141 64 2944
142 64 104
143 64 1012
144 64 636
145 64 2781
146 64 3256
147 64 2602
148 64 1700
149 64 1702
150 64 2439
151 64 1498
152 64 2054
153 64 1338
154 64 1210
155 64 1384
156 64 961
158 64 2968
159 64 2901
160 64 1871
161 64 1721
162 64 1303
163 64 24
164 64 1061
165 64 1892
166 64 1724
169 64 1372
170 64 160
173 64 2439
174 64 1632
175 64 2851
176 64 2386
177 64 4166
179 64 2297
181 64 2259
182 64 2306
185 64 1856
186 64 3102
187 64 1567
188 64 1773
189 64 2048
190 64 2661
191 64 1948
193 64 960
194 64 1079
195 64 2281
196 64 1326
197 64 68
199 64 3374
200 64 925
202 64 2088
203 64 2776
204 64 466
205 64 2058
206 64 1582
207 64 2011
208 64 981
209 64 2194
210 64 2059
211 64 3743
212 64 560
213 64 982
214 64 1150
215 64 137
216 64 1651
217 64 2040
218 64 316
220 64 2064
222 64 2812
224 64 2603
225 64 2738
226 64 1980
227 64 1361
229 64 2526
231 64 1740
232 64 3215
233 64 1143
234 64 638
235 64 2256
237 64 1195
238 64 19
239 64 2534
240 64 2750
241 64 1528
242 64 2129
243 64 1822
245 64 2045
246 64 2956
247 64 2899
251 64 2843
252 64 1109
253 64 2400
254 64 1803
255 64 2790
256 64 2421
257 64 1680
258 64 2719
259 64 1863
260 64 1186
261 64 1496
263 64 2909
264 64 1657
265 64 1820
267 64 1762
268 64 1748
269 64 2875
270 64 1607
271 64 2458
272 64 1645
273 64 2130
274 64 1731
275 64 1641
276 64 1592
278 64 2170
279 64 2218
280 64 5221
281 64 1329
284 64 1078
285 64 2349
287 64 1957
288 64 3062
289 64 1634
291 64 1740
292 64 1231
293 64 2629
294 64 1826
295 64 2899
296 64 2183
297 64 736
298 64 3179
299 64 2362
300 64 1590
302 64 2996
303 64 1454
304 64 2270
305 64 2071
307 64 679
308 64 32
309 64 2514
310 64 773
311 64 2213
312 64 1896
313 64 1893
314 64 563
316 64 2567
317 64 2083
318 64 1538
319 64 956
320 64 1443
321 64 727
323 64 1703
324 64 1077
325 64 2136
326 64 2131
327 64 14
328 64 1909
330 64 1367
331 64 1107
332 64 2609
334 64 1613
336 64 1322
337 64 91
338 64 2605
339 64 2328
340 64 1600
342 64 1941
343 64 1150
344 64 2227
345 64 1713
346 64 1206
347 64 1419
348 64 1142
349 64 1791
350 64 2648
352 64 1123
354 64 1881
355 64 1782
356 64 3179
357 64 3001
358 64 4
359 64 835
360 64 1258
361 64 1839
362 64 1741
364 64 2423
365 64 1779
366 64 1846
367 64 3901
368 64 680
369 64 1245
370 64 1365
371 64 1612
372 64 1212
373 64 2635
374 64 2341
375 64 4332
377 64 2898
378 64 2287
379 64 1663
380 64 2615
381 64 1836
382 64 2582
384 64 1566
385 64 1803
386 64 1684
388 64 1828
390 64 2636
391 64 2140
393 64 1271
394 64 1852
395 64 2197
396 64 1382
397 64 1328
398 64 1985
399 64 3037
400 64 714
401 64 933
402 64 835
403 64 1828
404 64 1367
405 64 2546
411 64 1827
412 64 2188
413 64 748
414 64 1030
415 64 1252
416 64 2016
417 64 1632
418 64 1679
419 64 2901
420 64 3053
423 64 2700
425 64 429
426 64 2017
427 64 2227
428 64 1258
429 64 540
430 64 2266
431 64 2811
432 64 1392
433 64 2493
434 64 1757
435 64 1250
436 64 1659
437 64 1813
439 64 1513
440 64 1710
441 64 130
442 64 460
443 64 112
444 64 2016
446 64 1630
448 64 1559
449 64 2054
450 64 1139
451 64 1674
452 64 2372
453 64 2241
454 64 2781
455 64 3047
457 64 3017
459 64 1630
460 64 2169
462 64 971
463 64 899
464 64 3876
465 64 2922
466 64 2960
467 64 1642
469 64 2054
471 64 2411
472 64 1727
473 64 2853
474 64 1087
475 64 950
476 64 2206
477 64 1678
478 64 1042
479 64 2417
481 64 2362
482 64 3087
483 64 2519
485 64 1020
486 64 1372
487 64 2056
488 64 2751
489 64 1687
490 64 2303
491 64 677
492 64 526
494 64 2121
496 64 2890
498 64 2957
499 64 1149
500 64 2552
2 65 21
3 65 2
4 65 2397
5 65 5
7 65 4
8 65 4
9 65 8
10 65 51
12 65 8
13 65 2133
14 65 8
16 65 24
17 65 17
18 65 17
20 65 2982
23 65 7
24 65 29
25 65 3562
26 65 3
28 65 10
29 65 12
30 65 11
31 65 6
32 65 1658
34 65 4
35 65 3594
37 65 32
38 65 39
39 65 13
40 65 1
42 65 12
43 65 3
44 65 7
45 65 15
46 65 24
47 65 86
48 65 20
50 65 2464
51 65 5
52 65 10
54 65 231
55 65 18
56 65 5
57 65 1
58 65 4
59 65 9
60 65 3
61 65 10
62 65 3641
64 65 4089
65 65 10
66 65 27
67 65 25
68 65 21
69 65 6
70 65 8
71 65 2560
72 65 32
73 65 4
74 65 13
75 65 7
79 65 10
80 65 1471
81 65 29
82 65 1176
83 65 29
84 65 4
85 65 20
86 65 50
87 65 22
88 65 3
89 65 6
90 65 6
91 65 4857
92 65 1952
93 65 6
94 65 11
96 65 7
97 65 14
98 65 7
99 65 41
100 65 6
101 65 3
102 65 4
103 65 3403
104 65 16
105 65 6
106 65 10
107 65 2682
108 65 25
109 65 3555
110 65 15
111 65 4
112 65 2261
113 65 2474
114 65 3
115 65 1
116 65 6
118 65 26
119 65 3415
120 65 1346
121 65 8
122 65 27
123 65 2235
124 65 6
125 65 4
126 65 4
127 65 47
128 65 17
129 65 18
130 65 6
131 65 62
132 65 15
133 65 21
134 65 8
135 65 2139
137 65 11
138 65 29
139 65 22
140 65 51
142 65 6
145 65 10
148 65 12
151 65 6
152 65 14
153 65 7
154 65 8
155 65 19
156 65 77
157 65 4259
158 65 6
159 65 38
160 65 10
161 65 47
162 65 2
163 65 5
164 65 2
165 65 10
166 65 3
167 65 2944
168 65 68
169 65 21
170 65 3
171 65 224
172 65 3168
173 65 3
174 65 12
175 65 50
176 65 39
177 65 5
178 65 1154
179 65 86
180 65 1569
181 65 3
183 65 2013
184 65 1489
187 65 12
188 65 33
189 65 8
190 65 10
191 65 3
192 65 2945
193 65 13
194 65 13
195 65 9
196 65 4
197 65 13
198 65 2041
199 65 8
200 65 14
201 65 1739
202 65 15
203 65 8
204 65 29
205 65 19
206 65 1
207 65 9
208 65 15
209 65 4
210 65 1
211 65 9
212 65 13
213 65 10
214 65 26
215 65 3
216 65 7
217 65 12
218 65 39
219 65 1520
220 65 23
221 65 1438
222 65 26
223 65 1644
224 65 34
225 65 32
226 65 9
227 65 24
228 65 2240
229 65 4
230 65 2080
231 65 12
232 65 11
233 65 4
235 65 27
236 65 2021
238 65 23
240 65 12
241 65 14
242 65 7
243 65 9
244 65 4540
246 65 116
247 65 10
248 65 391
249 65 1516
250 65 3924
251 65 6
252 65 11
253 65 13
254 65 10
255 65 13
257 65 10
258 65 38
261 65 16
262 65 2359
263 65 12
264 65 5
265 65 12
266 65 3214
267 65 3
268 65 33
270 65 58
271 65 7
273 65 5
274 65 41
275 65 6
276 65 11
277 65 3710
278 65 34
279 65 5
281 65 15
282 65 4663
283 65 2049
284 65 7
285 65 6
286 65 2166
287 65 5
288 65 5
289 65 6
290 65 99
291 65 19
292 65 10
294 65 8
296 65 3
297 65 13
298 65 30
299 65 3
300 65 25
301 65 19
302 65 3
303 65 6
304 65 10
306 65 2741
308 65 23
309 65 5
311 65 10
312 65 79
313 65 10
314 65 5
315 65 1431
317 65 2
319 65 64
320 65 32
321 65 3
322 65 586
323 65 2
324 65 20
325 65 3
326 65 5
327 65 7
329 65 2231
330 65 9
331 65 18
332 65 38
333 65 3245
335 65 2125
336 65 23
337 65 7
338 65 3
339 65 14
340 65 7
341 65 3010
344 65 6
345 65 32
346 65 14
347 65 15
348 65 24
349 65 22
350 65 21
351 65 232
353 65 3876
355 65 8
356 65 11
357 65 50
358 65 8
359 65 2
360 65 10
362 65 19
363 65 2752
364 65 8
365 65 31
367 65 5
368 65 8
369 65 4
370 65 8
371 65 16
372 65 13
374 65 9
375 65 25
376 65 3864
377 65 10
379 65 4
380 65 23
382 65 11
383 65 309
384 65 11
385 65 12
387 65 2012
388 65 32
389 65 96
391 65 15
392 65 345
393 65 3
394 65 3
395 65 7
396 65 12
397 65 4
398 65 19
399 65 8
400 65 10
401 65 5
402 65 4
403 65 9
404 65 24
405 65 56
406 65 1194
407 65 2071
408 65 1989
409 65 3319
410 65 3196
412 65 24
413 65 39
414 65 4
415 65 5
416 65 3
417 65 5
418 65 17
419 65 6
421 65 3957
422 65 4626
424 65 2808
425 65 14
426 65 4
427 65 20
428 65 3
429 65 2
430 65 8
432 65 19
433 65 9
434 65 5
436 65 3
437 65 43
438 65 2150
439 65 3
440 65 4
441 65 4
442 65 9
443 65 17
444 65 6
445 65 3168
446 65 2
447 65 3593
448 65 11
451 65 18
452 65 3
453 65 20
454 65 13
455 65 7
456 65 40
457 65 10
458 65 1672
459 65 3
460 65 5
461 65 2158
462 65 16
463 65 2
465 65 17
466 65 14
467 65 26
468 65 2922
469 65 4
470 65 1569
471 65 10
472 65 52
473 65 33
475 65 45
476 65 4
477 65 49
478 65 17
479 65 20
480 65 52
482 65 7
483 65 23
484 65 4280
485 65 17
487 65 27
488 65 33
489 65 4
491 65 2
492 65 10
493 65 2612
494 65 2
495 65 4125
496 65 46
497 65 3232
498 65 2
499 65 1
500 65 4
1 66 7033
2 66 3293
3 66 4855
5 66 2905
6 66 5355
7 66 6534
8 66 5672
9 66 3258
10 66 6980
11 66 6434
12 66 5738
14 66 5288
15 66 3394
16 66 6255
17 66 5857
18 66 4968
19 66 9549
21 66 8923
22 66 4360
23 66 3031
24 66 3982
26 66 6497
27 66 8545
28 66 6144
29 66 946
30 66 3189
31 66 6246
33 66 4377
34 66 5063
36 66 5942
37 66 4602
38 66 7529
39 66 2525
40 66 6585
41 66 9539
42 66 4945
43 66 7905
44 66 5666
45 66 4646
46 66 5743
47 66 3454
48 66 5940
49 66 6497
51 66 7975
52 66 6572
53 66 6449
54 66 50
55 66 3276
56 66 3495
57 66 5085
58 66 3542
59 66 3229
60 66 6685
61 66 5754
63 66 9060
65 66 6720
66 66 3348
67 66 5247
68 66 3093
69 66 3519
70 66 5264
72 66 7982
73 66 5101
74 66 3913
75 66 3143
76 66 6436
77 66 3805
78 66 3263
79 66 7280
81 66 5653
82 66 5
83 66 4035
84 66 6992
85 66 3751
86 66 4342
87 66 7874
88 66 4132
89 66 12090
90 66 4525
93 66 4370
94 66 8377
95 66 3859
96 66 6753
97 66 4025
98 66 6642
99 66 796
100 66 6358
101 66 8211
102 66 7405
104 66 4346
105 66 3035
106 66 3107
108 66 6814
110 66 4224
111 66 5795
114 66 3476
115 66 3069
116 66 7762
117 66 3629
118 66 5077
121 66 6877
122 66 3241
124 66 6231
125 66 3047
126 66 5688
127 66 4695
128 66 5641
129 66 4221
130 66 5772
131 66 6399
132 66 6317
133 66 9858
134 66 4088
136 66 3791
137 66 4107
138 66 2960
139 66 5870
140 66 65
141 66 6966
142 66 3309
143 66 8105
144 66 4436
145 66 5208
146 66 9655
147 66 6823
148 66 3976
149 66 9025
150 66 5192
151 66 3310
152 66 3057
153 66 5525
154 66 5825
155 66 5103
156 66 2390
158 66 6273
159 66 7933
160 66 3323
161 66 4337
162 66 4836
163 66 5502
164 66 5558
165 66 6616
166 66 5152
168 66 80
169 66 6360
170 66 4076
171 66 34
173 66 6127
174 66 5950
175 66 7976
176 66 7260
177 66 6565
178 66 1
179 66 6307
181 66 4582
182 66 4097
185 66 8312
186 66 3922
187 66 5611
188 66 4021
189 66 7948
190 66 2878
191 66 4173
193 66 4079
194 66 5393
195 66 4378
196 66 3955
197 66 4271
199 66 4291
200 66 3601
202 66 3193
203 66 10935
204 66 4639
205 66 4566
206 66 6300
207 66 4663
208 66 4062
209 66 5625
210 66 5428
211 66 8671
212 66 5222
213 66 6022
214 66 7003
215 66 3319
216 66 4901
217 66 5764
218 66 4654
219 66 7
220 66 4066
222 66 7776
224 66 6003
225 66 4962
226 66 4539
227 66 4891
229 66 6381
231 66 5804
232 66 9126
233 66 7904
234 66 4165
235 66 7582
237 66 5764
238 66 4942
239 66 9182
240 66 6987
241 66 3627
242 66 4381
243 66 4059
245 66 3871
246 66 5065
247 66 5009
248 66 22
249 66 1
251 66 4097
252 66 5762
253 66 3186
254 66 4635
255 66 6631
256 66 11028
257 66 5191
258 66 3559
259 66 8369
260 66 8139
261 66 5718
263 66 4949
264 66 5101
265 66 4637
267 66 5117
268 66 9195
269 66 7037
270 66 5960
271 66 3150
272 66 5744
273 66 4905
274 66 4424
275 66 6529
276 66 4758
278 66 4477
279 66 5651
280 66 5299
281 66 4473
284 66 6331
285 66 5140
287 66 6487
288 66 2926
289 66 6544
290 66 71
291 66 5979
292 66 3769
293 66 9247
294 66 5242
295 66 8335
296 66 7633
297 66 5749
298 66 7319
299 66 4021
300 66 5118
301 66 2823
302 66 5679
303 66 10204
304 66 3206
305 66 7820
307 66 4561
308 66 1775
309 66 3608
310 66 4655
311 66 4446
312 66 3442
313 66 5940
314 66 5300
316 66 8821
317 66 4365
318 66 3319
319 66 2357
320 66 5690
321 66 5574
323 66 6388
324 66 3267
325 66 5182
326 66 3790
327 66 4200
328 66 3905
330 66 2553
331 66 5935
332 66 5986
334 66 5456
336 66 4833
337 66 5428
338 66 4292
339 66 6252
340 66 5966
342 66 3880
343 66 4832
344 66 5763
345 66 4264
346 66 5773
347 66 5181
348 66 3338
349 66 8008
350 66 4894
351 66 31
352 66 8205
354 66 8345
355 66 3894
356 66 6636
357 66 5235
358 66 2133
359 66 3520
360 66 6646
361 66 8338
362 66 3913
364 66 3963
365 66 2946
366 66 2860
367 66 6925
368 66 4893
369 66 5119
370 66 3907
371 66 3866
372 66 6745
373 66 8674
374 66 3132
375 66 11424
377 66 8199
378 66 5279
379 66 3596
380 66 4709
381 66 8373
382 66 8068
383 66 85
384 66 9132
385 66 2154
386 66 5215
388 66 5872
389 66 113
390 66 9365
391 66 4548
392 66 308
393 66 7759
394 66 6356
395 66 4967
396 66 3677
397 66 6073
398 66 6993
399 66 4136
400 66 9099
401 66 9486
402 66 3394
403 66 5303
404 66 3718
405 66 5024
411 66 3844
412 66 3933
413 66 2288
414 66 6370
415 66 7380
416 66 5550
417 66 9276
418 66 5055
419 66 3869
420 66 5986
423 66 9429
425 66 4047
426 66 7173
427 66 9461
428 66 5068
429 66 5424
430 66 4424
431 66 8485
432 66 5306
433 66 5784
434 66 5967
435 66 5288
436 66 6045
437 66 9198
439 66 3443
440 66 3499
441 66 3297
442 66 3207
443 66 2978
444 66 7265
446 66 6533
448 66 3612
449 66 9120
450 66 8224
451 66 4983
452 66 6774
453 66 6143
454 66 5060
455 66 6505
456 66 335
457 66 4206
459 66 6630
460 66 5744
462 66 6320
463 66 5529
464 66 10460
465 66 8743
466 66 8703
467 66 4960
469 66 8554
471 66 6527
472 66 4405
473 66 7891
474 66 6580
475 66 3422
476 66 5414
477 66 4350
478 66 5140
479 66 6739
480 66 443
481 66 6826
482 66 5832
483 66 5598
485 66 5247
486 66 4785
487 66 6717
488 66 7862
489 66 4498
490 66 5616
491 66 3384
492 66 5360
494 66 10496
496 66 7928
498 66 6846
499 66 5399
500 66 7795
1 67 5703
2 67 8517
3 67 8729
5 67 3812
6 67 8314
7 67 8553
8 67 6150
9 67 12851
10 67 7777
11 67 7731
12 67 7567
14 67 5135
15 67 6863
16 67 4103
17 67 7028
18 67 10784
19 67 12476
21 67 8414
22 67 8140
23 67 5381
24 67 6355
26 67 8467
27 67 10462
28 67 6358
29 67 1901
30 67 6315
31 67 14818
33 67 10702
34 67 4881
36 67 8620
37 67 6728
38 67 6464
39 67 4337
40 67 6641
41 67 8242
42 67 6855
43 67 12201
44 67 8832
45 67 8473
46 67 8342
47 67 8180
48 67 4877
49 67 7955
51 67 6536
52 67 6754
53 67 20884
54 67 3
55 67 6646
56 67 7041
57 67 8189
58 67 7565
59 67 6209
60 67 15968
61 67 6753
63 67 8403
65 67 10374
66 67 5855
67 67 8261
68 67 7505
69 67 6041
70 67 7533
72 67 12369
73 67 8891
74 67 6929
75 67 6264
76 67 10751
77 67 5890
78 67 5525
79 67 6139
81 67 6607
83 67 6511
84 67 9118
85 67 9197
86 67 11209
87 67 11339
88 67 8314
89 67 6433
90 67 7567
93 67 4127
94 67 10052
95 67 10516
96 67 10420
97 67 12921
98 67 10405
99 67 1511
100 67 14823
101 67 6235
102 67 3947
104 67 4970
105 67 4575
106 67 6317
108 67 6977
110 67 10947
111 67 10771
114 67 9751
115 67 9384
116 67 4424
117 67 4918
118 67 11222
121 67 5910
122 67 15113
124 67 4393
125 67 6507
126 67 13263
127 67 9480
128 67 7922
129 67 6097
130 67 10685
131 67 12576
132 67 5866
133 67 11899
134 67 4591
136 67 7260
137 67 14353
138 67 9528
139 67 6164
140 67 43
141 67 7106
142 67 7516
143 67 8123
144 67 10629
145 67 7223
146 67 12587
147 67 7171
148 67 6916
149 67 8855
150 67 7521
151 67 7293
152 67 9520
153 67 2765
154 67 8204
155 67 9325
156 67 5322
158 67 10171
159 67 12339
160 67 8595
161 67 11032
162 67 11085
163 67 7482
164 67 5672
165 67 8869
166 67 5330
168 67 65
169 67 4176
170 67 4586
171 67 4
173 67 9339
174 67 9981
175 67 12236
176 67 9882
177 67 10431
179 67 12629
181 67 6279
182 67 10775
185 67 7637
186 67 9198
187 67 6587
188 67 4698
189 67 6686
190 67 15409
191 67 12413
193 67 14534
194 67 7356
195 67 15688
196 67 3071
197 67 5594
199 67 12512
200 67 4813
202 67 5333
203 67 5541
204 67 6683
205 67 6280
206 67 4684
207 67 12067
208 67 14355
209 67 10856
210 67 7374
211 67 10794
212 67 7662
213 67 4939
214 67 6550
215 67 7391
216 67 2714
217 67 9941
218 67 10937
220 67 6478
222 67 12402
224 67 5842
225 67 10835
226 67 5413
227 67 5968
229 67 8630
231 67 7485
232 67 10644
233 67 4896
234 67 5195
235 67 6490
237 67 6155
238 67 15560
239 67 7778
240 67 8732
241 67 7177
242 67 8468
243 67 7461
245 67 5823
246 67 14511
247 67 11153
248 67 7
251 67 7427
252 67 4845
253 67 6240
254 67 10915
255 67 6729
256 67 12598
257 67 11856
258 67 7207
259 67 7733
260 67 11275
261 67 6674
263 67 8696
264 67 11890
265 67 5358
267 67 5400
268 67 6396
269 67 7153
270 67 11403
271 67 8004
272 67 4522
273 67 4769
274 67 11113
275 67 8483
276 67 8745
278 67 8320
279 67 10799
280 67 7285
281 67 6970
284 67 4430
285 67 17801
287 67 6930
288 67 10753
289 67 8648
290 67 113
291 67 9511
292 67 5210
293 67 7939
294 67 8791
295 67 4391
296 67 10200
297 67 2861
298 67 8197
299 67 3733
300 67 4328
301 67 4469
302 67 9831
303 67 10025
304 67 4846
305 67 8387
307 67 10516
308 67 2729
309 67 7958
310 67 7250
311 67 8182
312 67 8103
313 67 4749
314 67 7205
316 67 5941
317 67 10384
318 67 5651
319 67 5424
320 67 10136
321 67 2925
323 67 14839
324 67 7585
325 67 5828
326 67 14984
327 67 3309
328 67 7347
330 67 6682
331 67 9984
332 67 5715
334 67 13249
336 67 5750
337 67 9319
338 67 9045
339 67 5467
340 67 7039
342 67 7407
343 67 6143
344 67 10775
345 67 11374
346 67 4327
347 67 4606
348 67 8429
349 67 3782
350 67 10829
351 67 4
352 67 10993
354 67 7632
355 67 12398
356 67 6796
357 67 15226
358 67 4791
359 67 7330
360 67 9239
361 67 7650
362 67 8970
364 67 8102
365 67 9454
366 67 9261
367 67 13276
368 67 10514
369 67 10404
370 67 6764
371 67 10954
372 67 9343
373 67 6203
374 67 6393
375 67 7290
377 67 7358
378 67 16307
379 67 9007
380 67 3734
381 67 7703
382 67 7419
383 67 107
384 67 6605
385 67 3954
386 67 3937
388 67 9590
389 67 28
390 67 7859
391 67 8192
392 67 386
393 67 4392
394 67 14880
395 67 8582
396 67 5167
397 67 6305
398 67 6656
399 67 5305
400 67 8113
401 67 10811
402 67 7145
403 67 19943
404 67 5161
405 67 8803
411 67 7411
412 67 6430
413 67 7905
414 67 7070
415 67 10623
416 67 7243
417 67 9412
418 67 7989
419 67 6393
420 67 7846
423 67 7998
425 67 9346
426 67 10530
427 67 8491
428 67 10418
429 67 7379
430 67 4036
431 67 10248
432 67 4827
433 67 6540
434 67 4388
435 67 6204
436 67 4489
437 67 6347
439 67 9681
440 67 6279
441 67 7430
442 67 5879
443 67 6034
444 67 10491
446 67 8716
448 67 7040
449 67 8260
450 67 11089
451 67 4357
452 67 5687
453 67 6341
454 67 10474
455 67 7045
456 67 560
457 67 6777
459 67 8602
460 67 10717
462 67 4420
463 67 6326
464 67 9919
465 67 7436
466 67 7416
467 67 13679
469 67 9134
471 67 6519
472 67 11106
473 67 12353
474 67 14583
475 67 5861
476 67 9516
477 67 11170
478 67 7372
479 67 9407
480 67 1593
481 67 10105
482 67 9832
483 67 5059
485 67 7514
486 67 3918
487 67 7360
488 67 12441
489 67 7779
490 67 6652
491 67 7330
492 67 8695
494 67 5467
496 67 12444
498 67 9088
499 67 5548
500 67 5297
1 68 2779
2 68 3653
3 68 9441
5 68 2675
6 68 3930
7 68 4041
8 68 3955
9 68 2195
10 68 3150
11 68 4059
12 68 3100
14 68 3037
15 68 5380
16 68 6322
17 68 2421
18 68 6878
19 68 6768
21 68 3896
22 68 3711
23 68 4429
24 68 6338
26 68 3979
27 68 5129
28 68 3895
29 68 2550
30 68 7553
31 68 6526
33 68 2520
34 68 3317
36 68 2804
37 68 4594
38 68 4463
39 68 5162
40 68 6042
41 68 5788
42 68 3934
43 68 6851
44 68 3456
45 68 9649
46 68 6507
47 68 5638
48 68 6105
49 68 3680
51 68 5752
52 68 7491
53 68 7307
54 68 592
55 68 4587
56 68 4543
57 68 4771
58 68 3932
59 68 7617
60 68 4158
61 68 5731
63 68 2976
65 68 5010
66 68 7240
67 68 7274
68 68 5195
69 68 4584
70 68 4572
72 68 6298
73 68 7451
74 68 4849
75 68 7537
76 68 3157
77 68 6135
78 68 7690
79 68 6117
81 68 4210
82 68 5
83 68 3962
84 68 4854
85 68 6179
86 68 3596
87 68 4582
88 68 7121
89 68 5386
90 68 5032
93 68 3582
94 68 5744
95 68 4571
96 68 10710
97 68 6601
98 68 5152
99 68 1958
100 68 6579
101 68 9138
102 68 4144
104 68 3634
105 68 3285
106 68 7689
108 68 6984
110 68 4318
111 68 5116
114 68 5672
115 68 5099
116 68 5599
117 68 4812
118 68 7712
121 68 4508
122 68 4956
124 68 6471
125 68 4401
126 68 3308
127 68 3516
128 68 4641
129 68 3866
130 68 5119
131 68 5807
132 68 6152
133 68 5570
134 68 5194
136 68 3299
137 68 5339
138 68 4045
139 68 3713
140 68 1265
141 68 3961
142 68 4066
143 68 5494
144 68 11054
145 68 6212
146 68 6549
147 68 4518
148 68 4807
149 68 6622
150 68 5547
151 68 3635
152 68 3368
153 68 6479
154 68 3373
155 68 4846
156 68 6734
158 68 6798
159 68 6465
160 68 3760
161 68 3511
162 68 6266
163 68 5414
164 68 2510
165 68 13866
166 68 3287
168 68 1116
169 68 6213
170 68 5349
171 68 679
173 68 5759
174 68 4360
175 68 6337
176 68 6520
177 68 3798
178 68 62
179 68 6076
181 68 4277
182 68 3366
185 68 6801
186 68 6094
187 68 4315
188 68 7244
189 68 9561
190 68 2829
191 68 6775
193 68 5349
194 68 6058
195 68 6312
196 68 2560
197 68 3222
199 68 3973
200 68 6087
202 68 3615
203 68 4270
204 68 8658
205 68 8468
206 68 2536
207 68 3486
208 68 5273
209 68 5143
210 68 10230
211 68 5868
212 68 6208
213 68 5471
214 68 5644
215 68 3976
216 68 5141
217 68 3681
218 68 4402
219 68 13
220 68 3936
222 68 6321
224 68 5220
225 68 6938
226 68 6030
227 68 4940
229 68 6949
231 68 2972
232 68 4851
233 68 6271
234 68 5579
235 68 4611
237 68 2890
238 68 2529
239 68 7509
240 68 5883
241 68 4000
242 68 3664
243 68 7510
245 68 6006
246 68 7936
247 68 2936
248 68 366
249 68 16
251 68 4919
252 68 6425
253 68 7687
254 68 4736
255 68 4016
256 68 5815
257 68 5573
258 68 7909
259 68 6924
260 68 6202
261 68 9970
263 68 4736
264 68 5646
265 68 6116
267 68 3279
268 68 6247
269 68 4017
270 68 4052
271 68 4064
272 68 4412
273 68 5601
274 68 3342
275 68 3824
276 68 4763
278 68 2742
279 68 5203
280 68 6300
281 68 3851
284 68 5273
285 68 5000
286 68 4
287 68 7396
288 68 5314
289 68 3968
290 68 1841
291 68 4679
292 68 5225
293 68 7699
294 68 4967
295 68 5577
296 68 6483
297 68 2254
298 68 7149
299 68 5043
300 68 7262
301 68 3430
302 68 6643
303 68 3224
304 68 4840
305 68 5467
307 68 11278
308 68 4432
309 68 4505
310 68 3495
311 68 3582
312 68 5646
313 68 3449
314 68 4782
316 68 6094
317 68 4527
318 68 7502
319 68 6951
320 68 2988
321 68 2259
322 68 23
323 68 6698
324 68 5055
325 68 6503
326 68 6936
327 68 2569
328 68 3172
330 68 3167
331 68 7085
332 68 5233
334 68 3845
336 68 4876
337 68 3838
338 68 5752
339 68 2891
340 68 4432
342 68 3051
343 68 4513
344 68 5052
345 68 3430
346 68 3726
347 68 3384
348 68 3686
349 68 5459
350 68 6911
351 68 677
352 68 6263
354 68 6915
355 68 3479
356 68 5897
357 68 9769
358 68 4659
359 68 1664
360 68 5446
361 68 6996
362 68 5858
364 68 5454
365 68 4045
366 68 3774
367 68 4850
368 68 8178
369 68 5289
370 68 3300
371 68 5565
372 68 5615
373 68 6211
374 68 7650
375 68 3846
377 68 7309
378 68 7647
379 68 3170
380 68 3466
381 68 6897
382 68 5651
383 68 560
384 68 2985
385 68 5731
386 68 3721
388 68 4707
389 68 817
390 68 7610
391 68 4392
392 68 1473
393 68 5620
394 68 6824
395 68 9627
396 68 2474
397 68 4180
398 68 5734
399 68 6511
400 68 5866
401 68 5685
402 68 1683
403 68 5002
404 68 3013
405 68 3510
411 68 3142
412 68 3933
413 68 5428
414 68 6828
415 68 4772
416 68 10120
417 68 6413
418 68 3947
419 68 4434
420 68 4830
423 68 7773
425 68 6508
426 68 10982
427 68 7136
428 68 5321
429 68 4856
430 68 3565
431 68 7334
432 68 3323
433 68 5703
434 68 4752
435 68 6686
436 68 4915
437 68 6161
439 68 5892
440 68 4237
441 68 4166
442 68 3344
443 68 5894
444 68 11158
446 68 3984
448 68 3888
449 68 3484
450 68 6167
451 68 7308
452 68 4464
453 68 3008
454 68 6428
455 68 4940
456 68 3066
457 68 5822
459 68 4126
460 68 5172
462 68 5290
463 68 3803
464 68 6865
465 68 7248
466 68 7573
467 68 7590
469 68 7195
471 68 4258
472 68 3420
473 68 6285
474 68 7428
475 68 7061
476 68 4613
477 68 3516
478 68 5893
479 68 3558
480 68 1456
481 68 3844
482 68 6758
483 68 4658
485 68 5961
486 68 6528
487 68 3090
488 68 6301
489 68 5073
490 68 2450
491 68 4091
492 68 5354
494 68 5298
496 68 6355
498 68 6600
499 68 5895
500 68 6014
2 69 7
3 69 4
6 69 5
8 69 10
10 69 4
12 69 8
14 69 12
16 69 12
17 69 18
20 69 3
21 69 5
22 69 9
27 69 861
30 69 8
31 69 14
32 69 6
34 69 10
35 69 4
41 69 6691
42 69 10
45 69 2074
48 69 14
49 69 2
51 69 4
52 69 16
53 69 22
56 69 20
59 69 12
61 69 8
62 69 3
63 69 462
66 69 4
67 69 3581
69 69 10
70 69 5
75 69 10
76 69 12
78 69 2
80 69 2
81 69 4
83 69 6
87 69 602
88 69 4
89 69 254
92 69 17
94 69 3211
95 69 4
96 69 5
97 69 2
100 69 10
101 69 4510
102 69 7
103 69 4
106 69 5
113 69 5
114 69 3
115 69 4
118 69 5302
119 69 2
121 69 3382
122 69 5
123 69 11
125 69 11
127 69 294
128 69 62
132 69 4
136 69 6
138 69 5
141 69 7
143 69 5279
144 69 9
145 69 3253
147 69 9121
149 69 13
150 69 15
153 69 3
155 69 4838
157 69 1
158 69 9523
160 69 3
164 69 2
166 69 4
167 69 1
168 69 10
169 69 14
172 69 5
173 69 3782
174 69 3
181 69 5
182 69 2
185 69 7
186 69 3
187 69 2
188 69 14
189 69 478
190 69 6
195 69 1864
197 69 3
203 69 9096
204 69 8
206 69 4
207 69 4
210 69 13
211 69 4
213 69 20
214 69 5
218 69 5
220 69 2
223 69 1
224 69 5
229 69 5155
231 69 8
232 69 179
234 69 5
237 69 3
239 69 3
240 69 5888
243 69 3
246 69 1695
253 69 11
254 69 4
255 69 6544
257 69 7
258 69 7
259 69 9
260 69 4
261 69 5959
264 69 7
266 69 8
268 69 8
269 69 5
271 69 11
273 69 3
280 69 6632
281 69 4
284 69 6
285 69 4
286 69 4
287 69 26
292 69 107
293 69 2
294 69 1
296 69 2
297 69 2
298 69 15
300 69 2684
301 69 5
302 69 895
304 69 15
305 69 1246
306 69 1
307 69 13
309 69 3
310 69 7
313 69 9
316 69 6
317 69 3972
318 69 5
321 69 4
322 69 5
323 69 15
325 69 6
327 69 4
328 69 4
329 69 3
331 69 44
332 69 3
333 69 5
334 69 5
335 69 3
338 69 145
340 69 2
342 69 3
347 69 12
348 69 3
349 69 6
352 69 5
354 69 4
355 69 4
357 69 5
358 69 7
360 69 307
361 69 11
364 69 2728
365 69 3
367 69 586
369 69 4
370 69 1
371 69 5
372 69 299
373 69 3
374 69 13
375 69 6
376 69 3
377 69 3
381 69 12
388 69 5
389 69 5
390 69 5
391 69 7
394 69 6
395 69 2
397 69 13
398 69 617
400 69 11
401 69 90
404 69 8
408 69 2
409 69 1
411 69 6
412 69 5
413 69 4
414 69 4008
415 69 4
416 69 14
417 69 4586
418 69 7
419 69 6
420 69 3016
423 69 2
425 69 3
426 69 5
428 69 2
431 69 8782
432 69 9
433 69 9
434 69 9
435 69 7
436 69 6
437 69 3
438 69 11
439 69 5
444 69 4
445 69 2
447 69 5
450 69 3
451 69 2675
455 69 22
456 69 4
457 69 12
458 69 3
462 69 4
463 69 10
464 69 686
465 69 6
466 69 6
467 69 5
468 69 2
469 69 5426
474 69 2540
475 69 1
476 69 1
479 69 3211
480 69 5
481 69 2
482 69 940
483 69 133
486 69 5
493 69 3
494 69 2460
497 69 3
500 69 2272
1 70 751
2 70 1936
3 70 1267
4 70 709
5 70 541
6 70 1017
7 70 1123
8 70 462
9 70 361
10 70 200
11 70 1139
12 70 15
13 70 462
14 70 269
15 70 90
16 70 1492
17 70 396
18 70 420
19 70 5693
20 70 135
21 70 3
22 70 412
23 70 1257
24 70 3967
25 70 569
26 70 1107
27 70 1197
28 70 18
29 70 457
30 70 257
31 70 1014
32 70 369
33 70 982
34 70 1562
35 70 774
36 70 717
37 70 1365
38 70 198
39 70 1155
40 70 6
41 70 640
42 70 760
43 70 538
44 70 957
45 70 1676
46 70 73
47 70 1033
48 70 951
49 70 524
50 70 168
51 70 165
52 70 726
53 70 346
54 70 297
55 70 768
56 70 1093
57 70 219
58 70 214
59 70 251
60 70 481
61 70 70
62 70 661
63 70 921
64 70 790
65 70 439
66 70 577
67 70 420
68 70 156
69 70 1034
70 70 1312
71 70 481
72 70 796
73 70 781
74 70 816
75 70 246
76 70 1325
77 70 402
78 70 725
79 70 1625
80 70 200
81 70 962
82 70 347
83 70 339
84 70 55
85 70 8
86 70 1341
87 70 1567
88 70 689
89 70 1085
90 70 1279
91 70 302
92 70 1066
93 70 736
94 70 924
95 70 857
96 70 4890
97 70 24
98 70 428
99 70 780
100 70 1051
101 70 374
102 70 667
103 70 681
104 70 553
105 70 602
106 70 277
107 70 470
108 70 3
109 70 570
110 70 617
111 70 1024
112 70 541
113 70 1052
114 70 187
115 70 482
116 70 545
117 70 921
118 70 633
119 70 758
120 70 787
121 70 1718
122 70 769
123 70 521
124 70 1048
125 70 1239
126 70 1455
127 70 1712
128 70 948
129 70 396
130 70 1079
131 70 4693
132 70 38
133 70 417
134 70 679
135 70 481
136 70 294
137 70 663
138 70 98
139 70 56
140 70 540
141 70 1088
142 70 794
143 70 1616
144 70 1492
145 70 1604
146 70 5670
147 70 636
148 70 857
150 70 164
151 70 824
152 70 1456
153 70 810
154 70 462
155 70 348
156 70 3174
157 70 355
158 70 707
159 70 856
160 70 593
161 70 1277
162 70 23
163 70 495
164 70 789
165 70 155
166 70 523
167 70 436
168 70 675
169 70 1505
170 70 694
171 70 310
172 70 581
173 70 1002
174 70 26
175 70 813
176 70 1283
177 70 89
178 70 1157
179 70 4782
180 70 473
181 70 451
182 70 535
183 70 777
184 70 738
185 70 527
186 70 17
187 70 967
188 70 105
189 70 410
190 70 762
191 70 2119
192 70 153
193 70 641
194 70 600
195 70 1150
196 70 806
197 70 499
198 70 407
199 70 47
200 70 191
201 70 456
202 70 711
203 70 1241
204 70 324
205 70 4796
206 70 888
207 70 573
208 70 672
209 70 1043
210 70 1950
211 70 11
212 70 489
213 70 581
214 70 9
215 70 802
216 70 1090
217 70 882
218 70 890
219 70 656
220 70 334
221 70 359
222 70 794
223 70 338
224 70 935
225 70 428
226 70 1485
227 70 593
228 70 474
229 70 800
230 70 709
231 70 29
232 70 1089
233 70 439
234 70 1352
235 70 215
236 70 518
237 70 801
238 70 435
239 70 2124
240 70 1504
241 70 638
242 70 501
243 70 77
244 70 671
245 70 349
246 70 735
247 70 410
248 70 799
249 70 696
250 70 1115
251 70 993
252 70 849
253 70 270
254 70 2219
255 70 1911
256 70 116
257 70 33
258 70 4
259 70 550
260 70 504
261 70 1788
262 70 180
263 70 2463
264 70 39
265 70 1553
266 70 626
267 70 512
268 70 420
269 70 1045
270 70 18
271 70 637
272 70 258
273 70 71
274 70 1369
275 70 1182
276 70 355
277 70 757
278 70 90
279 70 1115
280 70 411
281 70 1157
282 70 450
283 70 457
284 70 346
285 70 51
286 70 241
287 70 647
288 70 947
289 70 1123
290 70 707
291 70 1093
292 70 1520
293 70 2325
294 70 1482
295 70 640
296 70 2
297 70 792
298 70 95
299 70 1762
300 70 1573
301 70 337
302 70 1801
303 70 72
304 70 620
305 70 305
306 70 1037
307 70 1514
308 70 1011
309 70 535
310 70 1247
311 70 532
312 70 1031
313 70 1110
314 70 535
315 70 361
316 70 4071
317 70 1428
318 70 720
319 70 3250
320 70 752
321 70 823
322 70 849
323 70 1149
324 70 172
325 70 29
326 70 74
327 70 697
328 70 292
329 70 1022
330 70 587
331 70 768
332 70 889
333 70 648
334 70 36
335 70 568
336 70 567
337 70 478
338 70 651
339 70 991
340 70 444
341 70 172
342 70 290
343 70 982
344 70 1111
345 70 1302
346 70 1057
347 70 238
348 70 1885
349 70 1250
350 70 421
351 70 281
352 70 552
353 70 1090
354 70 558
355 70 1038
356 70 8
357 70 3301
358 70 1017
359 70 916
360 70 1156
361 70 582
362 70 774
363 70 724
364 70 494
365 70 107
366 70 271
367 70 985
368 70 823
369 70 739
370 70 671
371 70 706
372 70 1136
373 70 4112
374 70 244
375 70 999
376 70 769
377 70 5715
378 70 946
379 70 620
380 70 1257
381 70 527
382 70 120
383 70 502
384 70 195
385 70 888
386 70 818
387 70 100
388 70 1122
389 70 242
390 70 2221
391 70 262
392 70 780
393 70 501
394 70 1101
395 70 1308
396 70 1152
397 70 232
398 70 1467
399 70 888
400 70 35
401 70 537
402 70 1023
403 70 873
404 70 1295
405 70 832
406 70 288
407 70 379
408 70 694
409 70 755
410 70 389
411 70 310
412 70 298
413 70 678
414 70 1085
415 70 983
416 70 2048
417 70 745
418 70 1169
419 70 424
420 70 778
421 70 444
422 70 409
423 70 2314
424 70 526
425 70 316
426 70 4932
427 70 334
428 70 702
429 70 466
430 70 723
431 70 1030
432 70 213
433 70 83
434 70 403
435 70 513
436 70 370
437 70 437
438 70 274
439 70 186
440 70 544
441 70 800
442 70 418
443 70 1018
444 70 5096
445 70 408
446 70 1105
447 70 597
448 70 610
449 70 698
450 70 590
451 70 1574
452 70 933
453 70 205
454 70 4120
455 70 380
456 70 1104
457 70 156
458 70 395
459 70 1068
460 70 1096
461 70 616
462 70 356
463 70 511
464 70 557
465 70 5949
466 70 6012
467 70 35
468 70 327
469 70 596
470 70 940
471 70 811
472 70 1394
473 70 848
474 70 1107
475 70 574
476 70 1789
477 70 1350
478 70 570
479 70 738
480 70 174
481 70 770
482 70 1828
483 70 1564
484 70 244
485 70 619
486 70 1208
487 70 885
488 70 776
489 70 1666
490 70 1143
491 70 227
492 70 624
493 70 349
494 70 1825
495 70 1009
496 70 873
497 70 648
499 70 887
500 70 1430
1 71 504
2 71 702
3 71 1634
4 71 906
5 71 1041
6 71 883
7 71 2115
8 71 1671
9 71 1237
10 71 1607
11 71 1328
12 71 1132
13 71 979
14 71 500
15 71 1707
16 71 1078
17 71 932
18 71 712
20 71 1037
21 71 1199
22 71 410
23 71 1085
24 71 5
25 71 587
26 71 2170
27 71 1589
28 71 1645
29 71 1537
30 71 1088
31 71 5
32 71 765
33 71 1760
34 71 2043
35 71 1061
36 71 1456
37 71 1564
38 71 1035
39 71 849
40 71 2413
41 71 2089
42 71 826
43 71 1202
44 71 1038
45 71 1588
46 71 2019
47 71 1211
48 71 1287
49 71 1500
50 71 683
51 71 2204
52 71 796
53 71 60
54 71 754
55 71 845
56 71 375
57 71 1029
58 71 750
59 71 1056
60 71 1709
61 71 654
62 71 971
63 71 1806
64 71 606
65 71 730
66 71 1411
67 71 1084
68 71 1509
69 71 1490
70 71 1010
71 71 690
72 71 1516
73 71 1979
74 71 991
75 71 1071
76 71 1841
77 71 1738
78 71 871
79 71 4
80 71 719
81 71 935
82 71 1045
83 71 644
84 71 1061
85 71 1727
86 71 622
87 71 519
88 71 1672
89 71 1397
90 71 1404
91 71 1047
92 71 1410
93 71 1273
94 71 414
95 71 772
97 71 1824
98 71 771
99 71 922
100 71 6
101 71 2739
102 71 1475
103 71 496
104 71 802
105 71 1014
106 71 1061
107 71 507
108 71 481
109 71 444
110 71 1547
111 71 2479
112 71 521
113 71 1760
114 71 1312
115 71 852
116 71 1013
117 71 248
118 71 1611
119 71 569
120 71 1099
121 71 2080
122 71 1838
123 71 1013
124 71 1914
125 71 1749
126 71 1668
127 71 1201
128 71 830
129 71 798
130 71 2510
132 71 2644
133 71 1534
134 71 632
135 71 462
136 71 1238
137 71 1088
138 71 618
139 71 1156
140 71 802
141 71 1532
142 71 2032
143 71 839
144 71 2458
145 71 1824
147 71 1759
148 71 990
149 71 1531
150 71 1150
151 71 1467
152 71 302
153 71 1154
154 71 293
155 71 2392
156 71 4
157 71 1100
158 71 727
159 71 1527
160 71 1287
161 71 628
162 71 2429
163 71 748
164 71 1437
165 71 1932
166 71 1359
167 71 880
168 71 851
169 71 1040
170 71 617
171 71 762
172 71 766
173 71 1439
174 71 2367
175 71 1547
176 71 1824
177 71 1812
178 71 1234
180 71 1232
181 71 1895
182 71 1348
183 71 653
184 71 731
185 71 2428
186 71 1014
187 71 982
188 71 3052
189 71 1530
190 71 1427
191 71 1775
192 71 963
193 71 1100
194 71 1316
195 71 777
196 71 1159
197 71 1307
198 71 580
199 71 826
200 71 1569
201 71 1477
202 71 1535
203 71 1821
204 71 1063
206 71 657
207 71 1242
208 71 1164
209 71 2500
210 71 889
211 71 1707
212 71 842
213 71 1439
214 71 1564
215 71 2019
216 71 2475
217 71 328
218 71 813
219 71 692
220 71 631
221 71 1595
222 71 1493
223 71 797
224 71 901
225 71 723
226 71 1821
227 71 936
228 71 500
229 71 2053
230 71 497
231 71 1214
232 71 2132
233 71 806
234 71 1355
235 71 1036
236 71 707
237 71 2096
238 71 1397
240 71 1951
241 71 763
242 71 1983
243 71 627
244 71 542
245 71 1770
246 71 1587
247 71 1504
248 71 1143
249 71 736
250 71 901
251 71 1886
252 71 633
253 71 1020
254 71 2274
255 71 2537
256 71 1821
257 71 1537
258 71 1866
259 71 2437
260 71 217
261 71 2044
262 71 708
263 71 19
264 71 1482
265 71 1924
266 71 743
267 71 1377
268 71 1965
269 71 1473
270 71 1262
271 71 840
272 71 1246
273 71 1036
274 71 661
275 71 2144
276 71 854
277 71 755
278 71 882
279 71 2515
280 71 700
281 71 607
282 71 546
283 71 1396
284 71 2140
285 71 1612
286 71 856
287 71 809
288 71 1722
289 71 2125
290 71 820
291 71 1610
292 71 800
294 71 1529
295 71 1286
296 71 1560
297 71 1250
298 71 1267
299 71 1559
300 71 1231
301 71 1260
302 71 2225
303 71 495
304 71 1553
305 71 2480
306 71 1073
307 71 2406
308 71 1889
309 71 1697
310 71 1634
311 71 2055
312 71 1258
313 71 1039
314 71 973
315 71 1613
316 71 23
317 71 1549
318 71 879
319 71 12
320 71 1260
321 71 1246
322 71 606
323 71 4
324 71 1573
325 71 1639
326 71 1260
327 71 1207
328 71 1241
329 71 633
330 71 968
331 71 260
332 71 985
333 71 563
334 71 1929
335 71 418
336 71 909
337 71 768
338 71 2182
339 71 637
340 71 1022
341 71 898
342 71 1216
343 71 614
344 71 2552
345 71 604
346 71 1095
347 71 995
348 71 718
349 71 1685
350 71 770
351 71 758
352 71 208
353 71 1272
354 71 2493
355 71 1384
356 71 2386
357 71 6
358 71 629
359 71 1860
360 71 390
361 71 2433
362 71 1566
363 71 833
364 71 994
365 71 630
366 71 592
367 71 2067
368 71 436
369 71 1122
370 71 953
371 71 1901
372 71 371
373 71 26
374 71 1049
375 71 1400
376 71 513
377 71 33
378 71 1982
379 71 1828
380 71 670
381 71 2433
382 71 1419
383 71 1140
384 71 1669
385 71 1062
386 71 1730
387 71 711
388 71 2054
389 71 923
391 71 1670
392 71 1656
393 71 1051
394 71 7
395 71 1634
396 71 822
397 71 1073
398 71 1647
399 71 1190
400 71 1463
401 71 1854
402 71 1867
403 71 1253
404 71 1176
405 71 1491
406 71 425
407 71 646
408 71 379
409 71 498
410 71 1195
411 71 1181
412 71 631
413 71 1681
414 71 1640
415 71 1046
416 71 883
417 71 765
418 71 1538
419 71 1515
420 71 1339
421 71 946
422 71 921
424 71 1082
425 71 956
427 71 1203
428 71 1207
429 71 937
430 71 1274
431 71 2034
432 71 992
433 71 605
434 71 295
435 71 1399
436 71 263
437 71 1830
438 71 875
439 71 1314
440 71 1048
441 71 2082
442 71 1411
443 71 1283
445 71 513
446 71 2139
447 71 1021
448 71 731
449 71 1071
450 71 217
451 71 1171
452 71 2239
453 71 1838
455 71 1414
456 71 929
457 71 2274
458 71 1060
459 71 2083
460 71 2519
461 71 1398
462 71 2333
463 71 1629
464 71 912
465 71 27
466 71 24
467 71 2184
468 71 739
469 71 2182
470 71 1726
471 71 957
472 71 631
473 71 1529
474 71 660
475 71 1439
476 71 1228
477 71 662
478 71 1243
479 71 1021
480 71 558
481 71 1424
482 71 2320
483 71 2561
484 71 643
485 71 1277
486 71 1021
487 71 948
488 71 1478
489 71 1639
490 71 1500
491 71 702
492 71 2179
493 71 940
494 71 1941
495 71 1027
496 71 1515
497 71 594
498 71 867
499 71 1625
500 71 1599
19 72 3265
24 72 930
31 72 2020
53 72 1145
79 72 2117
86 72 151
96 72 1971
100 72 2076
131 72 1981
146 72 3288
156 72 1928
161 72 157
179 72 2020
205 72 3009
239 72 3148
260 72 412
263 72 1464
274 72 164
293 72 3215
316 72 2098
319 72 1979
323 72 2051
345 72 167
352 72 437
357 72 1915
373 72 2063
377 72 3454
390 72 3183
394 72 1996
423 72 3174
426 72 2031
444 72 2134
450 72 456
454 72 1663
465 72 3471
466 72 3419
472 72 147
477 72 148
19 73 5265
24 73 3739
31 73 1495
53 73 2075
79 73 4816
86 73 4
96 73 6487
100 73 1482
131 73 2752
146 73 5373
156 73 5023
161 73 6
179 73 2838
205 73 2770
239 73 1498
260 73 82
263 73 2799
274 73 3
293 73 1469
316 73 5949
319 73 5102
323 73 1522
345 73 6
352 73 92
357 73 1535
373 73 5830
377 73 4076
390 73 1482
394 73 1571
423 73 1490
426 73 6592
444 73 6459
450 73 68
454 73 5224
465 73 4122
466 73 4076
472 73 6
477 73 9
19 74 14555
24 74 19618
31 74 11499
53 74 4573
79 74 21348
84 74 2
96 74 10907
100 74 11461
131 74 14281
146 74 14581
156 74 7072
179 74 14368
205 74 8085
239 74 9466
260 74 141
263 74 14679
293 74 9356
301 74 5
316 74 15321
319 74 6953
323 74 11478
352 74 132
355 74 2
357 74 21333
373 74 15388
377 74 9489
390 74 9425
394 74 11644
423 74 9466
426 74 11389
444 74 11558
450 74 154
454 74 7094
465 74 9742
466 74 9785
19 75 32269
24 75 16511
31 75 11350
53 75 8132
78 75 4
79 75 32107
86 75 209
96 75 29618
100 75 11450
131 75 11621
146 75 32487
156 75 10712
161 75 211
168 75 3
173 75 13
179 75 11759
205 75 20851
239 75 24750
260 75 3461
263 75 14004
274 75 221
293 75 25235
316 75 16818
318 75 2
319 75 10723
322 75 2
323 75 11474
345 75 241
352 75 3425
357 75 16975
373 75 17017
377 75 21225
390 75 25023
394 75 11426
423 75 25086
426 75 30618
444 75 30884
450 75 3420
454 75 41839
465 75 21275
466 75 21244
472 75 221
477 75 235
10 76 3824
12 76 7382
15 76 11030
21 76 3432
28 76 5159
38 76 5338
40 76 6700
46 76 7791
48 76 211
51 76 6879
61 76 3850
69 76 4
81 76 1989
84 76 4372
85 76 4251
97 76 5224
108 76 4355
122 76 61
124 76 3107
126 76 1393
132 76 4334
139 76 3311
149 76 5056
150 76 2303
162 76 3462
165 76 3263
174 76 4943
176 76 824
177 76 5305
186 76 6341
187 76 1969
188 76 4814
190 76 23
199 76 3648
211 76 5893
214 76 4933
224 76 66
231 76 7434
234 76 1688
235 76 5445
243 76 3597
256 76 2961
257 76 5934
258 76 4744
264 76 5990
270 76 3280
273 76 6435
278 76 4166
284 76 3445
285 76 6175
296 76 5227
298 76 4993
299 76 504
303 76 4654
304 76 85
325 76 3302
326 76 3228
332 76 67
334 76 4827
356 76 6666
371 76 114
382 76 5599
386 76 3348
399 76 11
400 76 4441
415 76 3246
427 76 3153
433 76 3943
453 76 3411
457 76 6526
462 76 3369
467 76 5199
476 76 5042
498 76 4798
1 77 2790
2 77 3964
3 77 2798
4 77 1470
5 77 2265
6 77 2405
7 77 1987
8 77 3471
9 77 2767
10 77 6
11 77 4044
12 77 4
13 77 1997
14 77 2001
15 77 37
16 77 2967
17 77 2899
18 77 4231
19 77 5653
20 77 1346
21 77 13
22 77 3355
23 77 1951
24 77 3930
25 77 1624
26 77 1978
27 77 5662
28 77 4
29 77 3986
30 77 2621
31 77 5483
32 77 3352
33 77 4531
34 77 3244
35 77 2459
36 77 2965
37 77 3557
38 77 37
39 77 3294
40 77 11
41 77 4630
42 77 2355
43 77 2473
44 77 1935
45 77 3248
47 77 4500
48 77 3307
49 77 1868
50 77 2887
51 77 5
52 77 2915
53 77 3642
54 77 1565
55 77 4680
56 77 2608
57 77 3148
58 77 2284
59 77 2762
60 77 3119
61 77 29
62 77 1667
63 77 3602
64 77 2407
65 77 2120
66 77 2879
67 77 2382
68 77 3163
69 77 2817
70 77 5029
71 77 2344
72 77 2888
73 77 2742
74 77 1788
75 77 2642
76 77 2594
77 77 3265
78 77 3433
79 77 7053
80 77 1274
81 77 1829
82 77 3259
83 77 2203
84 77 5
85 77 1
86 77 3411
87 77 3522
88 77 1802
89 77 4449
90 77 2803
91 77 1674
92 77 2327
93 77 2318
94 77 5409
95 77 2016
96 77 7397
97 77 40
98 77 2110
99 77 1523
100 77 5663
101 77 4609
102 77 3209
103 77 1881
104 77 2308
105 77 3470
106 77 2592
107 77 1293
108 77 5
109 77 1606
110 77 1430
111 77 2832
112 77 1768
113 77 2290
114 77 1436
115 77 3090
116 77 4089
117 77 3096
118 77 3081
119 77 2340
120 77 1076
121 77 3413
122 77 2105
123 77 1050
124 77 313
125 77 3460
126 77 616
127 77 5138
128 77 4729
129 77 2891
130 77 2749
131 77 3690
132 77 1
133 77 2794
134 77 2530
135 77 1224
136 77 2498
137 77 3488
138 77 2064
140 77 2036
141 77 2969
142 77 2494
143 77 3093
144 77 3549
145 77 5063
146 77 5630
147 77 3368
148 77 1902
149 77 45
150 77 178
151 77 6495
152 77 3079
153 77 2075
154 77 2550
155 77 4453
156 77 1750
157 77 2442
158 77 2136
159 77 2988
160 77 4371
161 77 3455
162 77 10
163 77 2710
164 77 1555
165 77 66
166 77 1390
167 77 1069
168 77 1700
169 77 2938
170 77 2450
171 77 1587
172 77 1095
173 77 4572
174 77 79
175 77 2846
176 77 2272
177 77 22
178 77 1551
179 77 3677
180 77 1944
181 77 3300
182 77 1762
183 77 1854
184 77 1121
185 77 2660
186 77 4
187 77 1801
188 77 29
189 77 3745
190 77 2620
191 77 3676
192 77 2045
193 77 3457
194 77 3636
195 77 5112
196 77 2214
197 77 2298
198 77 2648
199 77 6
200 77 2935
201 77 4361
202 77 2907
203 77 4544
204 77 2768
205 77 3694
206 77 2646
207 77 3630
208 77 3445
209 77 2768
210 77 2711
212 77 2315
213 77 3105
214 77 8
215 77 2393
216 77 4096
217 77 2383
218 77 2252
219 77 1589
220 77 2159
221 77 1029
222 77 2992
223 77 3503
224 77 2596
225 77 4301
226 77 3877
227 77 3185
228 77 1278
229 77 5366
230 77 1745
231 77 2
232 77 3458
233 77 3307
234 77 162
235 77 32
236 77 1344
237 77 3728
238 77 2180
239 77 3366
240 77 5231
241 77 2805
242 77 2538
243 77 11
244 77 2098
245 77 3246
246 77 5062
247 77 3621
248 77 1507
249 77 1590
250 77 2341
251 77 3179
252 77 3092
253 77 2568
254 77 4407
255 77 5276
256 77 21
257 77 8
259 77 2679
260 77 3349
261 77 3541
262 77 2790
263 77 3891
264 77 11
265 77 3902
266 77 1117
267 77 1397
268 77 6026
269 77 2967
270 77 6
271 77 2088
272 77 1737
273 77 4
274 77 3419
275 77 2014
276 77 2563
277 77 2234
278 77 5
279 77 2843
280 77 4242
281 77 4577
282 77 1840
283 77 2554
284 77 4
285 77 49
286 77 2069
287 77 2955
288 77 3274
289 77 2040
290 77 2047
291 77 2870
292 77 4353
293 77 3394
294 77 2703
295 77 3372
296 77 36
297 77 3117
298 77 3
299 77 1035
300 77 3663
301 77 2125
302 77 3703
303 77 46
304 77 1080
305 77 5336
306 77 2104
307 77 3708
308 77 3896
309 77 5351
310 77 1826
311 77 2550
312 77 4479
313 77 2683
314 77 2813
315 77 1120
316 77 4448
317 77 4025
318 77 3395
319 77 1766
320 77 2058
321 77 3238
322 77 3284
323 77 5594
324 77 3052
325 77 5
326 77 6
327 77 1949
328 77 2422
329 77 1053
330 77 2347
331 77 3987
332 77 2803
333 77 2336
334 77 2
335 77 1310
336 77 3236
337 77 4007
338 77 3875
339 77 2399
340 77 4261
341 77 2057
342 77 2497
343 77 3105
344 77 2826
345 77 3498
346 77 2417
347 77 3254
348 77 4055
349 77 3972
350 77 4304
351 77 1555
352 77 3299
353 77 2450
354 77 2714
355 77 3845
356 77 20
357 77 2602
358 77 2743
359 77 2212
360 77 3820
361 77 2690
362 77 4570
363 77 918
364 77 5029
365 77 2033
366 77 1287
367 77 5063
368 77 2934
369 77 2916
370 77 2580
371 77 1177
372 77 3689
373 77 4463
374 77 2632
375 77 2113
376 77 1838
377 77 5108
378 77 3412
379 77 2353
380 77 2892
381 77 2832
382 77 5
383 77 2489
384 77 4175
385 77 3080
386 77 94
387 77 1964
388 77 5192
389 77 2066
390 77 3341
391 77 3453
392 77 2308
393 77 4007
394 77 5749
395 77 2802
396 77 2413
397 77 2532
398 77 3188
399 77 2609
400 77 59
401 77 4895
402 77 2269
403 77 2535
404 77 2194
405 77 2547
406 77 1324
407 77 2730
408 77 1307
409 77 1941
410 77 2216
411 77 2477
412 77 2236
413 77 1869
414 77 3959
415 77 137
416 77 2840
417 77 3437
418 77 2418
419 77 3892
420 77 5487
421 77 1362
422 77 1801
423 77 3333
424 77 2097
425 77 1929
426 77 7844
427 77 133
428 77 2994
429 77 2861
430 77 2431
431 77 4899
432 77 3250
433 77 45
434 77 1493
435 77 3576
436 77 1492
437 77 5989
438 77 1544
439 77 1513
440 77 2388
441 77 2437
442 77 3593
443 77 2891
444 77 7886
445 77 1081
446 77 1961
447 77 1657
448 77 2768
449 77 3462
450 77 3416
451 77 3603
452 77 5529
453 77 33
454 77 4371
455 77 2821
456 77 3734
458 77 2039
459 77 2062
460 77 2873
461 77 2902
462 77 5
463 77 3376
464 77 5692
465 77 5142
466 77 5207
467 77 3
468 77 2198
469 77 5435
470 77 3382
471 77 2228
472 77 3524
473 77 3028
474 77 2338
475 77 2730
476 77 160
477 77 3485
478 77 3671
479 77 2955
480 77 3107
481 77 3155
482 77 3734
483 77 4017
484 77 949
485 77 3670
486 77 4020
487 77 2878
488 77 2956
489 77 4158
490 77 3699
491 77 2315
492 77 5592
493 77 2544
494 77 3340
495 77 982
496 77 2971
497 77 2325
499 77 2923
500 77 5169
10 78 4874
12 78 4099
15 78 6079
21 78 3433
28 78 6932
37 78 68
38 78 5391
40 78 5116
46 78 3526
48 78 319
51 78 4536
52 78 11
61 78 6250
81 78 2397
84 78 5552
85 78 4381
97 78 3449
108 78 3450
122 78 2205
124 78 4231
126 78 3431
132 78 3580
139 78 4491
149 78 4349
150 78 3615
162 78 4542
165 78 5334
174 78 4236
176 78 3869
177 78 4461
186 78 5158
187 78 2413
188 78 4336
190 78 1
191 78 537
199 78 5035
207 78 15
211 78 5329
212 78 24
214 78 3917
224 78 1374
231 78 4035
234 78 1794
235 78 5586
243 78 4951
256 78 6925
257 78 4796
258 78 7016
264 78 4727
270 78 4173
273 78 4930
278 78 5740
284 78 3041
285 78 3923
287 78 11
291 78 899
296 78 5156
298 78 3745
299 78 4347
303 78 4165
304 78 3211
325 78 3869
326 78 4909
332 78 1300
334 78 6292
356 78 5167
371 78 2582
382 78 5957
386 78 3147
399 78 2201
400 78 6296
415 78 3560
427 78 5240
433 78 6151
453 78 5475
457 78 7804
462 78 3163
467 78 5534
476 78 3804
498 78 3912
10 79 4798
12 79 3971
15 79 6526
16 79 2
21 79 7897
28 79 7079
31 79 4
38 79 5204
40 79 5052
46 79 5018
48 79 39
51 79 5333
61 79 4476
81 79 863
84 79 2132
85 79 4929
97 79 3718
100 79 8
108 79 5233
122 79 85
124 79 3750
126 79 1196
132 79 5133
139 79 3371
149 79 3177
150 79 1868
162 79 4772
165 79 3650
169 79 7
174 79 5430
176 79 138
177 79 2779
183 79 5
186 79 5940
187 79 876
188 79 5868
190 79 20
199 79 9305
211 79 5895
212 79 9
214 79 5104
224 79 39
231 79 3966
234 79 901
235 79 5255
243 79 5815
256 79 3812
257 79 7535
258 79 7063
264 79 7489
270 79 5184
273 79 5517
278 79 4594
284 79 5608
285 79 4157
296 79 3934
298 79 8249
299 79 361
301 79 3
303 79 2140
304 79 54
323 79 2
325 79 7079
326 79 4804
332 79 41
334 79 3142
335 79 1
356 79 4923
371 79 11
382 79 5696
386 79 2904
394 79 4
399 79 3
400 79 2930
415 79 4320
427 79 1825
433 79 4436
453 79 3187
457 79 6960
462 79 5407
467 79 4621
476 79 2219
498 79 4242
1 80 1291
2 80 1388
3 80 1878
5 80 1850
6 80 1897
7 80 2519
8 80 2859
9 80 2234
10 80 1936
11 80 2354
12 80 1350
14 80 1251
15 80 1130
16 80 1909
17 80 395
18 80 2111
19 80 2741
21 80 2627
22 80 2522
23 80 3
24 80 2744
26 80 2637
27 80 2123
28 80 3983
30 80 1872
31 80 1290
33 80 985
34 80 2032
36 80 1288
37 80 1695
38 80 2507
39 80 1953
40 80 1809
41 80 3231
42 80 2084
43 80 921
44 80 2599
45 80 2288
46 80 1454
47 80 2296
48 80 1922
49 80 1881
51 80 3251
52 80 2014
53 80 2581
55 80 98
56 80 1869
57 80 1374
58 80 1229
59 80 1960
60 80 2208
61 80 1620
63 80 3778
65 80 594
66 80 2404
67 80 1793
68 80 611
69 80 693
70 80 1572
72 80 2809
73 80 1725
74 80 2084
75 80 1897
76 80 1838
77 80 961
78 80 1674
79 80 1833
81 80 1404
83 80 1650
84 80 1567
85 80 2857
86 80 2517
87 80 2522
88 80 1218
89 80 1416
90 80 1966
93 80 271
94 80 1602
95 80 579
96 80 1614
97 80 2233
98 80 554
99 80 5
100 80 1272
101 80 1515
102 80 997
104 80 1155
105 80 485
106 80 1911
108 80 1179
110 80 1597
111 80 3391
114 80 1707
115 80 467
116 80 1669
117 80 1335
118 80 932
121 80 2639
122 80 1980
124 80 1731
125 80 1843
126 80 2577
127 80 2325
128 80 1386
129 80 2187
130 80 3331
131 80 2434
132 80 2562
133 80 1763
134 80 1464
136 80 1299
137 80 1603
138 80 1147
139 80 1445
141 80 2332
142 80 1007
143 80 1507
144 80 664
145 80 1882
146 80 2734
147 80 2463
148 80 2160
149 80 1606
150 80 2545
151 80 1996
152 80 1973
153 80 1285
154 80 385
155 80 1530
156 80 1446
158 80 1177
159 80 2753
160 80 1187
161 80 2454
162 80 3291
163 80 939
164 80 1829
165 80 2434
166 80 1112
168 80 3
169 80 1905
170 80 1507
173 80 4021
174 80 1535
175 80 2642
176 80 2640
177 80 3334
179 80 2482
181 80 2330
182 80 813
185 80 3287
186 80 2106
187 80 1315
188 80 1106
189 80 2697
190 80 2503
191 80 1291
193 80 1557
194 80 1414
195 80 3084
196 80 1751
197 80 179
199 80 1576
200 80 986
202 80 825
203 80 1625
204 80 1824
205 80 874
206 80 1554
207 80 1961
208 80 1487
209 80 3287
210 80 1472
211 80 1001
212 80 1356
213 80 2057
214 80 2168
215 80 1007
216 80 1808
217 80 1442
218 80 947
220 80 1802
222 80 2887
224 80 1904
225 80 2229
226 80 2217
227 80 1029
229 80 3941
231 80 1389
232 80 1387
233 80 1271
234 80 941
235 80 2512
237 80 1267
238 80 26
239 80 1543
240 80 2513
241 80 2599
242 80 1505
243 80 1472
245 80 961
246 80 1752
247 80 1467
251 80 1876
252 80 1296
253 80 1940
254 80 1015
255 80 1908
256 80 1476
257 80 1651
258 80 3173
259 80 3322
260 80 1981
261 80 3406
263 80 1137
264 80 1810
265 80 2189
267 80 981
268 80 2471
269 80 2391
270 80 1908
271 80 1960
272 80 1135
273 80 2025
274 80 2631
275 80 2545
276 80 1943
278 80 1621
279 80 3384
280 80 2695
281 80 925
284 80 1618
285 80 2165
287 80 1993
288 80 1397
289 80 2448
291 80 1563
292 80 1197
293 80 1636
294 80 1385
295 80 2679
296 80 1922
297 80 1478
298 80 2912
299 80 2152
300 80 1883
302 80 3288
303 80 3357
304 80 2984
305 80 1275
307 80 647
308 80 434
309 80 1894
310 80 2118
311 80 1506
312 80 2224
313 80 2428
314 80 288
316 80 2625
317 80 2509
318 80 1794
319 80 1528
320 80 566
321 80 1499
323 80 1322
324 80 609
325 80 1667
326 80 1510
327 80 77
328 80 1223
330 80 1291
331 80 1083
332 80 2048
334 80 1578
336 80 991
337 80 1192
338 80 2129
339 80 964
340 80 2156
342 80 1217
343 80 1907
344 80 3384
345 80 2419
346 80 1745
347 80 1254
348 80 1325
349 80 964
350 80 2232
352 80 2028
354 80 3337
355 80 1310
356 80 1832
357 80 1297
358 80 16
359 80 2557
360 80 2440
361 80 3281
362 80 1174
364 80 1975
365 80 1166
366 80 1845
367 80 3669
368 80 2700
369 80 381
370 80 1388
371 80 2173
372 80 2507
373 80 2690
374 80 2055
375 80 2170
377 80 3904
378 80 600
379 80 893
380 80 1774
381 80 3317
382 80 2766
384 80 1558
385 80 1168
386 80 2079
388 80 1423
390 80 1589
391 80 1206
393 80 1747
394 80 1317
395 80 1925
396 80 1589
397 80 1175
398 80 2003
399 80 1207
400 80 2130
401 80 1367
402 80 2497
403 80 1460
404 80 1232
405 80 2264
411 80 1207
412 80 1762
413 80 173
414 80 2534
415 80 2522
416 80 1443
417 80 1481
418 80 1967
419 80 1922
420 80 2034
423 80 1735
425 80 772
426 80 1635
427 80 1653
428 80 446
429 80 300
430 80 288
431 80 2736
432 80 1218
433 80 1636
434 80 1241
435 80 957
436 80 1147
437 80 2420
439 80 1722
440 80 657
441 80 903
442 80 316
443 80 327
444 80 1708
446 80 2510
448 80 2650
449 80 2017
450 80 1962
451 80 1849
452 80 2017
453 80 2616
454 80 2761
455 80 1732
457 80 3259
459 80 2511
460 80 3379
462 80 1654
463 80 2917
464 80 1242
465 80 4014
466 80 3931
467 80 3344
469 80 4107
471 80 1046
472 80 2499
473 80 2773
474 80 1868
475 80 2464
476 80 1927
477 80 2535
478 80 1435
479 80 2780
480 80 7
481 80 1382
482 80 3446
483 80 2203
485 80 1382
486 80 1580
487 80 2637
488 80 2862
489 80 2407
490 80 1539
491 80 1200
492 80 1354
494 80 2102
496 80 2841
498 80 2121
499 80 989
500 80 3078
2 81 10
3 81 2
4 81 13467
5 81 7
6 81 3
9 81 3
10 81 17
11 81 15
13 81 9586
15 81 14
16 81 2
17 81 91
18 81 4
19 81 18
20 81 11039
22 81 9
23 81 4202
24 81 8
25 81 11907
29 81 12607
30 81 12
32 81 24733
33 81 12
35 81 10829
42 81 4
43 81 3
46 81 14
48 81 30
49 81 7
50 81 9809
51 81 4
52 81 21
53 81 2
54 81 24040
55 81 497
56 81 2
57 81 3
58 81 47
59 81 6
60 81 3
61 81 15
62 81 24656
64 81 32417
65 81 13
66 81 5
68 81 19
69 81 79
71 81 24393
72 81 9
73 81 10
74 81 17
75 81 9
76 81 16
77 81 6
80 81 16380
82 81 13827
83 81 30
84 81 5
85 81 16
86 81 10
91 81 20154
92 81 15807
93 81 34
95 81 11
97 81 9
98 81 16
99 81 6182
102 81 4
103 81 10826
104 81 7
105 81 36
106 81 11
107 81 8733
109 81 19106
111 81 9
112 81 11606
113 81 16051
114 81 36
115 81 48
117 81 13
119 81 8832
120 81 17129
122 81 10
123 81 23104
125 81 35
126 81 22
129 81 8
130 81 13
131 81 3
132 81 59
133 81 2
134 81 117
135 81 15928
136 81 31
137 81 3
138 81 3
139 81 7
140 81 12263
141 81 7
142 81 92
144 81 30
146 81 12
148 81 19
149 81 16
150 81 5
151 81 3
152 81 31
153 81 96
154 81 10
156 81 82
157 81 9879
159 81 7
160 81 14
161 81 7
162 81 10
163 81 232
164 81 6
165 81 9
166 81 5
167 81 9863
168 81 11948
169 81 5
170 81 94
171 81 23999
172 81 13712
174 81 13
175 81 11
176 81 2
178 81 11898
179 81 5
180 81 10104
182 81 33
183 81 17755
184 81 11289
188 81 3
191 81 14
192 81 25326
193 81 4
194 81 67
196 81 20
197 81 181
198 81 12721
199 81 3
200 81 20
201 81 13027
202 81 3
204 81 17
205 81 20
206 81 37
208 81 1
209 81 5
210 81 19
211 81 2
212 81 39
213 81 31
214 81 12
215 81 71
217 81 6
218 81 54
219 81 10769
220 81 34
221 81 15415
222 81 11
223 81 24564
224 81 7
225 81 4
226 81 2
227 81 33
228 81 15956
230 81 18994
233 81 6
234 81 43
236 81 20295
238 81 398
241 81 10
242 81 3
243 81 30
244 81 9904
245 81 3
248 81 26130
249 81 10915
250 81 17306
253 81 10
254 81 5
256 81 4
257 81 5
258 81 6
262 81 9883
264 81 3
265 81 4
266 81 14085
267 81 5
269 81 12
270 81 5
271 81 20
272 81 3
273 81 34
274 81 8
276 81 7
277 81 19475
279 81 13
281 81 2
282 81 25101
283 81 7558
286 81 24100
287 81 18
288 81 14
290 81 28227
291 81 8
297 81 3
298 81 15
301 81 4273
303 81 13
304 81 4
306 81 26937
307 81 27
308 81 255
311 81 2
313 81 4
314 81 43
315 81 15229
316 81 6
319 81 76
320 81 2
321 81 3
322 81 14457
324 81 16
325 81 4
327 81 1385
328 81 27
329 81 18834
330 81 35
332 81 6
333 81 16874
334 81 5
335 81 7318
336 81 42
337 81 143
339 81 4
340 81 3
341 81 15531
342 81 26
343 81 11
344 81 8
345 81 9
346 81 5
348 81 9
350 81 2
351 81 24299
353 81 5570
355 81 14
358 81 2531
359 81 3
363 81 10361
365 81 3
366 81 40
369 81 29
371 81 36
373 81 5
374 81 16
375 81 4
376 81 27016
377 81 4
378 81 10
379 81 8
380 81 11
382 81 1
383 81 19748
385 81 10
387 81 26525
389 81 23765
391 81 6
392 81 21243
393 81 2
395 81 3
396 81 4
397 81 20
399 81 11
400 81 30
402 81 3
403 81 1
405 81 4
406 81 8296
407 81 12858
408 81 18321
409 81 10859
410 81 19121
411 81 28
412 81 39
413 81 45
415 81 21
416 81 22
418 81 14
421 81 8296
422 81 12148
424 81 21150
425 81 12
427 81 15
428 81 21
429 81 44
430 81 36
433 81 21
434 81 9
435 81 6
436 81 8
438 81 28674
439 81 46
440 81 10
441 81 76
442 81 99
443 81 101
445 81 7977
447 81 7974
448 81 12
452 81 17
454 81 3
456 81 4267
458 81 18153
460 81 12
461 81 20924
465 81 4
466 81 3
468 81 6657
470 81 10156
471 81 7
472 81 12
473 81 8
475 81 4
477 81 11
478 81 70
480 81 10606
484 81 19021
485 81 64
486 81 8
487 81 22
488 81 10
489 81 36
490 81 3
491 81 44
492 81 23
493 81 11603
495 81 21780
496 81 8
497 81 16928
498 81 16
499 81 38
1 82 1802
2 82 705
3 82 1506
5 82 671
6 82 284
7 82 564
8 82 1025
9 82 1395
10 82 991
11 82 1276
12 82 666
14 82 926
15 82 590
16 82 707
17 82 1313
18 82 1441
19 82 1146
21 82 1492
22 82 556
23 82 733
24 82 775
26 82 518
27 82 932
28 82 1090
29 82 276
30 82 1768
31 82 370
33 82 437
34 82 395
36 82 944
37 82 812
38 82 1500
39 82 654
40 82 676
41 82 317
42 82 957
43 82 543
44 82 1341
45 82 1064
46 82 1168
47 82 1147
48 82 1016
49 82 546
51 82 1121
52 82 313
53 82 2021
54 82 31
55 82 531
56 82 959
57 82 1311
58 82 1145
59 82 1755
60 82 1415
61 82 1470
63 82 812
65 82 1033
66 82 867
67 82 1741
68 82 1245
69 82 721
70 82 1519
72 82 933
73 82 1262
74 82 197
75 82 1755
76 82 414
77 82 702
78 82 242
79 82 1892
81 82 1275
83 82 582
84 82 1867
85 82 778
86 82 1043
87 82 1538
88 82 832
89 82 1519
90 82 1212
93 82 858
94 82 719
95 82 581
96 82 783
97 82 1673
98 82 970
99 82 529
100 82 356
101 82 1366
102 82 850
104 82 804
105 82 697
106 82 1755
108 82 1476
110 82 1115
111 82 732
114 82 902
115 82 264
116 82 1331
117 82 652
118 82 318
121 82 2266
122 82 1478
124 82 851
125 82 1094
126 82 318
127 82 751
128 82 1289
129 82 957
130 82 696
131 82 1346
132 82 825
133 82 483
134 82 797
136 82 424
137 82 716
138 82 586
139 82 1243
140 82 577
141 82 977
142 82 653
143 82 1285
144 82 1404
145 82 1855
146 82 1131
147 82 866
148 82 195
149 82 560
150 82 578
151 82 663
152 82 762
153 82 255
154 82 1247
155 82 1756
156 82 341
158 82 940
159 82 910
160 82 554
161 82 1012
162 82 479
163 82 515
164 82 865
165 82 1580
166 82 1603
168 82 328
169 82 754
170 82 762
171 82 40
173 82 689
174 82 1224
175 82 889
176 82 595
177 82 837
179 82 1359
181 82 1259
182 82 998
185 82 632
186 82 1835
187 82 1298
188 82 674
189 82 992
190 82 968
191 82 788
193 82 655
194 82 1230
195 82 1315
196 82 602
197 82 296
199 82 846
200 82 961
202 82 875
203 82 1893
204 82 862
205 82 2045
206 82 691
207 82 1032
208 82 696
209 82 752
210 82 224
211 82 1051
212 82 1113
213 82 971
214 82 1035
215 82 660
216 82 723
217 82 1217
218 82 631
220 82 628
222 82 915
224 82 1734
225 82 1454
226 82 1411
227 82 171
229 82 676
231 82 639
232 82 349
233 82 1068
234 82 1579
235 82 1483
237 82 416
238 82 303
239 82 986
240 82 161
241 82 963
242 82 1079
243 82 1925
245 82 723
246 82 660
247 82 336
248 82 16
251 82 229
252 82 356
253 82 1736
254 82 613
255 82 783
256 82 595
257 82 1277
258 82 580
259 82 667
260 82 262
261 82 1485
263 82 1666
264 82 1303
265 82 1323
267 82 1629
268 82 708
269 82 980
270 82 984
271 82 739
272 82 910
273 82 1424
274 82 1016
275 82 551
276 82 603
278 82 2495
279 82 716
280 82 748
281 82 849
284 82 1721
285 82 541
287 82 323
288 82 1023
289 82 509
290 82 164
291 82 648
292 82 647
293 82 976
294 82 1030
295 82 420
296 82 545
297 82 404
298 82 1033
299 82 873
300 82 1774
301 82 508
302 82 836
303 82 125
304 82 1430
305 82 1914
307 82 1463
308 82 675
309 82 788
310 82 1013
311 82 1117
312 82 1121
313 82 768
314 82 709
316 82 1556
317 82 1550
318 82 222
319 82 380
320 82 936
321 82 438
323 82 374
324 82 1206
325 82 386
326 82 526
327 82 438
328 82 402
330 82 1298
331 82 1596
332 82 1803
334 82 395
336 82 177
337 82 1173
338 82 953
339 82 853
340 82 151
342 82 433
343 82 632
344 82 670
345 82 1037
346 82 1533
347 82 318
348 82 729
349 82 198
350 82 1381
351 82 46
352 82 291
354 82 625
355 82 1424
356 82 700
357 82 725
358 82 470
359 82 546
360 82 288
361 82 622
362 82 1187
364 82 1095
365 82 605
366 82 882
367 82 1841
368 82 607
369 82 360
370 82 567
371 82 1429
372 82 266
373 82 1511
374 82 1742
375 82 611
377 82 1127
378 82 659
379 82 949
380 82 807
381 82 652
382 82 716
383 82 37
384 82 415
385 82 1056
386 82 962
388 82 1306
389 82 414
390 82 1067
391 82 972
392 82 100
393 82 1330
394 82 332
395 82 1492
396 82 427
397 82 581
398 82 1245
399 82 1052
400 82 334
401 82 609
402 82 636
403 82 609
404 82 341
405 82 333
411 82 434
412 82 636
413 82 525
414 82 1401
415 82 901
416 82 226
417 82 670
418 82 449
419 82 255
420 82 894
423 82 1038
425 82 274
426 82 781
427 82 1118
428 82 387
429 82 719
430 82 897
431 82 1020
432 82 310
433 82 1358
434 82 585
435 82 659
436 82 650
437 82 762
439 82 950
440 82 1405
441 82 643
442 82 436
443 82 325
444 82 830
446 82 565
448 82 1016
449 82 1514
450 82 261
451 82 1769
452 82 565
453 82 962
454 82 1255
455 82 1531
456 82 1024
457 82 676
459 82 508
460 82 692
462 82 1737
463 82 1038
464 82 923
465 82 1116
466 82 1167
467 82 2035
469 82 230
471 82 1259
472 82 1058
473 82 866
474 82 85
475 82 828
476 82 2015
477 82 1011
478 82 1219
479 82 1043
480 82 335
481 82 660
482 82 896
483 82 2425
485 82 1185
486 82 1529
487 82 630
488 82 932
489 82 1089
490 82 1408
491 82 1113
492 82 1020
494 82 629
496 82 955
498 82 1592
499 82 1003
500 82 1122
1 83 3
2 83 7
3 83 24
4 83 1907
5 83 11
6 83 26
7 83 6
8 83 4
9 83 32
10 83 44
11 83 61
12 83 33
13 83 2637
14 83 15
15 83 5
16 83 50
17 83 44
18 83 38
19 83 148
20 83 1322
21 83 85
22 83 5
23 83 1115
24 83 4
25 83 1346
26 83 4
27 83 2
28 83 4
29 83 1623
30 83 46
31 83 20
32 83 1698
33 83 37
34 83 5
35 83 1766
36 83 9
37 83 18
38 83 6
39 83 31
41 83 22
42 83 55
43 83 58
44 83 7
45 83 7
46 83 36
47 83 55
48 83 14
49 83 4
50 83 2280
51 83 22
52 83 22
53 83 20
54 83 2345
55 83 396
56 83 87
57 83 2
58 83 32
59 83 39
60 83 25
61 83 9
62 83 1054
63 83 22
64 83 2134
65 83 91
66 83 21
67 83 9
68 83 65
69 83 98
70 83 8
71 83 2920
72 83 3
73 83 59
74 83 35
75 83 43
76 83 3
77 83 7
78 83 38
79 83 32
80 83 2284
81 83 5
82 83 2509
83 83 37
84 83 2
85 83 3
86 83 3
87 83 38
88 83 55
89 83 17
90 83 1
91 83 1809
92 83 1878
93 83 33
94 83 105
95 83 4
96 83 20
97 83 58
98 83 107
99 83 1444
100 83 25
101 83 10
102 83 11
103 83 1952
104 83 19
105 83 46
106 83 29
107 83 1555
108 83 10
109 83 2323
110 83 42
112 83 1914
113 83 1367
114 83 47
115 83 51
116 83 81
117 83 2
118 83 52
119 83 1422
120 83 1498
121 83 2
122 83 29
123 83 2873
124 83 7
125 83 24
126 83 11
127 83 40
128 83 59
129 83 1
131 83 7
132 83 10
133 83 10
134 83 120
135 83 1270
136 83 45
137 83 33
138 83 12
139 83 22
140 83 2438
141 83 101
142 83 94
143 83 30
144 83 41
145 83 10
146 83 155
147 83 33
148 83 36
149 83 22
150 83 6
151 83 22
152 83 5
153 83 3
154 83 28
155 83 24
156 83 100
157 83 1566
158 83 27
159 83 2
160 83 56
161 83 7
162 83 39
163 83 94
164 83 17
165 83 11
166 83 8
167 83 1942
168 83 2538
169 83 61
170 83 139
171 83 2404
172 83 4429
173 83 30
174 83 5
175 83 2
176 83 8
177 83 22
178 83 3276
179 83 10
180 83 1883
181 83 31
182 83 27
183 83 1590
184 83 1409
185 83 50
186 83 11
187 83 9
188 83 35
189 83 7
190 83 14
191 83 42
192 83 3720
193 83 16
194 83 117
195 83 17
196 83 33
197 83 399
198 83 3187
199 83 51
200 83 75
201 83 2518
202 83 17
203 83 34
204 83 19
205 83 90
206 83 52
207 83 31
208 83 21
210 83 23
211 83 14
212 83 67
213 83 17
214 83 15
215 83 88
216 83 6
217 83 29
218 83 41
219 83 2897
220 83 47
221 83 1875
222 83 6
223 83 1762
224 83 22
225 83 30
227 83 53
228 83 1264
229 83 11
230 83 1954
231 83 34
232 83 10
233 83 4
234 83 39
235 83 4
236 83 1726
237 83 1
238 83 564
239 83 91
240 83 7
241 83 5
242 83 28
243 83 67
244 83 1704
245 83 8
246 83 24
247 83 95
248 83 2654
249 83 2970
250 83 2450
251 83 46
252 83 44
253 83 50
254 83 19
255 83 12
256 83 26
257 83 5
258 83 79
259 83 51
260 83 9
261 83 10
262 83 2181
263 83 86
266 83 4366
267 83 7
268 83 14
269 83 72
270 83 7
271 83 39
272 83 47
273 83 119
274 83 7
275 83 4
276 83 11
277 83 1844
278 83 69
280 83 12
281 83 22
282 83 2482
283 83 5610
284 83 45
285 83 4
286 83 3072
287 83 11
288 83 41
289 83 4
290 83 2472
291 83 44
292 83 29
293 83 95
294 83 26
295 83 48
296 83 23
297 83 35
298 83 5
299 83 13
300 83 84
301 83 1093
302 83 12
303 83 7
304 83 7
305 83 26
306 83 1154
307 83 35
308 83 70
309 83 58
310 83 3
311 83 36
312 83 65
313 83 53
314 83 292
315 83 1956
316 83 87
317 83 31
318 83 44
319 83 102
320 83 20
321 83 27
322 83 1906
323 83 24
324 83 43
325 83 37
326 83 15
327 83 646
328 83 39
329 83 1487
330 83 40
331 83 51
332 83 25
333 83 1848
334 83 22
335 83 2699
336 83 75
337 83 127
338 83 36
339 83 26
340 83 29
341 83 1696
342 83 49
343 83 32
345 83 4
346 83 8
348 83 3
349 83 9
350 83 32
351 83 2408
352 83 6
353 83 2258
354 83 52
355 83 49
357 83 2
358 83 487
359 83 56
360 83 43
361 83 41
362 83 38
363 83 3286
364 83 20
365 83 18
366 83 16
367 83 37
368 83 39
369 83 94
370 83 17
371 83 6
372 83 34
373 83 89
374 83 36
375 83 15
376 83 4506
377 83 134
378 83 25
379 83 15
380 83 56
381 83 56
382 83 4
383 83 2165
384 83 11
385 83 7
386 83 21
387 83 1695
388 83 26
389 83 2083
390 83 64
391 83 15
392 83 2356
393 83 98
394 83 19
395 83 21
396 83 40
397 83 17
398 83 37
399 83 70
400 83 53
401 83 49
402 83 62
403 83 7
404 83 19
405 83 15
406 83 1817
407 83 3282
408 83 1424
409 83 1965
410 83 1400
411 83 42
412 83 34
413 83 162
414 83 33
415 83 54
416 83 23
417 83 37
418 83 23
420 83 24
421 83 1074
422 83 1779
423 83 81
424 83 2316
425 83 20
426 83 30
427 83 7
428 83 99
429 83 279
430 83 46
431 83 40
433 83 11
435 83 38
437 83 12
438 83 2263
439 83 47
440 83 15
441 83 89
442 83 61
443 83 347
444 83 35
445 83 2142
446 83 2
447 83 1480
448 83 3
449 83 40
450 83 13
451 83 66
452 83 7
453 83 26
454 83 34
455 83 6
456 83 2573
457 83 15
458 83 1488
459 83 6
461 83 3461
462 83 49
463 83 5
464 83 23
465 83 110
466 83 106
467 83 38
468 83 2128
469 83 15
470 83 1124
471 83 16
472 83 4
473 83 8
474 83 6
475 83 25
476 83 2
477 83 3
478 83 93
479 83 22
480 83 1661
481 83 16
482 83 14
483 83 39
484 83 2173
485 83 96
486 83 5
487 83 30
488 83 5
489 83 79
490 83 33
491 83 37
492 83 35
493 83 1314
494 83 8
495 83 2023
496 83 3
497 83 1819
498 83 14
499 83 33
500 83 23
1 84 5968
2 84 10975
3 84 6319
5 84 4633
6 84 5127
7 84 10534
8 84 5146
9 84 9226
10 84 6880
11 84 4045
12 84 6299
14 84 6607
15 84 7790
16 84 5760
17 84 4114
18 84 4627
19 84 11719
21 84 6269
22 84 7837
23 84 200
24 84 4009
26 84 10498
27 84 5773
28 84 10576
30 84 5216
31 84 8687
33 84 4959
34 84 4296
36 84 6350
37 84 8773
38 84 5846
39 84 8832
40 84 8369
41 84 5471
42 84 6026
43 84 2965
44 84 7381
45 84 17740
46 84 10439
47 84 14318
48 84 10370
49 84 7035
51 84 4799
52 84 8456
53 84 6514
55 84 1340
56 84 6231
57 84 17651
58 84 7863
59 84 5232
60 84 5728
61 84 7372
63 84 7647
65 84 6379
66 84 5122
67 84 7255
68 84 6848
69 84 2789
70 84 10636
72 84 6746
73 84 5446
74 84 5309
75 84 5227
76 84 5478
77 84 7006
78 84 7883
79 84 10313
81 84 9044
83 84 5338
84 84 4422
85 84 6135
86 84 8358
87 84 7978
88 84 5632
89 84 11675
90 84 9352
93 84 13055
94 84 8617
95 84 4881
96 84 10597
97 84 4812
98 84 6248
99 84 54
100 84 8668
101 84 9545
102 84 12152
104 84 9645
105 84 10345
106 84 5298
108 84 9356
110 84 7675
111 84 6867
114 84 5560
115 84 2616
116 84 10396
117 84 12462
118 84 9653
121 84 8640
122 84 15270
124 84 6991
125 84 6932
126 84 10592
127 84 6240
128 84 4637
129 84 6451
130 84 6879
131 84 5525
132 84 5001
133 84 7078
134 84 6872
136 84 10327
137 84 8778
138 84 6559
139 84 8126
140 84 3
141 84 6104
142 84 3927
143 84 10759
144 84 5702
145 84 3957
146 84 11639
147 84 8871
148 84 5221
149 84 5609
150 84 11303
151 84 7637
152 84 4948
153 84 6398
154 84 5583
155 84 5866
156 84 8136
158 84 19194
159 84 6748
160 84 5289
161 84 8374
162 84 6358
163 84 3424
164 84 11561
165 84 10240
166 84 7300
169 84 5658
170 84 6786
173 84 8613
174 84 4741
175 84 6821
176 84 7328
177 84 5548
179 84 5508
181 84 5110
182 84 9634
185 84 11998
186 84 6607
187 84 9001
188 84 11746
189 84 6960
190 84 11664
191 84 6336
193 84 8902
194 84 2852
195 84 9318
196 84 8329
197 84 1260
199 84 15111
200 84 5946
202 84 5282
203 84 9080
204 84 4857
205 84 7723
206 84 10270
207 84 7108
208 84 9019
209 84 6930
210 84 7080
211 84 7262
212 84 16552
213 84 6072
214 84 8264
215 84 3835
216 84 9955
217 84 6812
218 84 4342
220 84 5323
222 84 6847
224 84 7593
225 84 4509
226 84 9988
227 84 7360
229 84 12236
231 84 6111
232 84 5522
233 84 8097
234 84 8428
235 84 5896
237 84 2820
238 84 1058
239 84 9416
240 84 7112
241 84 6741
242 84 4792
243 84 8301
245 84 7147
246 84 11682
247 84 4443
251 84 7146
252 84 8342
253 84 5171
254 84 7069
255 84 11584
256 84 6535
257 84 7184
258 84 8993
259 84 11768
260 84 5405
261 84 7578
263 84 9446
264 84 7174
265 84 9977
267 84 7108
268 84 7900
269 84 6256
270 84 5448
271 84 5457
272 84 6983
273 84 6303
274 84 8382
275 84 10564
276 84 5367
278 84 11987
279 84 6874
280 84 6479
281 84 13244
284 84 5776
285 84 8445
287 84 8452
288 84 6134
289 84 10338
291 84 8342
292 84 5625
293 84 9435
294 84 11196
295 84 5611
296 84 8155
297 84 11199
298 84 7125
299 84 8237
300 84 7070
301 84 32
302 84 8307
303 84 5357
304 84 6579
305 84 5571
307 84 5651
308 84 3388
309 84 8785
310 84 4929
311 84 4700
312 84 14307
313 84 4672
314 84 5319
316 84 9639
317 84 6214
318 84 7885
319 84 8113
320 84 4498
321 84 11122
323 84 8609
324 84 6733
325 84 10782
326 84 6431
327 84 1987
328 84 10501
330 84 5075
331 84 9151
332 84 7638
334 84 5491
336 84 7271
337 84 5855
338 84 6239
339 84 8061
340 84 4288
342 84 10463
343 84 9135
344 84 6845
345 84 8483
346 84 9782
347 84 13640
348 84 11174
349 84 3619
350 84 4595
352 84 5349
354 84 11732
355 84 6302
356 84 8323
357 84 7021
358 84 613
359 84 10343
360 84 6730
361 84 11845
362 84 7054
364 84 11884
365 84 6679
366 84 8395
367 84 5118
368 84 5956
369 84 5485
370 84 6418
371 84 10166
372 84 6704
373 84 9530
374 84 5240
375 84 6124
377 84 5748
378 84 4703
379 84 9696
380 84 5749
381 84 11893
382 84 5489
384 84 4043
385 84 3656
386 84 10741
388 84 7827
390 84 9479
391 84 6814
393 84 10544
394 84 8762
395 84 6301
396 84 9166
397 84 7357
398 84 9330
399 84 8063
400 84 6829
401 84 7736
402 84 10567
403 84 7392
404 84 8310
405 84 3019
411 84 10354
412 84 5332
413 84 4116
414 84 8892
415 84 6738
416 84 6877
417 84 6700
418 84 7012
419 84 8303
420 84 8105
423 84 9465
425 84 6979
426 84 10870
427 84 8260
428 84 5583
429 84 5319
430 84 13157
431 84 10438
432 84 13648
433 84 7279
434 84 7242
435 84 9538
436 84 7124
437 84 8118
439 84 5637
440 84 4082
441 84 3954
442 84 4081
443 84 5739
444 84 10899
446 84 10446
448 84 6841
449 84 8917
450 84 5501
451 84 6991
452 84 9823
453 84 7053
454 84 8227
455 84 5107
457 84 7275
459 84 10455
460 84 6915
462 84 5674
463 84 5181
464 84 9264
465 84 5738
466 84 5776
467 84 6771
469 84 9049
471 84 6445
472 84 8497
473 84 6833
474 84 5761
475 84 5048
476 84 7815
477 84 8404
478 84 2792
479 84 13394
480 84 38
481 84 5743
482 84 8349
483 84 4836
485 84 2894
486 84 14409
487 84 7114
488 84 6742
489 84 4707
490 84 5264
491 84 7852
492 84 6301
494 84 4527
496 84 6842
498 84 6762
499 84 5583
500 84 11696
1 85 1409
2 85 1722
3 85 1601
4 85 215
5 85 1169
6 85 2107
7 85 965
8 85 1693
9 85 1459
10 85 1695
11 85 2044
12 85 860
13 85 222
14 85 1740
15 85 1850
16 85 2935
17 85 2084
18 85 1245
19 85 2391
20 85 2
21 85 1540
22 85 1855
23 85 1645
24 85 1021
25 85 760
26 85 922
27 85 1697
28 85 1670
29 85 1653
30 85 1459
31 85 2946
32 85 730
33 85 780
34 85 2584
35 85 721
36 85 1191
37 85 1118
38 85 933
39 85 1127
40 85 1657
41 85 2656
42 85 2117
43 85 415
44 85 635
45 85 1935
46 85 2454
47 85 1800
48 85 1600
49 85 983
50 85 1092
51 85 1655
52 85 1879
53 85 1413
54 85 1339
55 85 1318
56 85 1649
57 85 2305
58 85 1229
59 85 1428
60 85 1101
61 85 1626
62 85 629
63 85 1511
64 85 776
65 85 682
66 85 1552
67 85 1111
68 85 1615
69 85 1017
70 85 1393
71 85 563
72 85 3574
73 85 1224
74 85 1137
75 85 1466
76 85 1419
77 85 863
78 85 1590
79 85 1429
81 85 2188
82 85 1444
83 85 1875
84 85 1052
85 85 2433
86 85 1202
87 85 705
88 85 1636
89 85 1584
90 85 1896
91 85 544
92 85 1710
93 85 1467
94 85 2846
95 85 1855
96 85 1340
97 85 1522
98 85 705
99 85 1358
100 85 2909
101 85 1536
102 85 1753
104 85 741
105 85 1429
106 85 1464
107 85 928
108 85 1745
109 85 1047
110 85 1916
111 85 525
112 85 482
113 85 593
114 85 1085
115 85 1180
116 85 1147
117 85 1154
118 85 1565
120 85 27
121 85 1574
122 85 1953
123 85 72
124 85 2323
125 85 1892
126 85 1215
127 85 1739
128 85 1810
129 85 2138
130 85 552
131 85 614
132 85 2661
133 85 1599
134 85 1042
135 85 972
136 85 350
137 85 1984
138 85 1519
139 85 1363
140 85 1265
141 85 898
142 85 666
143 85 1574
144 85 1139
145 85 1329
146 85 2449
147 85 1438
148 85 1192
149 85 674
150 85 662
151 85 1272
152 85 1680
153 85 655
154 85 1247
155 85 3735
156 85 2222
157 85 12
158 85 2403
159 85 3575
160 85 2335
161 85 1269
162 85 1379
163 85 1175
164 85 841
165 85 873
166 85 1356
167 85 589
168 85 1045
169 85 2955
170 85 1113
171 85 1289
172 85 391
173 85 1304
174 85 1871
175 85 3668
176 85 742
177 85 2516
178 85 854
179 85 593
180 85 1452
181 85 1033
182 85 904
183 85 1
184 85 146
185 85 1765
186 85 1672
187 85 2088
188 85 957
189 85 1243
190 85 1838
191 85 2515
193 85 2002
194 85 1452
195 85 1508
196 85 1442
197 85 955
198 85 910
199 85 2515
200 85 1257
201 85 664
202 85 1301
203 85 2169
204 85 1657
205 85 2107
206 85 1324
207 85 1384
208 85 2056
209 85 509
210 85 1090
211 85 2043
212 85 854
213 85 1129
214 85 2187
215 85 683
216 85 855
217 85 950
218 85 2208
219 85 768
220 85 1956
222 85 3549
223 85 733
224 85 1620
225 85 1223
226 85 1422
227 85 1263
228 85 975
229 85 1301
230 85 3
231 85 895
232 85 2182
233 85 163
234 85 1660
235 85 979
236 85 600
237 85 764
238 85 1524
239 85 1552
240 85 1869
241 85 964
242 85 2479
243 85 1275
245 85 944
246 85 2024
247 85 2023
248 85 1025
249 85 771
250 85 1228
251 85 1675
252 85 448
253 85 1440
254 85 1633
255 85 1507
256 85 494
257 85 2009
258 85 1249
259 85 1852
260 85 1532
261 85 2179
262 85 1060
263 85 1431
264 85 1996
265 85 1409
266 85 375
267 85 1423
268 85 1495
269 85 902
270 85 1084
271 85 2101
272 85 1125
273 85 1455
274 85 1242
275 85 918
276 85 985
277 85 697
278 85 1759
279 85 558
280 85 2576
281 85 1673
282 85 806
283 85 807
284 85 2076
285 85 2232
286 85 1088
287 85 1909
288 85 1131
289 85 1004
290 85 1245
291 85 2125
292 85 1884
293 85 1616
294 85 1012
295 85 1351
296 85 2837
297 85 3018
298 85 2187
299 85 590
300 85 1887
301 85 1088
302 85 1094
303 85 300
304 85 1601
305 85 2449
306 85 1355
307 85 1179
308 85 1084
309 85 1293
310 85 1655
311 85 2593
312 85 1775
313 85 1928
314 85 1831
316 85 2036
317 85 1384
318 85 1607
319 85 2186
320 85 1648
321 85 3045
322 85 1308
323 85 2885
324 85 1641
325 85 981
326 85 938
327 85 647
328 85 345
329 85 973
330 85 790
331 85 1420
332 85 1594
333 85 3
334 85 1315
336 85 1356
337 85 1848
338 85 2378
339 85 1311
340 85 1356
342 85 358
343 85 1597
344 85 548
345 85 1260
346 85 994
347 85 1964
348 85 1733
349 85 1953
350 85 1323
351 85 1377
352 85 1426
353 85 638
354 85 1774
355 85 2147
356 85 1700
357 85 633
358 85 1382
359 85 1336
360 85 1293
361 85 1873
362 85 1052
363 85 762
364 85 2399
365 85 1509
366 85 2009
367 85 1617
368 85 1651
369 85 1412
370 85 917
371 85 937
372 85 1212
373 85 2110
374 85 1398
375 85 733
376 85 801
377 85 552
378 85 1110
379 85 1165
380 85 1676
381 85 1811
382 85 1082
383 85 1233
384 85 1903
385 85 1337
386 85 3027
387 85 97
388 85 2354
389 85 1433
390 85 1672
391 85 1560
392 85 1288
393 85 1212
394 85 2988
395 85 1583
396 85 316
397 85 1266
398 85 814
399 85 1536
400 85 2038
401 85 2511
402 85 1426
403 85 2782
404 85 896
405 85 1171
406 85 605
407 85 850
408 85 333
410 85 1095
411 85 392
412 85 1913
413 85 470
414 85 911
415 85 883
416 85 1063
417 85 1161
418 85 1132
419 85 1189
420 85 614
421 85 5
422 85 972
423 85 1642
424 85 855
425 85 847
426 85 1362
427 85 1497
428 85 1464
429 85 1761
430 85 1499
431 85 2851
432 85 1915
433 85 1630
434 85 1159
435 85 512
436 85 1178
437 85 1417
438 85 4
439 85 1132
440 85 1920
441 85 670
442 85 1062
443 85 590
444 85 1380
445 85 6
446 85 996
447 85 815
448 85 1008
449 85 1555
450 85 1471
451 85 1884
452 85 1960
453 85 2129
454 85 1532
455 85 1432
456 85 773
457 85 1199
458 85 193
459 85 1006
460 85 479
461 85 1
462 85 2023
463 85 1612
464 85 2097
465 85 601
466 85 596
467 85 1946
468 85 228
469 85 2534
470 85 1148
471 85 585
472 85 1175
473 85 3406
474 85 543
475 85 1549
476 85 1646
477 85 1270
478 85 1464
479 85 836
480 85 1285
481 85 2704
482 85 1086
483 85 521
484 85 11
485 85 1383
486 85 1444
487 85 1191
488 85 3627
489 85 688
490 85 1542
491 85 1214
492 85 927
493 85 471
494 85 2757
495 85 387
496 85 3580
497 85 1
498 85 1811
499 85 1511
500 85 2662
1 86 4979
2 86 5375
3 86 5818
4 86 5166
5 86 5672
6 86 2890
7 86 4897
8 86 4882
9 86 6839
10 86 8969
11 86 3434
12 86 6711
13 86 6261
14 86 4165
15 86 4739
16 86 4884
17 86 6653
18 86 3937
19 86 74
20 86 6274
21 86 10550
22 86 4155
23 86 6977
24 86 131
25 86 4947
26 86 4775
27 86 7817
28 86 4378
29 86 10673
30 86 218
31 86 57
32 86 6136
33 86 5253
34 86 11318
35 86 6805
36 86 7965
37 86 4036
38 86 6275
39 86 8999
40 86 3989
41 86 11366
42 86 6773
43 86 6697
44 86 5298
45 86 6418
46 86 6735
47 86 5404
48 86 8140
49 86 4348
50 86 1686
51 86 8521
52 86 5738
53 86 26
54 86 3012
55 86 4439
56 86 8091
57 86 9177
58 86 5350
59 86 229
60 86 4319
61 86 10467
62 86 4407
63 86 6553
64 86 3781
65 86 9365
66 86 14543
67 86 9352
68 86 3180
69 86 3430
70 86 2907
71 86 4610
72 86 83
73 86 3963
74 86 3233
75 86 197
76 86 5407
77 86 4702
78 86 3949
79 86 15
80 86 5427
81 86 5202
82 86 4978
83 86 7382
84 86 9035
85 86 7011
86 86 121
87 86 4913
88 86 3829
89 86 7555
90 86 8742
91 86 2963
92 86 5357
93 86 5344
94 86 6151
95 86 6933
96 86 139
97 86 8251
98 86 9452
99 86 4038
100 86 62
101 86 5140
102 86 6958
103 86 7418
104 86 4699
105 86 3641
106 86 216
107 86 4992
108 86 5616
109 86 5618
110 86 4013
111 86 4733
112 86 4250
113 86 7073
114 86 4228
115 86 2556
116 86 4670
117 86 7392
118 86 8140
119 86 3471
120 86 4031
121 86 7395
122 86 5207
123 86 3723
124 86 6256
125 86 7224
126 86 8160
127 86 6672
128 86 5457
129 86 7821
130 86 4550
131 86 69
132 86 11446
133 86 8897
134 86 9309
135 86 3561
136 86 5523
137 86 6047
138 86 8053
139 86 7446
140 86 7365
141 86 3140
142 86 6153
143 86 12071
144 86 7786
145 86 5376
146 86 60
147 86 8029
148 86 3250
149 86 5692
150 86 7331
151 86 3610
152 86 8052
153 86 4188
154 86 5017
155 86 6626
156 86 43
157 86 8540
158 86 8039
159 86 85
160 86 9682
161 86 95
162 86 6217
163 86 6702
164 86 2452
165 86 8565
166 86 4739
167 86 5351
168 86 5521
169 86 4932
170 86 9472
171 86 3011
172 86 7100
173 86 8769
174 86 10130
175 86 95
176 86 10573
177 86 5886
178 86 9491
179 86 85
180 86 2337
181 86 6556
182 86 6934
183 86 3959
184 86 4909
185 86 2744
186 86 5639
187 86 5286
188 86 7394
189 86 5621
190 86 4713
191 86 4818
192 86 6379
193 86 6086
194 86 4912
195 86 6618
196 86 10812
197 86 3629
198 86 4867
199 86 10848
200 86 2137
201 86 4565
202 86 9556
203 86 3853
204 86 5362
205 86 76
206 86 5686
207 86 7541
208 86 6102
209 86 4669
210 86 7112
211 86 7377
212 86 9514
213 86 5147
214 86 5980
215 86 6001
216 86 8125
217 86 5508
218 86 4851
219 86 9508
220 86 7437
221 86 7002
222 86 89
223 86 6068
224 86 5858
225 86 4036
226 86 5144
227 86 6354
228 86 3622
229 86 8943
230 86 7126
231 86 6634
232 86 6773
233 86 6289
234 86 6553
235 86 6371
236 86 1867
237 86 12132
238 86 4421
239 86 24
240 86 6203
241 86 5880
242 86 5888
243 86 5768
244 86 1374
245 86 4713
246 86 8032
247 86 7561
248 86 8353
249 86 9602
250 86 5342
251 86 5592
252 86 9124
253 86 186
254 86 4024
255 86 12761
256 86 4949
257 86 5253
258 86 8983
259 86 2841
260 86 183
261 86 9891
262 86 1689
263 86 89
264 86 5184
265 86 4979
266 86 7052
267 86 4763
268 86 4999
269 86 3094
270 86 7092
271 86 4303
272 86 5815
273 86 5288
274 86 116
275 86 5021
276 86 5226
277 86 4076
278 86 7605
279 86 4838
280 86 7438
281 86 4358
282 86 4969
283 86 6866
284 86 6561
285 86 6224
286 86 3261
287 86 5849
288 86 4969
289 86 4802
290 86 3551
291 86 5577
292 86 2652
293 86 23
294 86 7956
295 86 5355
296 86 6159
297 86 6079
298 86 8900
299 86 7979
300 86 11391
301 86 4089
302 86 8719
303 86 6723
304 86 8701
305 86 9900
306 86 3203
307 86 7894
308 86 4887
309 86 626
310 86 5939
311 86 5978
312 86 5436
313 86 3138
314 86 6400
315 86 6993
316 86 104
317 86 6601
318 86 3909
319 86 53
320 86 11190
321 86 5876
322 86 4538
323 86 81
324 86 3173
325 86 6360
326 86 13927
327 86 6702
328 86 5633
329 86 2726
330 86 10099
331 86 6438
332 86 5929
333 86 2974
334 86 9828
335 86 4922
336 86 6268
337 86 3412
338 86 8602
339 86 7722
340 86 4525
341 86 4464
342 86 5595
343 86 4273
344 86 4726
345 86 121
346 86 5207
347 86 7740
348 86 5271
349 86 4254
350 86 4072
351 86 3040
352 86 192
353 86 2225
354 86 2745
355 86 4185
356 86 4049
357 86 58
358 86 6320
359 86 4146
360 86 8349
361 86 2789
362 86 8090
363 86 7815
364 86 4967
365 86 7968
366 86 6087
367 86 6624
368 86 4002
369 86 4218
370 86 5534
371 86 4741
372 86 8263
373 86 86
374 86 246
375 86 4399
376 86 8217
377 86 135
378 86 10064
379 86 5328
380 86 8389
381 86 2855
382 86 6961
383 86 2889
384 86 9301
385 86 9101
386 86 13542
387 86 3763
388 86 5647
389 86 4676
390 86 26
391 86 6790
392 86 3715
393 86 4710
394 86 68
395 86 5575
396 86 6784
397 86 7939
398 86 4838
399 86 7341
400 86 6981
401 86 7752
402 86 3984
403 86 5914
404 86 7787
405 86 3603
406 86 2421
407 86 5020
408 86 3181
409 86 7364
410 86 4804
411 86 5575
412 86 7385
413 86 4355
414 86 4762
415 86 12048
416 86 6997
417 86 8346
418 86 6527
419 86 5688
420 86 6219
421 86 2871
422 86 6952
423 86 26
424 86 3409
425 86 3782
426 86 149
427 86 7409
428 86 4360
429 86 6609
430 86 5556
431 86 9552
432 86 7588
433 86 10559
434 86 8313
435 86 8518
436 86 8470
437 86 5036
438 86 3925
439 86 4388
440 86 5425
441 86 6032
442 86 5936
443 86 4703
444 86 147
445 86 5780
446 86 4868
447 86 6741
448 86 5822
449 86 4861
450 86 184
451 86 11600
452 86 1912
453 86 12428
454 86 23
455 86 16170
456 86 4949
457 86 8725
458 86 2364
459 86 4940
460 86 4712
461 86 4271
462 86 6703
463 86 5047
464 86 8300
465 86 130
466 86 152
467 86 6972
468 86 3084
469 86 8678
470 86 5031
471 86 7222
472 86 106
473 86 81
474 86 5892
475 86 14993
476 86 4998
477 86 127
478 86 5059
479 86 8216
480 86 5772
481 86 6194
482 86 9118
483 86 5941
484 86 6609
485 86 5121
486 86 6455
487 86 6002
488 86 82
489 86 7683
490 86 8858
491 86 5472
492 86 7123
493 86 4318
494 86 4534
495 86 7559
496 86 70
497 86 2933
498 86 8537
499 86 6552
500 86 4989
1 87 3297
2 87 3424
3 87 4466
4 87 16
5 87 2450
6 87 2471
7 87 5325
8 87 2881
9 87 3819
10 87 3840
11 87 2826
12 87 3196
13 87 28
14 87 2096
15 87 2661
16 87 2051
17 87 2356
18 87 2387
19 87 9435
20 87 21
21 87 4237
22 87 3058
23 87 4831
24 87 5694
25 87 691
26 87 5058
27 87 4823
28 87 2912
29 87 1398
30 87 8465
31 87 8432
32 87 2331
33 87 3771
34 87 2948
35 87 580
36 87 4088
37 87 3458
38 87 1801
39 87 3956
40 87 3792
41 87 4865
42 87 5393
43 87 2109
44 87 4393
45 87 5159
46 87 3323
47 87 2753
48 87 3449
49 87 3155
50 87 2115
51 87 2645
52 87 4195
53 87 6409
54 87 3619
55 87 3211
56 87 1216
57 87 4246
58 87 2519
59 87 8609
60 87 2847
61 87 5302
62 87 2245
63 87 3792
64 87 1087
65 87 2417
66 87 3002
67 87 4904
68 87 4311
69 87 2632
70 87 2926
71 87 889
72 87 5577
73 87 3113
74 87 1752
75 87 8633
76 87 3038
77 87 2385
78 87 2758
79 87 8450
80 87 2
81 87 3161
82 87 2960
83 87 1959
84 87 2198
85 87 3223
86 87 5061
87 87 3962
88 87 2267
89 87 2657
90 87 4832
91 87 1227
92 87 1554
93 87 4641
94 87 4564
95 87 4198
96 87 5698
97 87 2964
98 87 2400
99 87 3329
100 87 8638
101 87 5294
102 87 2858
104 87 2708
105 87 3669
106 87 8639
107 87 1430
108 87 5428
109 87 3595
110 87 2251
111 87 5166
112 87 566
113 87 1502
114 87 2843
115 87 1800
116 87 3331
117 87 1616
118 87 3305
119 87 1
120 87 23
121 87 3625
122 87 3273
123 87 55
124 87 3740
125 87 4110
126 87 3361
127 87 4777
128 87 4376
129 87 3438
130 87 5121
131 87 5920
132 87 3112
133 87 2229
134 87 4077
135 87 1880
136 87 3185
137 87 4721
138 87 2234
139 87 3078
140 87 3526
141 87 2375
142 87 2275
143 87 4074
144 87 3276
145 87 5649
146 87 9338
147 87 4326
148 87 1843
149 87 2920
150 87 4237
151 87 2389
152 87 3040
153 87 2474
154 87 2422
155 87 3355
156 87 8013
158 87 4576
159 87 5613
160 87 3547
161 87 5051
162 87 3298
163 87 3945
164 87 2400
165 87 5068
166 87 2308
167 87 372
168 87 2068
169 87 2083
170 87 4147
171 87 3630
172 87 163
173 87 3812
174 87 6081
175 87 5619
176 87 3472
177 87 3825
178 87 1785
179 87 6130
180 87 1724
181 87 3651
182 87 1917
183 87 14
184 87 254
185 87 6868
186 87 3283
187 87 3138
188 87 5133
189 87 4644
190 87 3392
191 87 4035
192 87 3
193 87 4708
194 87 3136
195 87 3259
196 87 2232
197 87 1373
198 87 2079
199 87 3731
200 87 3350
201 87 2924
202 87 2456
203 87 5190
204 87 2217
205 87 8461
206 87 3890
207 87 3354
208 87 4759
209 87 5033
210 87 3248
211 87 4107
212 87 2450
213 87 2969
214 87 2504
215 87 2201
216 87 2078
217 87 2153
218 87 1249
219 87 3802
220 87 1877
221 87 1
222 87 5637
223 87 2364
224 87 6073
225 87 2378
226 87 3123
227 87 2436
228 87 1946
229 87 3907
230 87 7
231 87 3293
232 87 3476
233 87 3049
234 87 3344
235 87 1822
236 87 589
237 87 3087
238 87 5433
239 87 8578
240 87 3327
241 87 2624
242 87 4052
243 87 3561
244 87 10
245 87 2440
246 87 3876
247 87 3917
248 87 1246
249 87 3733
250 87 2321
251 87 4314
252 87 2161
253 87 8681
254 87 3973
255 87 4398
256 87 2494
257 87 4795
258 87 4746
259 87 6971
260 87 7616
261 87 4403
262 87 2129
263 87 6810
264 87 4829
265 87 3041
266 87 175
267 87 2246
268 87 2776
269 87 2421
270 87 2784
271 87 2354
272 87 3683
273 87 2556
274 87 5035
275 87 5295
276 87 3392
277 87 1597
278 87 3464
279 87 5131
280 87 2133
281 87 3105
282 87 1418
283 87 2252
284 87 3359
285 87 2841
286 87 1483
287 87 4147
288 87 3634
289 87 5319
290 87 2380
291 87 3040
292 87 5046
293 87 8898
294 87 2375
295 87 2301
296 87 4252
297 87 2338
298 87 3380
299 87 3358
300 87 4237
301 87 3842
302 87 3464
303 87 2325
304 87 2332
305 87 4695
306 87 1088
307 87 3270
308 87 3730
309 87 5247
310 87 2199
311 87 4039
312 87 2915
313 87 2845
314 87 1700
315 87 2
316 87 5209
317 87 3659
318 87 2693
319 87 7973
320 87 2780
321 87 2261
322 87 2271
323 87 8565
324 87 4344
325 87 2794
326 87 1436
327 87 1992
328 87 3308
329 87 1604
330 87 2101
331 87 3177
332 87 6038
333 87 28
334 87 3040
335 87 4
336 87 2462
337 87 2263
338 87 3396
339 87 2762
340 87 2367
341 87 10
342 87 3363
343 87 3155
344 87 5243
345 87 5222
346 87 4217
347 87 2704
348 87 3367
349 87 3034
350 87 2343
351 87 3608
352 87 7906
353 87 3126
354 87 6760
355 87 3134
356 87 3805
357 87 4816
358 87 2595
359 87 3063
360 87 3508
361 87 6931
362 87 3082
363 87 1499
364 87 3072
365 87 2216
366 87 2803
367 87 4598
368 87 3177
369 87 3136
370 87 2756
371 87 2806
372 87 3471
373 87 5251
374 87 8517
375 87 2420
376 87 1217
377 87 6557
378 87 4421
379 87 2242
380 87 1943
381 87 6883
382 87 3491
383 87 1861
384 87 3998
385 87 2228
386 87 3353
387 87 2
388 87 2920
389 87 2286
390 87 8678
391 87 2898
392 87 1902
393 87 3331
394 87 8751
395 87 4425
396 87 2547
397 87 3228
398 87 2503
399 87 2800
400 87 3473
401 87 2473
402 87 3102
403 87 3483
404 87 2651
405 87 3584
406 87 1934
407 87 1970
408 87 247
410 87 1814
411 87 3184
412 87 1949
413 87 2747
414 87 4281
415 87 2372
416 87 3091
417 87 5249
418 87 2903
419 87 5465
420 87 3793
421 87 14
422 87 1597
423 87 8886
424 87 1811
425 87 2887
426 87 5890
427 87 2515
428 87 3065
429 87 1688
430 87 4727
431 87 4244
432 87 2781
433 87 5368
434 87 2712
435 87 3959
436 87 2680
437 87 2760
438 87 5
439 87 2895
440 87 3187
441 87 2231
442 87 2701
443 87 1736
444 87 5835
445 87 8
446 87 5397
447 87 4138
448 87 2585
449 87 3665
450 87 8033
451 87 4175
452 87 2345
453 87 6274
454 87 7585
455 87 2996
456 87 3926
457 87 2689
458 87 23
459 87 5311
460 87 5249
461 87 4
462 87 3303
463 87 2981
464 87 6007
465 87 6804
466 87 6710
467 87 4758
468 87 138
469 87 2100
470 87 2652
471 87 2915
472 87 5135
473 87 5548
474 87 3676
475 87 2941
476 87 3500
477 87 5027
478 87 3116
479 87 5480
480 87 2757
481 87 2894
482 87 3566
483 87 3964
484 87 10
485 87 3099
486 87 3347
487 87 3742
488 87 5728
489 87 3067
490 87 2800
491 87 2621
492 87 2680
493 87 452
494 87 4642
495 87 58
496 87 5649
497 87 20
498 87 3459
499 87 2022
500 87 3181
1 88 887
2 88 606
3 88 969
4 88 629
5 88 678
6 88 570
7 88 304
8 88 1218
9 88 492
10 88 1469
11 88 1167
12 88 1383
13 88 614
14 88 104
15 88 175
16 88 498
17 88 1419
18 88 663
20 88 460
21 88 1489
22 88 235
23 88 1064
24 88 4
25 88 408
26 88 297
27 88 956
28 88 858
29 88 1056
30 88 17
32 88 1116
33 88 614
34 88 1507
35 88 795
36 88 839
37 88 151
38 88 494
39 88 436
40 88 294
41 88 883
42 88 975
43 88 1043
44 88 1202
45 88 773
46 88 1266
47 88 808
48 88 594
49 88 665
50 88 581
51 88 673
52 88 1539
54 88 1272
55 88 1343
56 88 1259
57 88 1396
58 88 1235
59 88 17
60 88 482
61 88 1208
62 88 678
63 88 1035
64 88 510
65 88 342
66 88 592
67 88 487
68 88 1365
69 88 1713
70 88 1127
71 88 864
73 88 747
74 88 1017
75 88 15
76 88 461
77 88 1289
78 88 1105
80 88 223
81 88 1471
82 88 951
83 88 1407
84 88 2139
85 88 1999
87 88 486
88 88 488
89 88 1158
90 88 1031
91 88 320
92 88 847
93 88 794
94 88 912
95 88 955
96 88 12
97 88 2110
98 88 341
99 88 263
101 88 1168
102 88 1746
103 88 465
104 88 613
105 88 877
106 88 27
107 88 593
108 88 1530
109 88 1403
110 88 1623
111 88 421
112 88 485
113 88 509
114 88 556
115 88 1500
116 88 1391
117 88 726
118 88 1519
119 88 405
120 88 475
121 88 1087
122 88 1320
123 88 1164
124 88 471
125 88 580
126 88 1836
127 88 1489
128 88 641
129 88 1358
130 88 464
132 88 1481
133 88 1779
134 88 1217
135 88 725
136 88 657
137 88 538
138 88 690
139 88 820
140 88 685
141 88 759
142 88 582
143 88 705
144 88 1202
145 88 1327
147 88 1269
148 88 953
149 88 200
150 88 1453
151 88 607
152 88 650
153 88 735
154 88 695
155 88 659
157 88 248
158 88 448
160 88 1660
162 88 1289
163 88 936
164 88 902
165 88 2132
166 88 1675
167 88 659
168 88 1124
169 88 504
170 88 1256
171 88 1336
172 88 757
173 88 1272
174 88 2184
176 88 1939
177 88 844
178 88 860
180 88 874
181 88 1743
182 88 723
183 88 631
184 88 362
185 88 1656
186 88 738
187 88 1463
188 88 1136
189 88 671
190 88 905
191 88 431
192 88 866
193 88 523
194 88 1167
195 88 727
196 88 1539
197 88 507
198 88 847
199 88 1952
200 88 607
201 88 1128
202 88 1720
203 88 1298
204 88 635
206 88 880
207 88 1444
208 88 549
209 88 445
210 88 340
211 88 1581
212 88 612
213 88 1037
214 88 1973
215 88 560
216 88 999
217 88 274
218 88 581
219 88 1003
220 88 1459
221 88 588
223 88 1102
224 88 1168
225 88 644
226 88 546
227 88 1865
228 88 764
229 88 1109
230 88 476
231 88 1415
232 88 582
233 88 847
234 88 378
235 88 465
236 88 538
237 88 845
238 88 824
240 88 1190
241 88 545
242 88 1038
243 88 1466
244 88 679
245 88 1279
246 88 1183
247 88 1296
248 88 805
249 88 890
250 88 807
251 88 1850
252 88 1729
253 88 17
254 88 1566
255 88 1077
256 88 1062
257 88 2010
258 88 1941
259 88 1618
261 88 1077
262 88 589
264 88 1995
265 88 542
266 88 734
267 88 1663
268 88 955
269 88 783
270 88 1119
271 88 1239
272 88 1441
273 88 735
275 88 335
276 88 1208
277 88 1200
278 88 2306
279 88 495
280 88 627
281 88 788
282 88 421
283 88 1170
284 88 1014
285 88 2007
286 88 688
287 88 1523
288 88 1105
289 88 321
290 88 501
291 88 796
292 88 1885
294 88 1250
295 88 1195
296 88 922
297 88 1001
298 88 402
299 88 1249
300 88 954
301 88 1256
302 88 747
303 88 1110
304 88 423
305 88 2189
306 88 679
307 88 1159
308 88 1606
309 88 203
310 88 2005
311 88 1138
312 88 805
313 88 563
314 88 483
315 88 642
316 88 5
317 88 2043
318 88 1134
320 88 1495
321 88 1015
322 88 707
324 88 1394
325 88 1978
326 88 367
327 88 767
328 88 638
329 88 581
330 88 920
331 88 898
332 88 1317
333 88 672
334 88 2066
335 88 361
336 88 1839
337 88 1039
338 88 779
339 88 737
340 88 1734
341 88 553
342 88 590
343 88 775
344 88 465
346 88 535
347 88 1378
348 88 667
349 88 1301
350 88 602
351 88 1312
353 88 2111
354 88 1590
355 88 1380
356 88 257
357 88 6
358 88 1509
359 88 1563
360 88 1562
361 88 1605
362 88 644
363 88 1253
364 88 1822
365 88 603
366 88 394
367 88 1220
368 88 1235
369 88 1138
370 88 572
371 88 709
372 88 1622
373 88 3
374 88 31
375 88 1078
376 88 540
377 88 5
378 88 1206
379 88 1568
380 88 1054
381 88 1677
382 88 1932
383 88 775
384 88 1250
385 88 652
386 88 1094
387 88 426
388 88 1075
389 88 892
391 88 1684
392 88 1101
393 88 1481
395 88 1000
396 88 646
397 88 1005
398 88 1621
399 88 1142
400 88 1181
401 88 1250
402 88 1505
403 88 1498
404 88 468
405 88 1939
406 88 658
407 88 864
408 88 391
409 88 472
410 88 804
411 88 629
412 88 1339
413 88 488
414 88 1190
415 88 462
416 88 351
417 88 686
418 88 1693
419 88 965
420 88 1384
421 88 412
422 88 587
424 88 607
425 88 1006
426 88 14
427 88 1863
428 88 1174
429 88 524
430 88 768
431 88 2257
432 88 1435
433 88 1225
434 88 1154
435 88 1168
436 88 1154
437 88 965
438 88 511
439 88 579
440 88 918
441 88 535
442 88 1415
443 88 567
444 88 18
445 88 750
446 88 346
447 88 877
448 88 608
449 88 613
451 88 939
452 88 982
453 88 714
455 88 373
456 88 940
457 88 431
458 88 540
459 88 299
460 88 442
461 88 1021
462 88 1105
463 88 1247
464 88 2153
465 88 4
466 88 3
467 88 867
468 88 359
469 88 2320
470 88 925
471 88 1121
474 88 2126
475 88 606
476 88 1038
478 88 1179
479 88 784
480 88 908
481 88 936
482 88 810
483 88 1033
484 88 596
485 88 1225
486 88 2120
487 88 1244
489 88 1507
490 88 1118
491 88 1171
492 88 1050
493 88 474
494 88 1519
495 88 664
497 88 680
498 88 733
499 88 1502
500 88 2645
19 89 13516
24 89 10721
30 89 6157
31 89 6822
53 89 8053
59 89 6011
66 89 6
72 89 4459
75 89 5992
79 89 15378
86 89 7978
96 89 10373
100 89 6679
106 89 6041
111 89 359
130 89 342
131 89 8153
146 89 13293
156 89 10125
159 89 4499
161 89 7938
175 89 4571
179 89 8276
185 89 2002
205 89 12527
209 89 366
222 89 4440
226 89 41
239 89 13399
241 89 2
253 89 6082
259 89 2001
260 89 7384
263 89 12015
265 89 47
274 89 7963
279 89 402
293 89 13852
309 89 5604
316 89 9683
319 89 10381
323 89 6686
337 89 2
344 89 375
345 89 8011
352 89 7217
354 89 2167
357 89 21442
361 89 2085
371 89 1
373 89 9825
374 89 6173
377 89 14427
381 89 2017
390 89 13777
394 89 6848
423 89 13752
426 89 10669
444 89 10494
448 89 1
450 89 7216
454 89 9703
460 89 395
465 89 14755
466 89 14881
472 89 8014
473 89 4510
475 89 4
477 89 7915
488 89 4392
496 89 4606
1 90 735
2 90 1877
3 90 1171
4 90 1122
5 90 1223
6 90 798
7 90 657
8 90 1742
9 90 2064
10 90 1409
11 90 973
12 90 975
13 90 1247
14 90 678
15 90 576
16 90 1259
17 90 999
18 90 1040
19 90 1
20 90 515
21 90 566
22 90 991
23 90 1556
25 90 672
26 90 736
27 90 1563
28 90 1221
29 90 1179
30 90 15
32 90 467
33 90 1027
34 90 1663
35 90 939
36 90 687
37 90 1512
38 90 850
39 90 1267
40 90 2038
41 90 2284
42 90 2086
43 90 518
44 90 1345
45 90 2099
46 90 974
47 90 1588
48 90 1158
49 90 1358
50 90 1251
51 90 2426
52 90 1668
54 90 801
55 90 1966
56 90 642
57 90 1953
58 90 1027
59 90 30
60 90 2010
61 90 1341
62 90 1062
63 90 654
64 90 579
65 90 636
66 90 581
67 90 2021
68 90 821
69 90 1484
70 90 2163
71 90 677
72 90 4
73 90 2068
74 90 740
75 90 26
76 90 1699
77 90 1077
78 90 436
80 90 602
81 90 781
82 90 1677
83 90 1586
84 90 1275
85 90 915
86 90 3
87 90 2138
88 90 1540
89 90 1253
90 90 1429
91 90 748
92 90 1609
93 90 660
94 90 1562
95 90 549
97 90 1877
98 90 644
99 90 1955
101 90 894
102 90 1048
103 90 709
104 90 1518
105 90 628
106 90 23
107 90 748
108 90 1368
109 90 1234
110 90 492
111 90 612
112 90 632
113 90 628
114 90 1379
115 90 1086
116 90 1992
117 90 959
118 90 1513
119 90 716
120 90 287
121 90 982
122 90 786
123 90 910
124 90 1101
125 90 1379
126 90 1407
127 90 1424
128 90 1189
129 90 1645
130 90 603
131 90 3
132 90 802
133 90 1285
134 90 1164
135 90 359
136 90 1394
137 90 945
138 90 408
139 90 1323
140 90 769
141 90 1069
142 90 924
143 90 1155
144 90 1612
145 90 2178
146 90 3
147 90 1423
148 90 735
149 90 1003
150 90 1588
151 90 1339
152 90 1043
153 90 1897
154 90 786
155 90 1770
157 90 828
158 90 2011
159 90 5
160 90 2027
161 90 3
162 90 971
163 90 1830
164 90 482
165 90 785
166 90 409
167 90 611
168 90 842
169 90 1298
170 90 1238
171 90 856
172 90 1092
173 90 1148
174 90 1289
175 90 5
176 90 548
177 90 1555
178 90 567
179 90 2
180 90 889
181 90 705
182 90 1980
183 90 518
184 90 842
185 90 358
186 90 2213
187 90 776
188 90 2063
189 90 1223
190 90 1836
191 90 2922
192 90 1096
193 90 974
194 90 934
195 90 896
196 90 938
197 90 1296
198 90 678
199 90 1187
200 90 701
201 90 1120
202 90 1094
203 90 1024
204 90 1417
206 90 1193
207 90 1573
208 90 902
209 90 624
210 90 390
211 90 2557
212 90 563
213 90 377
214 90 1409
215 90 954
216 90 995
217 90 1039
218 90 1305
219 90 1039
220 90 1700
221 90 641
222 90 6
223 90 455
224 90 1361
225 90 998
226 90 841
227 90 864
228 90 387
229 90 2762
230 90 470
231 90 938
232 90 1992
233 90 947
234 90 801
235 90 817
236 90 764
237 90 1125
238 90 448
240 90 2252
241 90 873
242 90 1168
243 90 723
244 90 736
245 90 1010
246 90 2056
247 90 831
248 90 744
249 90 1053
250 90 1168
251 90 1207
252 90 1147
253 90 17
254 90 625
255 90 1982
256 90 1899
257 90 2509
258 90 2071
259 90 363
260 90 10
261 90 3287
262 90 1219
264 90 2419
265 90 812
266 90 1079
267 90 392
268 90 1941
269 90 1089
270 90 1841
271 90 1417
272 90 1353
273 90 1282
274 90 10
275 90 710
276 90 2154
277 90 1832
278 90 1558
279 90 630
280 90 957
281 90 1215
282 90 1061
283 90 504
284 90 900
285 90 2319
286 90 559
287 90 1643
288 90 1477
289 90 662
290 90 390
291 90 894
292 90 1530
294 90 1431
295 90 340
296 90 1104
297 90 1278
298 90 1699
299 90 1883
300 90 1397
301 90 1255
302 90 560
303 90 796
304 90 1795
305 90 2438
306 90 1119
307 90 1581
308 90 1149
309 90 219
310 90 651
311 90 1167
312 90 1676
313 90 640
314 90 2234
315 90 559
317 90 1243
318 90 459
320 90 1285
321 90 1263
322 90 1740
324 90 782
325 90 634
326 90 1702
327 90 929
328 90 1376
329 90 751
330 90 1084
331 90 1328
332 90 1371
333 90 1183
334 90 1467
335 90 863
336 90 932
337 90 1420
338 90 1171
339 90 951
340 90 312
341 90 935
342 90 1340
343 90 1731
344 90 555
345 90 4
346 90 1281
347 90 2096
348 90 1865
349 90 683
350 90 997
351 90 797
352 90 10
353 90 934
354 90 391
355 90 1271
356 90 2036
358 90 1702
359 90 1087
360 90 1974
361 90 393
362 90 1043
363 90 568
364 90 1403
365 90 387
366 90 1451
367 90 1018
368 90 1628
369 90 1749
370 90 1511
371 90 1209
372 90 1936
374 90 19
375 90 1553
376 90 813
378 90 581
379 90 1168
380 90 742
381 90 370
382 90 1773
383 90 1221
384 90 1896
385 90 209
386 90 1605
387 90 796
388 90 1031
389 90 877
391 90 1149
392 90 929
393 90 1982
395 90 1230
396 90 973
397 90 1022
398 90 1093
399 90 1315
400 90 1462
401 90 680
402 90 1192
403 90 808
404 90 1145
405 90 1023
406 90 764
407 90 679
408 90 599
409 90 721
410 90 698
411 90 1325
412 90 1637
413 90 735
414 90 881
415 90 1375
416 90 393
417 90 1615
418 90 1521
419 90 1218
420 90 3025
421 90 524
422 90 1032
424 90 518
425 90 1571
427 90 1587
428 90 1769
429 90 2301
430 90 613
431 90 2902
432 90 2068
433 90 1387
434 90 1406
435 90 1265
436 90 1430
437 90 1833
438 90 258
439 90 1370
440 90 1028
441 90 1026
442 90 419
443 90 1059
445 90 796
446 90 663
447 90 659
448 90 905
449 90 1894
450 90 14
451 90 1386
452 90 1604
453 90 2265
455 90 3393
456 90 922
457 90 783
458 90 608
459 90 676
460 90 622
461 90 548
462 90 974
463 90 1786
464 90 1529
467 90 1675
468 90 602
469 90 1409
470 90 462
471 90 1479
472 90 1
473 90 3
474 90 1383
475 90 569
476 90 1549
477 90 3
478 90 951
479 90 2101
480 90 823
481 90 1122
482 90 538
483 90 2230
484 90 1106
485 90 983
486 90 1978
487 90 1171
488 90 2
489 90 1115
490 90 1157
491 90 1073
492 90 1606
493 90 786
494 90 2480
495 90 822
496 90 1
497 90 1237
498 90 2605
499 90 1085
500 90 1300
1 91 1654
2 91 1389
3 91 3018
4 91 1553
5 91 1548
6 91 2128
7 91 1997
8 91 4348
9 91 2268
10 91 2784
11 91 1803
12 91 3130
13 91 1302
14 91 1706
15 91 1979
16 91 1768
17 91 1653
18 91 2203
19 91 5845
20 91 1019
21 91 2635
22 91 2212
23 91 2822
24 91 1916
25 91 1388
26 91 1872
27 91 2485
28 91 2564
29 91 1578
30 91 2500
31 91 3541
32 91 1374
33 91 2687
34 91 3119
35 91 2145
36 91 3051
37 91 3577
38 91 2671
39 91 2651
40 91 2063
41 91 3103
42 91 1869
43 91 1577
44 91 2428
45 91 3979
46 91 2091
47 91 3578
48 91 2542
49 91 3428
50 91 1973
51 91 2195
52 91 3232
53 91 1971
54 91 2059
55 91 2604
56 91 1435
57 91 1960
58 91 2723
59 91 2481
60 91 3608
61 91 2686
62 91 1537
63 91 3042
64 91 1050
65 91 2020
66 91 2703
67 91 2864
68 91 1723
69 91 3564
70 91 2675
71 91 669
72 91 2247
73 91 1338
74 91 1320
75 91 2481
76 91 2186
77 91 2913
78 91 2232
79 91 2005
80 91 887
81 91 1308
82 91 1550
83 91 926
84 91 3725
85 91 2784
86 91 1738
87 91 2627
88 91 1737
89 91 2497
90 91 2740
91 91 1812
92 91 1728
93 91 2453
94 91 1809
95 91 1150
96 91 4769
97 91 2297
98 91 2143
99 91 1673
100 91 3527
101 91 2317
102 91 1942
103 91 2172
104 91 2174
105 91 1793
106 91 2377
107 91 978
108 91 3174
109 91 1950
110 91 2069
111 91 2167
112 91 1836
113 91 1346
114 91 2772
115 91 1973
116 91 1841
117 91 1556
118 91 2324
119 91 863
120 91 1449
121 91 3503
122 91 2735
123 91 1270
124 91 3371
125 91 2106
126 91 1914
127 91 2228
128 91 2308
129 91 2070
130 91 2119
131 91 2204
132 91 2079
133 91 1994
134 91 1945
135 91 798
136 91 2514
137 91 3449
138 91 1720
139 91 4917
140 91 1341
141 91 2688
142 91 1955
143 91 2104
144 91 2203
145 91 2847
146 91 6073
147 91 4120
148 91 1364
149 91 2162
150 91 2658
151 91 2338
152 91 2423
153 91 1711
154 91 1500
155 91 2129
156 91 3315
157 91 1262
158 91 4392
159 91 2132
160 91 3387
161 91 1701
162 91 2035
163 91 2036
164 91 958
165 91 3493
166 91 2034
167 91 1184
168 91 2003
169 91 1736
170 91 1978
171 91 2053
172 91 1100
173 91 3750
174 91 3852
175 91 2226
176 91 2552
177 91 2092
178 91 1851
179 91 2152
180 91 1860
181 91 2389
182 91 2368
183 91 1115
184 91 864
185 91 3067
186 91 3009
187 91 1319
188 91 3630
189 91 3053
190 91 1482
191 91 3556
192 91 1947
193 91 3533
194 91 2090
195 91 3914
196 91 1968
197 91 1512
198 91 1427
199 91 3544
200 91 2408
201 91 1597
202 91 1905
203 91 2993
204 91 2412
205 91 3370
206 91 3372
207 91 2506
208 91 3422
209 91 2198
210 91 4091
211 91 2144
212 91 3471
213 91 3470
214 91 3092
215 91 2055
216 91 2069
217 91 1971
218 91 1784
219 91 1283
220 91 925
221 91 963
222 91 2255
223 91 1349
224 91 2559
225 91 2301
226 91 3192
227 91 3219
228 91 812
229 91 2386
230 91 1469
231 91 2988
232 91 2504
233 91 1837
234 91 3221
235 91 2622
236 91 1386
237 91 2404
238 91 1668
239 91 4186
240 91 2796
241 91 2797
242 91 2115
243 91 2597
244 91 825
245 91 2884
246 91 3041
247 91 2724
248 91 1891
249 91 1321
250 91 2208
251 91 2866
252 91 2298
253 91 2479
254 91 3182
255 91 3141
256 91 3304
257 91 3714
258 91 2656
259 91 3035
260 91 1865
261 91 3337
262 91 1978
263 91 2596
264 91 3741
265 91 3217
266 91 1020
267 91 2068
268 91 4553
269 91 2614
270 91 1952
271 91 2178
272 91 2289
273 91 3862
274 91 1798
275 91 1809
276 91 1970
277 91 1350
278 91 3972
279 91 2206
280 91 2507
281 91 2718
282 91 632
283 91 2906
284 91 2250
285 91 2351
286 91 1482
287 91 3229
288 91 2739
289 91 1971
290 91 2395
291 91 2517
292 91 2804
293 91 4410
294 91 2315
295 91 1779
296 91 995
297 91 2460
298 91 3443
299 91 1913
300 91 2177
301 91 1752
302 91 1604
303 91 2197
304 91 2072
305 91 3000
306 91 1400
307 91 2364
308 91 1938
309 91 2336
310 91 2314
311 91 2150
312 91 3511
313 91 2555
314 91 1870
315 91 893
316 91 2005
317 91 3075
318 91 2212
319 91 3354
320 91 2058
321 91 2422
322 91 1935
323 91 3520
324 91 1750
325 91 2684
326 91 2139
327 91 3503
328 91 2614
329 91 893
330 91 1144
331 91 2372
332 91 2620
333 91 2099
334 91 3617
335 91 1458
336 91 3257
337 91 2890
338 91 3865
339 91 2425
340 91 2788
341 91 1174
342 91 2560
343 91 3624
344 91 2097
345 91 1772
346 91 1593
347 91 2147
348 91 1407
349 91 1760
350 91 2396
351 91 1978
352 91 1902
353 91 2270
354 91 3063
355 91 2448
356 91 1981
357 91 4091
358 91 1339
359 91 1617
360 91 2962
361 91 3009
362 91 2160
363 91 1725
364 91 2697
365 91 1751
366 91 2587
367 91 3728
368 91 2073
369 91 2974
370 91 1869
371 91 2686
372 91 3023
373 91 1982
374 91 2498
375 91 2478
376 91 1477
377 91 4834
378 91 2832
379 91 2362
380 91 1334
381 91 3076
382 91 2469
383 91 1907
384 91 1986
385 91 2298
386 91 1946
387 91 1679
388 91 3094
389 91 1720
390 91 4295
391 91 1823
392 91 1838
393 91 1864
394 91 3592
395 91 2984
396 91 2406
397 91 2836
398 91 1755
399 91 2940
400 91 2129
401 91 3631
402 91 1768
403 91 5644
404 91 1148
405 91 2592
406 91 2131
407 91 1401
408 91 1237
409 91 2281
410 91 2033
411 91 2564
412 91 936
413 91 2426
414 91 3850
415 91 1525
416 91 4077
417 91 2205
418 91 1814
419 91 1793
420 91 4149
421 91 1068
422 91 855
423 91 4397
424 91 2159
425 91 1551
426 91 4715
427 91 4235
428 91 3038
429 91 1828
430 91 2360
431 91 3592
432 91 2136
433 91 2680
434 91 2183
435 91 1925
436 91 2259
437 91 4423
438 91 956
439 91 2961
440 91 3720
441 91 1915
442 91 2771
443 91 1941
444 91 4815
445 91 1213
446 91 1905
447 91 928
448 91 2771
449 91 3683
450 91 1861
451 91 2123
452 91 2619
453 91 2791
454 91 3332
455 91 2117
456 91 1679
457 91 2492
458 91 1010
459 91 1949
460 91 2147
461 91 1022
462 91 2241
463 91 4385
464 91 3498
465 91 4830
466 91 4687
467 91 2592
468 91 1054
469 91 2262
470 91 1500
471 91 3747
472 91 1758
473 91 2229
474 91 911
475 91 2650
476 91 2226
477 91 1687
478 91 2130
479 91 2844
480 91 2305
481 91 3243
482 91 1605
483 91 2826
484 91 1014
485 91 2085
486 91 1864
487 91 2018
488 91 2190
489 91 2713
490 91 2773
491 91 2653
492 91 3121
493 91 1393
494 91 3462
495 91 1346
496 91 2217
497 91 2149
498 91 3731
499 91 2277
500 91 2475
1 92 4304
2 92 5070
3 92 11567
4 92 5312
5 92 6466
6 92 6408
7 92 5358
8 92 5345
9 92 8451
10 92 5008
11 92 6939
12 92 9929
13 92 7963
14 92 7038
15 92 4376
16 92 4625
17 92 5120
18 92 4357
19 92 7280
20 92 2439
21 92 5751
22 92 4191
23 92 5139
24 92 7142
25 92 4901
26 92 5290
27 92 8282
28 92 6782
29 92 10032
30 92 8609
31 92 8129
32 92 3411
33 92 6442
34 92 7588
35 92 3498
36 92 5624
37 92 6411
38 92 7133
39 92 4997
40 92 7318
41 92 9177
42 92 4985
43 92 5752
44 92 4717
45 92 6038
46 92 5244
47 92 7033
48 92 6607
49 92 6878
50 92 5440
51 92 7475
52 92 3985
53 92 5790
54 92 4313
55 92 4227
56 92 3415
57 92 6044
58 92 5924
59 92 8591
60 92 5765
61 92 6000
62 92 3177
63 92 10606
64 92 3246
65 92 3138
66 92 3836
67 92 8501
68 92 4869
69 92 4985
70 92 5946
71 92 1976
72 92 7903
73 92 4119
74 92 3490
75 92 8489
76 92 6782
77 92 9471
78 92 8480
79 92 10821
80 92 3832
81 92 15143
82 92 2799
83 92 8720
84 92 9549
85 92 5711
86 92 7508
87 92 5298
88 92 2506
89 92 5393
90 92 8027
91 92 2299
92 92 4085
93 92 4873
94 92 11250
95 92 3417
96 92 6590
97 92 8304
98 92 3212
99 92 7752
100 92 8044
101 92 5433
102 92 5662
103 92 3344
104 92 4627
105 92 4351
106 92 8580
107 92 3257
108 92 8311
109 92 10714
110 92 11820
111 92 4353
112 92 3955
113 92 6996
114 92 4558
115 92 4219
116 92 6001
117 92 5194
118 92 6210
119 92 4041
120 92 3139
121 92 4736
122 92 3725
123 92 4841
124 92 3702
125 92 8059
126 92 8596
127 92 4775
128 92 8033
129 92 4764
130 92 4371
131 92 7715
132 92 5432
133 92 8021
134 92 9129
135 92 3179
136 92 6421
137 92 6913
138 92 3673
139 92 8279
140 92 3867
141 92 10388
142 92 7131
143 92 5094
144 92 4704
145 92 4844
146 92 7385
147 92 7434
148 92 3443
149 92 3948
150 92 4959
151 92 7092
152 92 7121
153 92 3003
154 92 3275
155 92 10182
156 92 5664
157 92 6963
158 92 7178
159 92 7932
160 92 6040
161 92 7451
162 92 5969
163 92 5722
164 92 2921
165 92 10980
166 92 3474
167 92 3636
168 92 4300
169 92 4425
170 92 9067
171 92 4292
172 92 5411
173 92 11065
174 92 4789
175 92 7915
176 92 5116
177 92 4622
178 92 7849
179 92 7724
180 92 3852
181 92 8208
182 92 3403
183 92 4991
184 92 2918
185 92 7437
186 92 4322
187 92 15302
188 92 10367
189 92 6913
190 92 13511
191 92 5552
192 92 2621
193 92 6890
194 92 6263
195 92 5946
196 92 6513
197 92 14728
198 92 3680
199 92 7902
200 92 4413
201 92 3132
202 92 9329
203 92 9427
204 92 4194
205 92 6172
206 92 4845
207 92 5766
208 92 6972
209 92 4461
210 92 6656
211 92 4139
212 92 3727
213 92 7857
214 92 11113
215 92 7133
216 92 5365
217 92 3217
218 92 6830
219 92 2291
220 92 8717
221 92 2201
222 92 7806
223 92 3326
224 92 7825
225 92 4518
226 92 8780
227 92 5566
228 92 3278
229 92 6495
230 92 2246
231 92 9957
232 92 5659
233 92 5286
234 92 6321
235 92 7327
236 92 4198
237 92 6063
238 92 3936
239 92 6814
240 92 5731
241 92 6898
242 92 4163
243 92 7325
244 92 3798
245 92 9726
246 92 5005
247 92 5445
248 92 3374
249 92 2454
250 92 5711
251 92 6390
252 92 2243
253 92 8389
254 92 5404
255 92 7704
256 92 7536
257 92 6540
258 92 7142
259 92 7470
260 92 5553
261 92 9924
262 92 5295
263 92 7856
264 92 6423
265 92 8759
266 92 5523
267 92 3470
268 92 5694
269 92 10282
270 92 4324
271 92 8246
272 92 4374
273 92 6203
274 92 7463
275 92 5242
276 92 5593
277 92 4781
278 92 9654
279 92 4332
280 92 4369
281 92 4452
282 92 3318
283 92 6123
284 92 9195
285 92 6084
286 92 2643
287 92 3952
288 92 5161
289 92 5230
290 92 3925
291 92 5973
292 92 6311
293 92 6944
294 92 4615
295 92 6358
296 92 4505
297 92 7808
298 92 4851
299 92 5288
300 92 4459
301 92 4256
302 92 9443
303 92 12313
304 92 6641
305 92 5183
306 92 12091
307 92 4745
308 92 3700
309 92 4582
310 92 4144
311 92 4269
312 92 6942
313 92 6346
314 92 11045
315 92 2308
316 92 8559
317 92 5122
318 92 8540
319 92 5654
320 92 6351
321 92 7873
322 92 3078
323 92 8162
324 92 4824
325 92 5124
326 92 5568
327 92 4937
328 92 6319
329 92 3039
330 92 5190
331 92 4542
332 92 7918
333 92 6663
334 92 5213
335 92 4188
336 92 5528
337 92 10068
338 92 11154
339 92 9093
340 92 12359
341 92 3524
342 92 6475
343 92 4234
344 92 4502
345 92 7505
346 92 4348
347 92 3854
348 92 4801
349 92 5865
350 92 4256
351 92 4422
352 92 5548
353 92 3322
354 92 7392
355 92 7930
356 92 7301
357 92 8198
358 92 3120
359 92 3298
360 92 4804
361 92 7550
362 92 7390
363 92 4846
364 92 6136
365 92 3699
366 92 7385
367 92 6095
368 92 5859
369 92 6976
370 92 6263
371 92 4459
372 92 4929
373 92 8566
374 92 8614
375 92 6269
376 92 2965
377 92 8763
378 92 4431
379 92 6976
380 92 5698
381 92 7428
382 92 5090
383 92 4891
384 92 6908
385 92 10048
386 92 11468
387 92 3420
388 92 5240
389 92 3922
390 92 6838
391 92 5283
392 92 4649
393 92 6100
394 92 8028
395 92 11550
396 92 5167
397 92 8629
398 92 5444
399 92 5039
400 92 3857
401 92 5008
402 92 3123
403 92 8115
404 92 6962
405 92 11765
406 92 3297
407 92 3706
408 92 3091
409 92 3348
410 92 9343
411 92 6509
412 92 8567
413 92 4646
414 92 7815
415 92 6208
416 92 6730
417 92 5821
418 92 5870
419 92 3438
420 92 11639
421 92 2323
422 92 2746
423 92 6874
424 92 5760
425 92 3961
426 92 6752
427 92 7763
428 92 7000
429 92 11160
430 92 4680
431 92 9418
432 92 3716
433 92 6212
434 92 4827
435 92 3569
436 92 4880
437 92 5709
438 92 5166
439 92 4566
440 92 7986
441 92 7278
442 92 4130
443 92 5498
444 92 6847
445 92 15669
446 92 5353
447 92 2520
448 92 6795
449 92 6404
450 92 5722
451 92 4583
452 92 5202
453 92 10349
454 92 8332
455 92 4524
456 92 6939
457 92 4771
458 92 3620
459 92 5343
460 92 4399
461 92 4804
462 92 9332
463 92 5358
464 92 7293
465 92 8877
466 92 8799
467 92 5811
468 92 4341
469 92 6729
470 92 1311
471 92 9404
472 92 7435
473 92 7822
474 92 5783
475 92 4049
476 92 8887
477 92 7434
478 92 6185
479 92 5324
480 92 5754
481 92 4453
482 92 9810
483 92 5232
484 92 5406
485 92 6113
486 92 6537
487 92 5921
488 92 7887
489 92 2773
490 92 4271
491 92 6020
492 92 3741
493 92 3446
494 92 6299
495 92 3768
496 92 7848
497 92 6478
498 92 6755
499 92 2788
500 92 7111
1 93 1371
2 93 907
3 93 1531
4 93 529
5 93 1548
6 93 2369
7 93 1425
8 93 2332
9 93 2324
10 93 2169
11 93 1388
12 93 1832
13 93 1014
14 93 1679
15 93 2598
16 93 1946
17 93 1618
18 93 1878
19 93 2301
20 93 753
21 93 1877
22 93 1841
23 93 983
24 93 3171
25 93 726
26 93 1407
27 93 1350
28 93 901
29 93 1447
30 93 2776
31 93 3420
32 93 1351
33 93 1425
34 93 3340
35 93 1754
36 93 1731
37 93 2330
38 93 2778
39 93 1063
40 93 1456
41 93 3000
42 93 1596
43 93 2041
44 93 2476
45 93 4282
46 93 3269
47 93 1524
48 93 1919
49 93 1608
50 93 1170
51 93 2586
52 93 2547
53 93 1533
54 93 1733
55 93 2634
56 93 2080
57 93 1921
58 93 1707
59 93 2776
60 93 2978
61 93 2946
62 93 1196
63 93 2252
64 93 678
65 93 765
66 93 2693
67 93 2217
68 93 1563
69 93 1987
70 93 2286
71 93 1369
72 93 1846
73 93 2009
74 93 1675
75 93 2848
76 93 1858
77 93 3471
78 93 1489
79 93 5254
80 93 555
81 93 1738
82 93 2152
83 93 2209
84 93 2664
85 93 3155
86 93 1864
87 93 1128
88 93 1343
89 93 1821
90 93 1694
91 93 1299
92 93 1256
93 93 873
94 93 2167
95 93 1212
96 93 3230
97 93 1059
98 93 817
99 93 1827
100 93 3325
101 93 2258
102 93 2051
103 93 1038
104 93 1508
105 93 1504
106 93 2742
107 93 1035
108 93 1938
109 93 1272
110 93 922
111 93 1687
112 93 1168
113 93 323
114 93 1805
115 93 1282
116 93 1975
117 93 2020
118 93 2144
119 93 725
120 93 503
121 93 5692
122 93 2051
123 93 1046
124 93 2067
125 93 2584
126 93 1599
127 93 2993
128 93 2431
129 93 1791
130 93 1674
131 93 3816
132 93 1535
133 93 2504
134 93 2127
135 93 896
136 93 1686
137 93 1251
138 93 1167
139 93 3303
140 93 939
141 93 1639
142 93 1769
143 93 1502
144 93 1157
145 93 1675
146 93 2271
147 93 1912
148 93 1571
149 93 2139
150 93 2991
151 93 3212
152 93 1387
153 93 2480
154 93 1460
155 93 3879
156 93 1600
157 93 1540
158 93 1882
159 93 2003
160 93 1836
161 93 1844
162 93 2291
163 93 1991
164 93 1127
165 93 2793
166 93 2120
167 93 1160
168 93 1466
169 93 1929
170 93 2142
171 93 1721
172 93 731
173 93 4071
174 93 1955
175 93 1831
176 93 1508
177 93 2205
178 93 1094
179 93 3720
180 93 941
181 93 3398
182 93 2227
183 93 1194
184 93 626
185 93 1663
186 93 2482
187 93 1795
188 93 2156
189 93 3992
190 93 1850
191 93 1270
192 93 881
193 93 1195
194 93 1832
195 93 1806
196 93 1628
197 93 2299
198 93 1244
199 93 1871
200 93 1279
201 93 1153
202 93 2015
203 93 2335
204 93 2059
205 93 1748
206 93 2240
207 93 2411
208 93 1162
209 93 1724
210 93 2760
211 93 2478
212 93 1434
213 93 803
214 93 2614
215 93 1798
216 93 2163
217 93 2221
218 93 900
219 93 1872
220 93 2265
221 93 566
222 93 1908
223 93 1380
224 93 3670
225 93 1858
226 93 1936
227 93 1544
228 93 968
229 93 2415
230 93 1633
231 93 1787
232 93 1625
233 93 1187
234 93 1948
235 93 2737
236 93 761
237 93 887
238 93 2312
239 93 2813
240 93 2442
241 93 2028
242 93 1259
243 93 1975
244 93 1039
245 93 3297
246 93 1278
247 93 2803
248 93 1665
249 93 1855
250 93 1912
251 93 3993
252 93 1918
253 93 2673
254 93 1163
255 93 3074
256 93 2243
257 93 2966
258 93 724
259 93 1653
260 93 2257
261 93 1214
262 93 1171
263 93 2872
264 93 2976
265 93 1907
266 93 789
267 93 2077
268 93 3744
269 93 1607
270 93 2025
271 93 1806
272 93 2579
273 93 2106
274 93 1877
275 93 1408
276 93 2459
277 93 2769
278 93 2575
279 93 1659
280 93 3081
281 93 2103
282 93 1250
283 93 1768
284 93 1636
285 93 2262
286 93 2076
287 93 2576
288 93 1934
289 93 1473
290 93 1628
291 93 2570
292 93 1734
293 93 2844
294 93 3591
295 93 3027
296 93 1401
297 93 2668
298 93 1885
299 93 2047
300 93 2816
301 93 761
302 93 2048
303 93 3465
304 93 2687
305 93 1259
306 93 856
307 93 1163
308 93 1905
309 93 3427
310 93 2063
311 93 1352
312 93 1593
313 93 1738
314 93 2271
315 93 586
316 93 3006
317 93 2844
318 93 1411
319 93 1486
320 93 2943
321 93 2499
322 93 2141
323 93 3350
324 93 1583
325 93 1922
326 93 2070
327 93 2306
328 93 1724
329 93 682
330 93 1831
331 93 2338
332 93 3701
333 93 988
334 93 1240
335 93 1150
336 93 1590
337 93 2620
338 93 3015
339 93 1759
340 93 1490
341 93 856
342 93 1686
343 93 2676
344 93 1720
345 93 1877
346 93 1518
347 93 1720
348 93 866
349 93 3870
350 93 1820
351 93 1705
352 93 2303
353 93 1273
354 93 1575
355 93 1740
356 93 1441
357 93 2523
358 93 1771
359 93 1743
360 93 1590
361 93 1653
362 93 1845
363 93 2167
364 93 3892
365 93 1196
366 93 1946
367 93 2478
368 93 2182
369 93 2082
370 93 1654
371 93 1243
372 93 1521
373 93 3000
374 93 2787
375 93 2382
376 93 1305
377 93 3081
378 93 2884
379 93 2456
380 93 1586
381 93 1650
382 93 4317
383 93 1456
384 93 3318
385 93 1214
386 93 2031
387 93 770
388 93 1840
389 93 1964
390 93 2964
391 93 2864
392 93 2024
393 93 2005
394 93 3421
395 93 1554
396 93 982
397 93 2819
398 93 1762
399 93 2136
400 93 1594
401 93 2737
402 93 1781
403 93 1974
404 93 2281
405 93 758
406 93 1365
407 93 1236
408 93 1150
409 93 1039
410 93 1124
411 93 1672
412 93 2204
413 93 1554
414 93 2783
415 93 2034
416 93 2828
417 93 2376
418 93 2528
419 93 1827
420 93 1571
421 93 444
422 93 1492
423 93 2964
424 93 868
425 93 1985
426 93 3368
427 93 2305
428 93 2114
429 93 2161
430 93 843
431 93 2930
432 93 1739
433 93 2910
434 93 1263
435 93 1379
436 93 1267
437 93 3733
438 93 799
439 93 1887
440 93 1347
441 93 1787
442 93 1553
443 93 1812
444 93 3339
445 93 1285
446 93 1427
447 93 1359
448 93 2145
449 93 2884
450 93 2203
451 93 2836
452 93 2178
453 93 2437
454 93 5043
455 93 2077
456 93 1888
457 93 3175
458 93 1075
459 93 1448
460 93 1680
461 93 1931
462 93 1634
463 93 2357
464 93 4376
465 93 3187
466 93 3329
467 93 4403
468 93 964
469 93 2986
470 93 1483
471 93 1578
472 93 1837
473 93 1946
474 93 1981
475 93 2746
476 93 3142
477 93 1811
478 93 1801
479 93 2952
480 93 996
481 93 1839
482 93 2091
483 93 2041
484 93 1880
485 93 1733
486 93 1123
487 93 1538
488 93 1920
489 93 1343
490 93 1420
491 93 1718
492 93 2137
493 93 673
494 93 4340
495 93 1311
496 93 1941
497 93 1024
498 93 3177
499 93 1419
500 93 2226
1 94 275
2 94 342
3 94 538
4 94 5
5 94 244
6 94 856
7 94 858
8 94 379
9 94 625
10 94 1454
11 94 548
12 94 475
13 94 34
14 94 953
15 94 418
16 94 935
17 94 943
18 94 524
19 94 641
20 94 4
21 94 1020
22 94 555
23 94 968
24 94 223
25 94 402
26 94 862
27 94 499
28 94 380
29 94 473
30 94 1171
31 94 481
32 94 557
33 94 1594
34 94 1035
35 94 39
36 94 723
37 94 982
38 94 96
39 94 258
40 94 212
41 94 2250
42 94 932
43 94 737
44 94 767
45 94 1062
46 94 965
47 94 556
48 94 577
49 94 325
50 94 223
51 94 610
52 94 608
53 94 739
54 94 82
55 94 721
56 94 1048
57 94 201
58 94 532
59 94 1175
60 94 386
61 94 937
62 94 636
63 94 594
64 94 491
65 94 1227
66 94 954
67 94 475
68 94 534
69 94 560
70 94 63
71 94 104
72 94 802
73 94 1007
74 94 424
75 94 1174
76 94 996
77 94 351
78 94 655
79 94 1539
81 94 261
82 94 125
83 94 615
84 94 300
85 94 830
86 94 869
87 94 393
88 94 559
89 94 1199
90 94 658
91 94 242
92 94 137
93 94 623
94 94 798
95 94 735
96 94 299
97 94 716
98 94 1347
99 94 765
100 94 471
101 94 1261
102 94 449
104 94 556
105 94 1134
106 94 1141
107 94 114
108 94 517
109 94 801
110 94 597
111 94 301
112 94 411
113 94 505
114 94 420
115 94 602
116 94 386
117 94 365
118 94 695
119 94 5
120 94 9
121 94 469
122 94 896
123 94 19
124 94 1028
125 94 439
126 94 463
127 94 1325
128 94 465
129 94 204
130 94 312
131 94 476
132 94 1165
133 94 212
134 94 532
135 94 560
136 94 937
137 94 900
138 94 450
139 94 452
140 94 656
141 94 229
142 94 1577
143 94 484
144 94 709
145 94 706
146 94 643
147 94 1723
148 94 423
149 94 509
150 94 168
151 94 621
152 94 714
153 94 1010
154 94 124
155 94 504
156 94 1048
157 94 2
158 94 613
159 94 841
160 94 1206
161 94 907
162 94 905
163 94 190
164 94 273
165 94 567
166 94 135
167 94 123
168 94 543
169 94 984
170 94 529
171 94 85
172 94 51
173 94 339
174 94 285
175 94 798
176 94 1203
177 94 478
178 94 347
179 94 472
180 94 649
181 94 672
182 94 514
183 94 2
184 94 29
185 94 563
186 94 1381
187 94 268
188 94 1346
189 94 1010
190 94 942
191 94 181
192 94 1
193 94 966
194 94 669
195 94 367
196 94 91
197 94 386
198 94 529
199 94 357
200 94 383
201 94 100
202 94 539
203 94 1211
204 94 890
205 94 922
206 94 1132
207 94 869
208 94 936
209 94 322
210 94 383
211 94 816
212 94 724
213 94 588
214 94 251
215 94 1504
216 94 1270
217 94 429
218 94 186
219 94 236
220 94 589
222 94 795
223 94 581
224 94 941
225 94 499
226 94 608
227 94 1148
228 94 591
229 94 660
231 94 494
232 94 108
233 94 406
234 94 486
235 94 78
236 94 82
237 94 889
238 94 385
239 94 202
240 94 552
241 94 1019
242 94 270
243 94 234
244 94 2
245 94 355
246 94 1245
247 94 177
248 94 196
249 94 208
250 94 826
251 94 612
252 94 1247
253 94 1138
254 94 1039
255 94 545
256 94 582
257 94 630
258 94 2064
259 94 538
260 94 1269
261 94 1503
262 94 212
263 94 750
264 94 619
265 94 617
266 94 42
267 94 158
268 94 1127
269 94 212
270 94 255
271 94 568
272 94 80
273 94 996
274 94 929
275 94 889
276 94 944
277 94 538
278 94 1308
279 94 307
280 94 1355
281 94 542
282 94 289
283 94 535
284 94 879
285 94 226
286 94 602
287 94 580
288 94 1023
289 94 844
290 94 615
291 94 324
292 94 558
293 94 233
294 94 1103
295 94 347
296 94 820
297 94 616
298 94 1298
299 94 465
300 94 596
301 94 1176
302 94 1393
303 94 1192
304 94 473
305 94 180
306 94 78
307 94 746
308 94 1449
309 94 452
310 94 477
311 94 285
312 94 574
313 94 343
314 94 108
316 94 719
317 94 449
318 94 662
319 94 1018
320 94 1492
321 94 667
322 94 465
323 94 483
324 94 535
325 94 391
326 94 639
327 94 620
328 94 946
329 94 654
330 94 380
331 94 693
332 94 1024
333 94 6
334 94 807
335 94 6
336 94 1190
337 94 374
338 94 411
339 94 793
340 94 606
341 94 5
342 94 937
343 94 731
344 94 303
345 94 908
346 94 844
347 94 374
348 94 331
349 94 223
350 94 471
351 94 78
352 94 1210
353 94 1000
354 94 525
355 94 801
356 94 211
357 94 1529
358 94 152
359 94 582
360 94 231
361 94 564
362 94 751
363 94 184
364 94 553
365 94 425
366 94 355
367 94 1557
368 94 210
369 94 642
370 94 235
371 94 246
372 94 209
373 94 771
374 94 1129
375 94 570
376 94 295
377 94 342
378 94 800
379 94 453
380 94 685
381 94 524
382 94 609
383 94 832
384 94 1090
385 94 206
386 94 601
387 94 20
388 94 321
389 94 698
390 94 218
391 94 936
392 94 925
393 94 372
394 94 490
395 94 595
396 94 583
397 94 367
398 94 705
399 94 796
400 94 955
401 94 810
402 94 569
403 94 916
404 94 604
405 94 815
406 94 268
407 94 511
408 94 141
410 94 927
411 94 990
412 94 710
413 94 962
414 94 949
415 94 138
416 94 414
417 94 895
418 94 512
419 94 396
420 94 941
421 94 2
422 94 652
423 94 251
424 94 367
425 94 371
426 94 300
427 94 179
428 94 685
429 94 101
430 94 655
431 94 281
432 94 400
433 94 927
434 94 350
435 94 1646
436 94 336
437 94 1143
438 94 2
439 94 430
440 94 1319
441 94 1520
442 94 492
443 94 336
444 94 280
445 94 6
446 94 853
447 94 432
448 94 1053
449 94 1078
450 94 1274
451 94 620
452 94 817
453 94 432
454 94 425
455 94 886
456 94 600
457 94 705
458 94 13
459 94 871
460 94 316
461 94 7
462 94 827
463 94 362
464 94 417
465 94 312
466 94 333
467 94 1227
468 94 66
469 94 945
470 94 399
471 94 362
472 94 968
473 94 787
474 94 824
475 94 939
476 94 150
477 94 914
478 94 708
479 94 1532
480 94 115
481 94 317
482 94 1370
483 94 1144
484 94 2
485 94 681
486 94 469
487 94 483
488 94 818
489 94 1772
490 94 382
491 94 534
492 94 881
493 94 77
494 94 1138
495 94 42
496 94 812
497 94 6
498 94 329
499 94 1000
500 94 1551
1 95 1627
2 95 2208
3 95 1651
4 95 729
5 95 1989
6 95 1898
7 95 1392
8 95 1723
9 95 2513
10 95 1749
11 95 1583
12 95 2058
13 95 980
14 95 330
15 95 1296
16 95 1678
17 95 555
18 95 1454
19 95 2531
21 95 777
22 95 823
23 95 645
24 95 809
25 95 784
26 95 1422
27 95 3306
28 95 1461
29 95 1840
30 95 1838
31 95 1385
32 95 666
33 95 1206
34 95 2093
35 95 1126
36 95 995
37 95 1552
38 95 1847
39 95 660
40 95 1524
41 95 1076
42 95 1972
43 95 1160
44 95 623
45 95 1190
46 95 2759
47 95 997
48 95 2094
49 95 762
50 95 795
51 95 2011
52 95 142
53 95 953
54 95 542
55 95 1547
56 95 1635
57 95 1744
58 95 1200
59 95 1944
60 95 1622
61 95 1917
62 95 872
63 95 1407
64 95 1070
65 95 1389
66 95 1161
67 95 1719
68 95 1607
69 95 433
70 95 2242
71 95 1094
72 95 1056
73 95 1543
74 95 1616
75 95 1809
76 95 2466
77 95 1821
78 95 1372
79 95 1714
81 95 1441
82 95 1140
83 95 1531
84 95 1281
85 95 2033
86 95 1354
87 95 1744
88 95 1899
89 95 2040
90 95 2233
91 95 1257
92 95 881
93 95 1359
94 95 2804
95 95 1733
96 95 2003
97 95 464
98 95 1439
99 95 1448
100 95 1365
101 95 1951
102 95 2130
103 95 941
104 95 678
105 95 1511
106 95 1754
107 95 611
108 95 1762
109 95 697
110 95 1159
111 95 2238
112 95 1224
113 95 1160
114 95 1715
115 95 635
116 95 944
117 95 845
118 95 1876
119 95 33
120 95 613
121 95 1231
122 95 807
123 95 787
124 95 1576
125 95 1440
126 95 965
127 95 1926
128 95 1601
129 95 2076
130 95 2304
131 95 1883
132 95 1485
133 95 831
134 95 1373
135 95 711
136 95 1088
137 95 1475
138 95 336
139 95 1660
140 95 1238
141 95 1597
142 95 1464
143 95 1492
144 95 663
145 95 1384
146 95 2541
147 95 1822
148 95 1642
149 95 964
150 95 1299
151 95 445
152 95 1017
153 95 1205
154 95 1171
155 95 1932
156 95 2287
157 95 867
158 95 1861
159 95 1098
160 95 2040
161 95 1306
162 95 1826
163 95 750
164 95 384
165 95 421
166 95 1303
167 95 978
168 95 1190
169 95 1632
170 95 1430
171 95 595
172 95 701
173 95 2123
174 95 1363
175 95 1060
176 95 1263
177 95 1433
178 95 754
179 95 1897
180 95 858
181 95 719
182 95 1306
183 95 350
184 95 1414
185 95 1974
186 95 1556
187 95 1504
188 95 737
189 95 2537
190 95 1553
191 95 2020
192 95 563
193 95 1457
194 95 841
195 95 2477
196 95 1951
197 95 940
198 95 1042
199 95 1342
200 95 828
201 95 793
202 95 517
203 95 421
204 95 1549
205 95 1075
206 95 819
207 95 1066
208 95 1521
209 95 2272
210 95 2321
211 95 2057
212 95 875
213 95 1171
214 95 2641
215 95 1489
216 95 205
217 95 357
218 95 933
219 95 539
220 95 1488
222 95 1166
223 95 682
224 95 974
225 95 1452
226 95 1165
227 95 749
228 95 689
229 95 2151
230 95 474
231 95 2035
232 95 2209
233 95 820
234 95 1050
235 95 1764
236 95 831
237 95 1284
238 95 731
239 95 941
240 95 1938
241 95 1822
242 95 1254
243 95 1447
244 95 5
245 95 1693
246 95 1885
247 95 997
248 95 706
249 95 507
250 95 1316
251 95 1260
252 95 1094
253 95 1864
254 95 2989
255 95 939
256 95 1563
257 95 1905
258 95 2190
259 95 1942
260 95 2049
261 95 521
262 95 808
263 95 2345
264 95 1936
265 95 1210
266 95 643
267 95 1258
268 95 2459
269 95 1504
270 95 2027
271 95 1245
272 95 356
273 95 837
274 95 1248
275 95 1287
276 95 1340
277 95 413
278 95 2022
279 95 2260
280 95 2084
281 95 720
282 95 756
283 95 724
284 95 1893
285 95 1890
286 95 812
287 95 123
288 95 1775
289 95 1388
290 95 969
291 95 1764
292 95 1993
293 95 996
294 95 1391
295 95 1016
296 95 1821
297 95 1378
298 95 1285
299 95 1631
300 95 1910
301 95 398
302 95 2714
303 95 2034
304 95 2365
305 95 2424
306 95 928
307 95 603
308 95 1562
309 95 975
310 95 1173
311 95 1301
312 95 1092
313 95 2022
314 95 1394
316 95 1649
317 95 2268
318 95 1388
319 95 2178
320 95 1526
321 95 1352
322 95 1252
323 95 1486
324 95 1676
325 95 2617
326 95 1315
327 95 1230
328 95 1070
329 95 708
330 95 1647
331 95 1104
332 95 1054
333 95 659
334 95 1612
335 95 6
336 95 716
337 95 1490
338 95 1286
339 95 1428
340 95 1141
341 95 757
342 95 1148
343 95 1628
344 95 2302
345 95 1300
346 95 1379
347 95 1390
348 95 2181
349 95 1304
350 95 1431
351 95 580
352 95 2055
353 95 606
354 95 2056
355 95 1977
356 95 1584
357 95 2445
358 95 501
359 95 2029
360 95 1703
361 95 1899
362 95 727
363 95 1179
364 95 1042
365 95 319
366 95 1458
367 95 1688
368 95 1374
369 95 1660
370 95 1015
371 95 2433
372 95 1799
373 95 1651
374 95 1844
375 95 1775
376 95 371
377 95 2838
378 95 1506
379 95 1348
380 95 1559
381 95 1866
382 95 2243
383 95 1470
384 95 1806
385 95 1068
386 95 683
387 95 930
388 95 1748
389 95 1750
390 95 1035
391 95 854
392 95 1275
393 95 1000
394 95 1387
395 95 1644
396 95 689
397 95 504
398 95 1260
399 95 1418
400 95 1247
401 95 1278
402 95 1913
403 95 789
404 95 1026
405 95 1019
406 95 1001
407 95 991
408 95 599
409 95 919
410 95 858
411 95 1153
412 95 1521
413 95 803
414 95 994
415 95 2203
416 95 2427
417 95 1455
418 95 1774
419 95 719
420 95 1174
422 95 636
423 95 964
424 95 1349
425 95 817
426 95 2018
427 95 1503
428 95 1630
429 95 1400
430 95 1358
431 95 1664
432 95 1290
433 95 1964
434 95 535
435 95 1438
436 95 536
437 95 2405
438 95 964
439 95 1646
440 95 2214
441 95 1466
442 95 1491
443 95 1557
444 95 2095
445 95 23
446 95 1404
447 95 1570
448 95 1773
449 95 3716
450 95 2020
451 95 1855
452 95 872
453 95 1711
454 95 3113
455 95 1226
456 95 1126
457 95 1312
458 95 717
459 95 1382
460 95 2257
461 95 660
462 95 1905
463 95 1805
464 95 2334
465 95 2898
466 95 2923
467 95 1937
468 95 607
469 95 3162
470 95 614
471 95 575
472 95 1349
473 95 1099
474 95 2001
475 95 1205
476 95 1340
477 95 1290
478 95 841
479 95 1492
480 95 1445
481 95 1657
482 95 2783
483 95 1342
484 95 1442
485 95 839
486 95 1015
487 95 2026
488 95 1088
489 95 1217
490 95 1038
491 95 1202
492 95 2407
493 95 569
494 95 2451
495 95 778
496 95 1143
497 95 742
498 95 1635
499 95 885
500 95 923
1 96 3069
2 96 7623
3 96 3759
4 96 4854
5 96 5469
6 96 3770
7 96 5813
8 96 4572
9 96 6875
10 96 4986
11 96 5048
12 96 3184
13 96 1716
14 96 5492
15 96 7125
16 96 4940
17 96 4301
18 96 5312
19 96 5972
21 96 9153
22 96 3980
23 96 4000
24 96 7676
25 96 2980
26 96 5837
27 96 6708
28 96 6600
29 96 5404
30 96 5097
31 96 4725
32 96 3452
33 96 6576
34 96 4702
35 96 1624
36 96 4677
37 96 6991
38 96 5070
39 96 5130
40 96 6157
41 96 5671
42 96 3479
43 96 3754
44 96 4743
45 96 5599
46 96 6018
47 96 4784
48 96 14194
49 96 7751
50 96 7776
51 96 6605
52 96 5825
53 96 4218
54 96 5775
55 96 4468
56 96 7150
57 96 5646
58 96 4453
59 96 5050
60 96 7392
61 96 6611
62 96 5323
63 96 6575
64 96 4542
65 96 7203
66 96 5447
67 96 8993
68 96 9982
69 96 4881
70 96 5392
71 96 4348
72 96 4265
73 96 5933
74 96 5064
75 96 5097
76 96 3713
77 96 4599
78 96 4342
79 96 6266
81 96 10215
82 96 4130
83 96 6985
84 96 16005
85 96 5404
86 96 6198
87 96 6774
88 96 7681
89 96 5616
90 96 2723
91 96 2183
92 96 4832
93 96 6882
94 96 5116
95 96 9303
96 96 7339
97 96 8248
98 96 7306
99 96 2250
100 96 4699
101 96 6301
102 96 3935
103 96 1989
104 96 3383
105 96 5593
106 96 5239
107 96 2716
108 96 8034
109 96 6621
110 96 7127
111 96 8406
112 96 2691
113 96 4278
114 96 6103
115 96 4725
116 96 4424
117 96 4425
118 96 6893
119 96 38
120 96 4564
121 96 4382
122 96 6093
123 96 1890
124 96 5592
125 96 6761
126 96 8024
127 96 9759
128 96 3835
129 96 4523
130 96 8343
131 96 5238
132 96 4254
133 96 3049
134 96 7721
135 96 2454
136 96 5375
137 96 3729
138 96 5218
139 96 4847
140 96 4448
141 96 9225
142 96 3682
143 96 5765
144 96 9242
145 96 6038
146 96 5964
147 96 7853
148 96 5028
149 96 5822
150 96 11130
151 96 3973
152 96 4865
153 96 4698
154 96 4843
155 96 9119
156 96 4835
157 96 6149
158 96 5648
159 96 4375
160 96 5296
161 96 6156
162 96 7675
163 96 3364
164 96 7075
165 96 8524
166 96 4894
167 96 2839
168 96 6851
169 96 4873
170 96 7850
171 96 5821
172 96 4844
173 96 6099
174 96 6293
175 96 4318
176 96 9060
177 96 6468
178 96 3928
179 96 5475
180 96 3011
181 96 5047
182 96 7596
183 96 1819
184 96 2041
185 96 4474
186 96 10113
187 96 10134
188 96 6835
189 96 7867
190 96 6398
191 96 5069
192 96 2447
193 96 3621
194 96 5578
195 96 9919
196 96 3477
197 96 2983
198 96 3333
199 96 10219
200 96 4846
201 96 13753
202 96 4350
203 96 4579
204 96 5074
205 96 4334
206 96 2893
207 96 9458
208 96 3617
209 96 8579
210 96 7870
211 96 7942
212 96 3497
213 96 4795
214 96 6775
215 96 3427
216 96 7422
217 96 3603
218 96 4827
219 96 5687
220 96 7073
222 96 4350
223 96 3606
224 96 6943
225 96 5344
226 96 5516
227 96 4742
228 96 2441
229 96 3891
230 96 3472
231 96 3254
232 96 5799
233 96 3335
234 96 4477
235 96 5245
236 96 2827
237 96 7920
238 96 3224
239 96 4270
240 96 5754
241 96 5924
242 96 11531
243 96 4799
244 96 28
245 96 4550
246 96 11959
247 96 7791
248 96 4897
249 96 5715
250 96 3976
251 96 4772
252 96 4335
253 96 5144
254 96 7348
255 96 6878
256 96 10347
257 96 7302
258 96 6362
259 96 4491
260 96 11310
261 96 6982
262 96 7781
263 96 9289
264 96 7092
265 96 5703
266 96 4906
267 96 4887
268 96 5323
269 96 9230
270 96 3697
271 96 5723
272 96 5115
273 96 5510
274 96 6195
275 96 5662
276 96 4840
277 96 5644
278 96 8066
279 96 8751
280 96 10729
281 96 3428
282 96 3313
283 96 5426
284 96 5718
285 96 6814
286 96 4933
287 96 5746
288 96 8318
289 96 5853
290 96 4111
291 96 3871
292 96 5145
293 96 4339
294 96 8532
295 96 5346
296 96 6770
297 96 3125
298 96 4324
299 96 2798
300 96 4881
301 96 6598
302 96 7002
303 96 8816
304 96 9050
305 96 6032
306 96 3176
307 96 9051
308 96 11083
309 96 6591
310 96 4642
311 96 11572
312 96 4836
313 96 5499
314 96 3744
316 96 8963
317 96 5059
318 96 4423
319 96 4848
320 96 4760
321 96 3092
322 96 5252
323 96 4679
324 96 10087
325 96 5224
326 96 5911
327 96 6215
328 96 5369
329 96 3942
330 96 3905
331 96 9463
332 96 6907
333 96 7646
334 96 5168
335 96 195
336 96 4967
337 96 4448
338 96 6141
339 96 2502
340 96 5260
341 96 5989
342 96 5480
343 96 5622
344 96 8440
345 96 6212
346 96 6557
347 96 3965
348 96 7883
349 96 4539
350 96 5248
351 96 5790
352 96 11156
353 96 4090
354 96 4513
355 96 6112
356 96 6146
357 96 5419
358 96 3833
359 96 4461
360 96 4712
361 96 4570
362 96 6906
363 96 3886
364 96 9315
365 96 5270
366 96 6852
367 96 12110
368 96 4229
369 96 6607
370 96 5099
371 96 5574
372 96 4608
373 96 9139
374 96 5243
375 96 5792
376 96 3782
377 96 5498
378 96 4082
379 96 5239
380 96 4482
381 96 4433
382 96 6776
383 96 4855
384 96 5873
385 96 4371
386 96 3614
387 96 2165
388 96 6047
389 96 6478
390 96 4389
391 96 5790
392 96 8366
393 96 4369
394 96 4695
395 96 3869
396 96 3745
397 96 3715
398 96 5002
399 96 6607
400 96 6197
401 96 6418
402 96 4450
403 96 2300
404 96 5706
405 96 8127
406 96 3959
407 96 3427
408 96 2937
409 96 1961
410 96 5255
411 96 5413
412 96 7093
413 96 5160
414 96 7813
415 96 5859
416 96 7981
417 96 6065
418 96 5680
419 96 8327
420 96 10378
422 96 3371
423 96 4308
424 96 4129
425 96 6003
426 96 7563
427 96 5878
428 96 6534
429 96 3778
430 96 6978
431 96 8558
432 96 3958
433 96 6732
434 96 3137
435 96 6366
436 96 3138
437 96 5301
438 96 1612
439 96 6175
440 96 23331
441 96 3567
442 96 7516
443 96 4767
444 96 7549
445 96 283
446 96 5864
447 96 5164
448 96 5821
449 96 6788
450 96 11218
451 96 4826
452 96 6649
453 96 4512
454 96 6362
455 96 4598
456 96 2556
457 96 5246
458 96 3341
459 96 5813
460 96 8532
461 96 4509
462 96 5582
463 96 4534
464 96 5119
465 96 5649
466 96 5691
467 96 10814
468 96 3361
469 96 6232
470 96 9317
471 96 6066
472 96 6242
473 96 4273
474 96 7145
475 96 5304
476 96 6287
477 96 6214
478 96 5519
479 96 4138
480 96 3708
481 96 4172
482 96 7202
483 96 5255
484 96 1559
485 96 5477
486 96 4634
487 96 6692
488 96 4373
489 96 2977
490 96 8558
491 96 4379
492 96 5141
493 96 3455
494 96 7509
495 96 3404
496 96 4231
497 96 7750
498 96 9065
499 96 5568
500 96 5270
1 97 11173
2 97 26436
3 97 19218
4 97 16873
5 97 20168
6 97 24039
7 97 20716
8 97 33847
9 97 21269
10 97 14024
11 97 10173
12 97 12371
13 97 13410
14 97 14786
15 97 15181
16 97 13333
17 97 16743
18 97 25801
19 97 23319
21 97 7403
22 97 7974
23 97 21659
24 97 22709
25 97 14920
26 97 20947
27 97 11746
28 97 15625
29 97 13373
30 97 23436
31 97 16767
32 97 15933
33 97 24163
34 97 16909
35 97 7652
36 97 10541
37 97 13628
38 97 17125
39 97 13909
40 97 9684
41 97 19586
42 97 18315
43 97 33719
44 97 10247
45 97 16366
46 97 19176
47 97 20525
48 97 8466
49 97 17793
50 97 14912
51 97 12466
52 97 20192
53 97 14238
54 97 17016
55 97 9204
56 97 16190
57 97 16380
58 97 17382
59 97 23306
60 97 11051
61 97 23370
62 97 20280
63 97 13942
64 97 5412
65 97 13846
66 97 15778
67 97 11935
68 97 16736
69 97 6833
70 97 16549
71 97 26619
72 97 23266
73 97 4503
74 97 16946
75 97 23061
76 97 10823
77 97 25875
78 97 13988
79 97 10901
81 97 21912
82 97 11253
83 97 9081
84 97 12282
85 97 15464
86 97 27450
87 97 17710
88 97 15178
89 97 11361
90 97 15985
91 97 9583
92 97 13924
93 97 16826
94 97 16752
95 97 9903
96 97 31425
97 97 17012
98 97 13902
99 97 15172
100 97 16753
101 97 16016
102 97 20830
103 97 16559
104 97 11022
105 97 11313
106 97 22893
107 97 11122
108 97 22431
109 97 11184
110 97 11873
111 97 20600
112 97 13299
113 97 17149
114 97 12620
115 97 11680
116 97 17987
117 97 15863
118 97 13186
119 97 963
120 97 23138
121 97 10217
122 97 9195
123 97 6797
124 97 12158
125 97 18416
126 97 23293
127 97 17507
128 97 18653
129 97 9784
130 97 20858
131 97 16893
132 97 27838
133 97 32720
134 97 12491
135 97 8375
136 97 13491
137 97 31409
138 97 13708
139 97 18392
140 97 14982
141 97 19724
142 97 21158
143 97 18339
144 97 23512
145 97 11460
146 97 23621
147 97 19612
148 97 16954
149 97 13592
150 97 23319
151 97 13100
152 97 24461
153 97 14598
154 97 22096
155 97 16874
156 97 13349
157 97 15983
158 97 25022
159 97 23080
160 97 12136
161 97 28036
162 97 15156
163 97 19724
164 97 21165
165 97 10893
166 97 14114
167 97 18104
168 97 26927
169 97 13178
170 97 12496
171 97 17196
172 97 18058
173 97 11025
174 97 22437
175 97 23382
176 97 15970
177 97 24888
178 97 18494
179 97 17057
180 97 17722
181 97 12724
182 97 23452
183 97 15136
184 97 13490
185 97 9545
186 97 8596
187 97 22268
188 97 13516
189 97 23445
190 97 19604
191 97 11141
192 97 8807
193 97 31536
194 97 15900
195 97 12468
196 97 10799
197 97 18190
198 97 14284
199 97 23745
200 97 27815
201 97 16648
202 97 16589
203 97 18290
204 97 9028
205 97 16072
206 97 23734
207 97 24999
208 97 31741
209 97 20803
210 97 18150
211 97 9220
212 97 10674
213 97 17882
214 97 13853
215 97 21138
216 97 17858
217 97 14396
218 97 18779
219 97 29676
220 97 8837
222 97 23231
223 97 15992
224 97 7721
225 97 25825
226 97 37073
227 97 14220
228 97 8544
229 97 9293
230 97 8802
231 97 12599
232 97 8900
233 97 8114
234 97 26911
235 97 17382
236 97 15050
237 97 17576
238 97 11566
239 97 44649
240 97 13900
241 97 16999
242 97 15648
243 97 14980
244 97 1664
245 97 25918
246 97 23951
247 97 20352
248 97 16014
249 97 29758
250 97 12757
251 97 20365
252 97 8889
253 97 23413
254 97 16831
255 97 18214
256 97 32551
257 97 30950
258 97 16527
259 97 9500
260 97 15494
261 97 20416
262 97 14995
263 97 27835
264 97 30865
265 97 36695
266 97 18225
267 97 14314
268 97 16719
269 97 19536
270 97 14364
271 97 14404
272 97 21413
273 97 19719
274 97 28279
275 97 20877
276 97 15693
277 97 12952
278 97 24144
279 97 20745
280 97 19003
281 97 18317
282 97 16698
283 97 19466
284 97 17644
285 97 15998
286 97 21666
287 97 20213
288 97 15579
289 97 21268
290 97 14542
291 97 14520
292 97 12469
293 97 45379
294 97 20920
295 97 45412
296 97 19763
297 97 24313
298 97 21156
299 97 36428
300 97 20476
301 97 21412
302 97 16057
303 97 17403
304 97 21273
305 97 14582
306 97 21382
307 97 23455
308 97 14793
309 97 20916
310 97 19415
311 97 15214
312 97 20597
313 97 17248
314 97 16138
316 97 14083
317 97 21943
318 97 14030
319 97 13406
320 97 33944
321 97 24447
322 97 9345
323 97 16644
324 97 16396
325 97 20847
326 97 12518
327 97 11388
328 97 13456
329 97 10561
330 97 20546
331 97 29220
332 97 7783
333 97 14358
334 97 23447
335 97 971
336 97 14250
337 97 9315
338 97 22295
339 97 12070
340 97 22269
341 97 11247
342 97 13498
343 97 18233
344 97 20811
345 97 28180
346 97 13025
347 97 12100
348 97 26608
349 97 11828
350 97 26004
351 97 16893
352 97 15661
353 97 16673
354 97 9417
355 97 9583
356 97 9718
357 97 12534
358 97 8563
359 97 11780
360 97 24623
361 97 9528
362 97 13349
363 97 30041
364 97 19176
365 97 13679
366 97 26456
367 97 25090
368 97 14264
369 97 6707
370 97 24709
371 97 11610
372 97 24703
373 97 14123
374 97 23410
375 97 25828
376 97 6695
377 97 24250
378 97 15628
379 97 18123
380 97 21965
381 97 9333
382 97 18368
383 97 12883
384 97 11875
385 97 19145
386 97 18940
387 97 9632
388 97 17952
389 97 18712
390 97 45212
391 97 10033
392 97 8523
393 97 18029
394 97 16898
395 97 19113
396 97 19738
397 97 17419
398 97 9079
399 97 21089
400 97 13005
401 97 15025
402 97 11951
403 97 10464
404 97 13240
405 97 17778
406 97 16208
407 97 14578
408 97 7296
409 97 17046
410 97 19793
411 97 13697
412 97 9043
413 97 18792
414 97 16446
415 97 17626
416 97 18011
417 97 16275
418 97 15424
419 97 15280
420 97 15325
422 97 18719
423 97 45993
424 97 11578
425 97 23857
426 97 32882
427 97 21753
428 97 6642
429 97 16198
430 97 16675
431 97 20947
432 97 11898
433 97 23009
434 97 7566
435 97 17182
436 97 7594
437 97 16926
438 97 7023
439 97 12890
440 97 35812
441 97 21411
442 97 14714
443 97 17587
444 97 32589
445 97 951
446 97 21005
447 97 28037
448 97 16986
449 97 17470
450 97 15575
451 97 20462
452 97 27959
453 97 11004
454 97 23040
455 97 22364
456 97 16146
457 97 16224
458 97 13966
459 97 20906
460 97 20620
461 97 8145
462 97 17701
463 97 33923
464 97 41634
465 97 24698
466 97 24627
467 97 18627
468 97 14379
469 97 16720
470 97 21101
471 97 8428
472 97 28079
473 97 23392
474 97 10311
475 97 16150
476 97 32890
477 97 28292
478 97 15880
479 97 15414
480 97 23823
481 97 30978
482 97 16286
483 97 14531
484 97 10972
485 97 15965
486 97 10168
487 97 17615
488 97 23346
489 97 15147
490 97 20766
491 97 17314
492 97 15110
493 97 12529
494 97 14590
495 97 19180
496 97 23475
497 97 14468
498 97 16427
499 97 23387
500 97 35987
1 98 1952
2 98 2882
3 98 3617
4 98 1516
5 98 1938
6 98 1697
7 98 2345
8 98 2999
9 98 2682
10 98 5070
11 98 1920
12 98 2296
13 98 1833
14 98 1939
15 98 2390
16 98 2014
17 98 3339
18 98 2939
19 98 4683
21 98 3335
22 98 3808
23 98 3237
24 98 4315
25 98 1265
26 98 2319
27 98 2949
28 98 2792
29 98 1908
30 98 3269
31 98 3447
32 98 2177
33 98 3243
34 98 3896
35 98 1074
36 98 1153
37 98 4830
38 98 4378
39 98 4382
40 98 4108
41 98 3831
42 98 2517
43 98 1798
44 98 3614
45 98 3095
46 98 3192
47 98 2813
48 98 3337
49 98 3535
50 98 2871
51 98 3195
52 98 1929
53 98 3171
54 98 1676
55 98 2050
56 98 2043
57 98 2667
58 98 2938
59 98 3394
60 98 3242
61 98 3624
62 98 1166
63 98 3411
64 98 2054
65 98 2918
66 98 1693
67 98 2686
68 98 3255
69 98 3173
70 98 2629
71 98 1826
72 98 3055
73 98 2249
74 98 2115
75 98 3407
76 98 2192
77 98 2021
78 98 1747
79 98 4355
81 98 3923
82 98 3671
83 98 3485
84 98 2051
85 98 3787
86 98 3758
87 98 3815
88 98 3149
89 98 5270
90 98 2577
91 98 2536
92 98 1659
93 98 2561
94 98 3954
95 98 4234
96 98 2127
97 98 3654
98 98 2873
99 98 2125
100 98 3530
101 98 3323
102 98 2514
103 98 495
104 98 2597
105 98 1873
106 98 3390
107 98 1397
108 98 3563
109 98 1953
110 98 3416
111 98 2165
112 98 1375
113 98 1575
114 98 2412
115 98 1870
116 98 2448
117 98 2737
118 98 5192
120 98 1727
121 98 3750
122 98 3764
123 98 2339
124 98 3589
125 98 3332
126 98 1870
127 98 3204
128 98 4334
129 98 2786
130 98 2216
131 98 4007
132 98 3549
133 98 1918
134 98 2619
135 98 1212
136 98 3626
137 98 3846
138 98 1325
139 98 2993
140 98 1786
141 98 1964
142 98 1660
143 98 4163
144 98 2386
145 98 8703
146 98 4742
147 98 3688
148 98 2137
149 98 2188
150 98 1897
151 98 1977
152 98 3075
153 98 1557
154 98 2564
155 98 4457
156 98 3802
157 98 1414
158 98 4365
159 98 3231
160 98 1607
161 98 3841
162 98 2538
163 98 1827
164 98 1958
165 98 3346
166 98 1256
167 98 1462
168 98 1495
169 98 2064
170 98 2640
171 98 1808
172 98 1958
173 98 9176
174 98 2726
175 98 3204
176 98 2447
177 98 3293
178 98 2953
179 98 3979
180 98 1418
181 98 3111
182 98 1554
183 98 12
184 98 931
185 98 3914
186 98 2140
187 98 3974
188 98 3120
189 98 3342
190 98 2903
191 98 3315
192 98 15
193 98 3783
194 98 1983
195 98 4682
196 98 3132
197 98 2314
198 98 1765
199 98 3596
200 98 1556
201 98 999
202 98 2400
203 98 2893
204 98 3267
205 98 2495
206 98 1750
207 98 2533
208 98 3744
209 98 2202
210 98 2949
211 98 4608
212 98 3209
213 98 2549
214 98 3144
215 98 1614
216 98 3386
217 98 1558
218 98 1428
219 98 2017
220 98 3446
222 98 3268
223 98 2174
224 98 2226
225 98 2805
226 98 3308
227 98 1659
228 98 1188
229 98 3785
230 98 1099
231 98 2193
232 98 4235
233 98 2646
234 98 2740
235 98 4305
236 98 1285
237 98 1437
238 98 2396
239 98 3357
240 98 3426
241 98 2316
242 98 2945
243 98 3127
245 98 2020
246 98 5359
247 98 3019
248 98 2355
249 98 1969
250 98 1734
251 98 2897
252 98 3115
253 98 3418
254 98 1793
255 98 3014
256 98 2881
257 98 3241
258 98 4791
259 98 3882
260 98 2251
261 98 4528
262 98 2857
263 98 3252
264 98 3136
265 98 3275
266 98 2009
267 98 1318
268 98 2065
269 98 1960
270 98 4679
271 98 2720
272 98 2892
273 98 2221
274 98 3856
275 98 2274
276 98 2442
277 98 3177
278 98 3207
279 98 2214
280 98 3894
281 98 3581
282 98 1670
283 98 1594
284 98 3236
285 98 4047
286 98 1752
287 98 1890
288 98 2279
289 98 2326
290 98 3228
291 98 1816
292 98 2694
293 98 3401
294 98 6448
295 98 4699
296 98 3343
297 98 2436
298 98 4660
299 98 940
300 98 2639
301 98 1925
302 98 2622
303 98 2609
304 98 3837
305 98 5110
306 98 1384
307 98 2465
308 98 2780
309 98 2529
310 98 2944
311 98 2822
312 98 2866
313 98 2178
314 98 2036
316 98 6273
317 98 4885
318 98 1778
319 98 3737
320 98 1763
321 98 2523
322 98 1923
323 98 3502
324 98 3129
325 98 3075
326 98 1541
327 98 4669
328 98 3531
329 98 608
330 98 1903
331 98 2703
332 98 2145
333 98 1161
334 98 3556
336 98 1672
337 98 2377
338 98 3712
339 98 1840
340 98 2798
341 98 792
342 98 3623
343 98 2987
344 98 2188
345 98 3719
346 98 2101
347 98 1788
348 98 2883
349 98 4669
350 98 2906
351 98 1724
352 98 2252
353 98 1948
354 98 4024
355 98 2763
356 98 4133
357 98 2454
358 98 2174
359 98 2881
360 98 4405
361 98 4013
362 98 2880
363 98 1409
364 98 2553
365 98 1320
366 98 2734
367 98 4059
368 98 3579
369 98 2217
370 98 1327
371 98 2819
372 98 4450
373 98 6067
374 98 3488
375 98 4117
376 98 2159
377 98 3701
378 98 2906
379 98 2763
380 98 2556
381 98 4013
382 98 2764
383 98 1905
384 98 3887
385 98 1337
386 98 3630
387 98 1263
388 98 3964
389 98 1340
390 98 3474
391 98 4384
392 98 1558
393 98 2525
394 98 3516
395 98 3676
396 98 2489
397 98 2382
398 98 4333
399 98 3437
400 98 3753
401 98 1753
402 98 2923
403 98 2364
404 98 2600
405 98 2096
406 98 1931
407 98 1847
408 98 1669
409 98 493
410 98 2816
411 98 3488
412 98 3433
413 98 2653
414 98 4077
415 98 3194
416 98 3020
417 98 2770
418 98 2711
419 98 2017
420 98 6228
422 98 2621
423 98 3397
424 98 1697
425 98 2583
426 98 2269
427 98 2966
428 98 2242
429 98 2069
430 98 2642
431 98 2800
432 98 1718
433 98 3759
434 98 2312
435 98 2517
436 98 2321
437 98 1992
438 98 323
439 98 2232
440 98 3216
441 98 1604
442 98 3459
443 98 3019
444 98 2166
446 98 2324
447 98 1661
448 98 2268
449 98 2672
450 98 2177
451 98 2673
452 98 2356
453 98 3417
454 98 2152
455 98 2145
456 98 1723
457 98 5305
458 98 1154
459 98 2370
460 98 2211
461 98 1097
462 98 3193
463 98 3002
464 98 2622
465 98 3668
466 98 3625
467 98 2762
468 98 1449
469 98 2826
470 98 2457
471 98 2946
472 98 3678
473 98 3185
474 98 4216
475 98 1705
476 98 3458
477 98 3756
478 98 2023
479 98 6089
480 98 2200
481 98 2879
482 98 2658
483 98 4357
484 98 1145
485 98 1981
486 98 2855
487 98 3017
488 98 3149
489 98 2268
490 98 4962
491 98 2936
492 98 2267
493 98 2525
494 98 3695
495 98 2321
496 98 3148
497 98 1183
498 98 2367
499 98 2614
500 98 3643
1 99 20318
2 99 19055
3 99 14386
4 99 10489
5 99 15876
6 99 27058
7 99 10325
8 99 17104
9 99 21554
10 99 36986
11 99 34920
12 99 22363
13 99 8516
14 99 17867
15 99 20864
16 99 34199
17 99 16801
18 99 32662
19 99 14
20 99 12743
21 99 33402
22 99 38305
23 99 16141
24 99 5
25 99 14520
26 99 10648
27 99 12688
28 99 20480
29 99 15043
30 99 2221
31 99 39
32 99 13641
33 99 12829
34 99 21354
35 99 15606
36 99 19540
37 99 17327
38 99 22965
39 99 34838
40 99 23626
41 99 36236
42 99 23081
43 99 22768
44 99 33616
45 99 21669
46 99 19411
47 99 19743
48 99 21667
49 99 21144
50 99 19651
51 99 26522
52 99 23130
53 99 71
54 99 24129
55 99 18762
56 99 15266
57 99 24926
58 99 27249
59 99 2085
60 99 16583
61 99 28210
62 99 17928
63 99 18491
64 99 15252
65 99 28393
66 99 31817
67 99 26427
68 99 25609
69 99 22155
70 99 14693
71 99 11182
72 99 918
73 99 23147
74 99 17950
75 99 2094
76 99 10724
77 99 23047
78 99 35292
79 99 8
80 99 10055
81 99 10709
82 99 26094
83 99 17258
84 99 16638
85 99 33485
86 99 240
87 99 18191
88 99 22380
89 99 18055
90 99 24882
91 99 20651
92 99 14766
93 99 16642
94 99 25616
95 99 35464
96 99 45
97 99 24350
98 99 28363
99 99 13928
100 99 63
101 99 27322
102 99 21534
103 99 7767
104 99 11843
105 99 14466
106 99 2139
107 99 30429
108 99 25128
109 99 11747
110 99 20936
111 99 17480
112 99 13158
113 99 14358
114 99 35916
115 99 20278
116 99 24223
117 99 16074
118 99 32882
119 99 26758
120 99 23701
121 99 21566
122 99 21516
123 99 14228
124 99 20364
125 99 20332
126 99 21491
127 99 21364
128 99 19623
129 99 15172
130 99 17578
131 99 18
132 99 19368
133 99 22590
134 99 18959
135 99 22357
136 99 27169
137 99 8106
138 99 21543
139 99 31929
140 99 17455
141 99 9994
142 99 18440
143 99 13549
144 99 20754
145 99 21260
146 99 6
147 99 25078
148 99 17865
149 99 28299
150 99 18254
151 99 42975
152 99 15069
153 99 25188
154 99 24737
155 99 20733
156 99 4
157 99 24378
158 99 36190
159 99 867
160 99 25826
161 99 191
162 99 34248
163 99 22204
164 99 21124
165 99 14877
166 99 35252
167 99 18146
168 99 35363
169 99 34901
170 99 18981
171 99 24222
172 99 18042
173 99 17533
174 99 20045
175 99 918
176 99 36726
177 99 17215
178 99 15930
179 99 21
180 99 14128
181 99 30198
182 99 37106
183 99 16236
184 99 6089
185 99 14452
186 99 13743
187 99 11021
188 99 26557
189 99 36089
190 99 12217
191 99 10379
192 99 12423
193 99 8246
194 99 16129
195 99 26454
196 99 22655
197 99 27858
198 99 32544
199 99 20784
200 99 21752
201 99 21986
202 99 29762
203 99 27269
204 99 16607
205 99 2
206 99 15232
207 99 20106
208 99 8363
209 99 17833
210 99 15378
211 99 19682
212 99 24974
213 99 20015
214 99 34732
215 99 18576
216 99 19325
217 99 38354
218 99 21252
219 99 16675
220 99 17334
221 99 16802
222 99 903
223 99 13770
224 99 27529
225 99 32445
226 99 19115
227 99 14810
228 99 22793
229 99 13989
230 99 29472
231 99 22697
232 99 17680
233 99 22338
234 99 28902
235 99 22785
236 99 18795
237 99 12191
238 99 29103
239 99 81
240 99 28984
241 99 21468
242 99 24122
243 99 25817
244 99 16854
245 99 23283
246 99 20981
247 99 20161
248 99 18848
249 99 16503
250 99 21501
251 99 20467
252 99 19666
253 99 2089
254 99 20902
255 99 31365
256 99 23164
257 99 18823
258 99 26188
259 99 14297
260 99 109
261 99 12941
262 99 19691
263 99 57
264 99 19131
265 99 19189
266 99 17878
267 99 35475
268 99 16424
269 99 9987
270 99 28977
271 99 13690
272 99 22278
273 99 29854
274 99 226
275 99 10506
276 99 12486
277 99 17085
278 99 20473
279 99 17880
280 99 18997
281 99 26143
282 99 18433
283 99 10653
284 99 27635
285 99 35479
286 99 23821
287 99 23174
288 99 20161
289 99 10497
290 99 32024
291 99 19859
292 99 26250
293 99 60
294 99 13276
295 99 18104
296 99 25158
297 99 21370
298 99 17407
299 99 21328
300 99 15313
301 99 29432
302 99 16655
303 99 12276
304 99 14921
305 99 29757
306 99 19002
307 99 21057
308 99 20231
309 99 7977
310 99 50520
311 99 24277
312 99 19761
313 99 29701
314 99 29781
315 99 16927
316 99 1
317 99 27189
318 99 35553
319 99 4
320 99 29999
321 99 21280
322 99 30166
323 99 48
324 99 26133
325 99 49560
326 99 15940
327 99 27055
328 99 26785
329 99 11457
330 99 53517
331 99 19762
332 99 27318
333 99 16919
334 99 28627
335 99 14148
336 99 14942
337 99 36390
338 99 17045
339 99 25350
340 99 22149
341 99 16995
342 99 26829
343 99 29254
344 99 17786
345 99 202
346 99 41991
347 99 31101
348 99 19305
349 99 41641
350 99 32536
351 99 24390
352 99 83
353 99 22049
354 99 14170
355 99 13039
356 99 23492
358 99 24472
359 99 26851
360 99 28647
361 99 14157
362 99 28796
363 99 13414
364 99 17307
365 99 21552
366 99 23345
367 99 9368
368 99 22576
369 99 24111
370 99 15325
371 99 24278
372 99 28734
373 99 2
374 99 2227
375 99 16269
376 99 10834
377 99 6
378 99 18714
379 99 19141
380 99 30244
381 99 14504
382 99 29417
383 99 14327
384 99 10994
385 99 36374
386 99 17436
387 99 12924
388 99 18467
389 99 23927
390 99 69
391 99 20435
392 99 28715
393 99 24140
394 99 48
395 99 14199
396 99 17573
397 99 16038
398 99 26707
399 99 32420
400 99 22898
401 99 18092
402 99 26961
403 99 17209
404 99 11869
405 99 11315
406 99 10720
407 99 32565
408 99 7964
409 99 7917
410 99 15236
411 99 26829
412 99 17550
413 99 31198
414 99 13561
415 99 21334
416 99 15300
417 99 20435
418 99 16189
419 99 28395
420 99 38269
421 99 9688
422 99 21869
423 99 59
424 99 19768
425 99 19989
426 99 45
427 99 30599
428 99 24126
429 99 29590
430 99 16849
431 99 24206
432 99 31100
433 99 28465
434 99 32571
435 99 16039
436 99 32571
437 99 16416
438 99 22314
439 99 35918
440 99 16618
441 99 18703
442 99 22475
443 99 28988
444 99 60
445 99 11697
446 99 10634
447 99 12504
448 99 21672
449 99 16164
450 99 103
451 99 15478
452 99 10208
453 99 31235
455 99 22505
456 99 13549
457 99 17664
458 99 6960
459 99 10661
460 99 17996
461 99 15165
462 99 27308
463 99 16961
464 99 18089
465 99 4
466 99 2
467 99 28747
468 99 14583
469 99 42627
470 99 18261
471 99 36581
472 99 214
473 99 945
474 99 26917
475 99 31821
476 99 20097
477 99 231
478 99 16139
479 99 13708
480 99 22704
481 99 29731
482 99 16811
483 99 29154
484 99 16384
485 99 16189
486 99 29841
487 99 24280
488 99 874
489 99 16656
490 99 10850
491 99 27183
492 99 13024
493 99 14768
494 99 23520
495 99 12389
496 99 919
497 99 17038
498 99 16540
499 99 12590
500 99 27284
1 100 2866
2 100 3421
3 100 4061
4 100 2355
5 100 2014
6 100 3583
7 100 3899
8 100 1888
9 100 4381
10 100 4189
11 100 3129
12 100 8022
13 100 2983
14 100 2204
15 100 7201
16 100 3210
17 100 1564
18 100 3941
19 100 6489
20 100 1528
21 100 4027
22 100 2562
23 100 2880
24 100 4683
25 100 1150
26 100 3751
27 100 4248
28 100 4326
29 100 2839
30 100 4310
31 100 3930
32 100 2608
33 100 1903
34 100 4007
35 100 1351
36 100 3635
37 100 2879
38 100 4107
39 100 3884
40 100 3797
41 100 9145
42 100 3531
43 100 2461
44 100 1926
45 100 3043
46 100 4323
47 100 4700
48 100 2905
49 100 3113
50 100 2503
51 100 4083
52 100 2305
53 100 4385
54 100 3463
55 100 2187
56 100 1740
57 100 2550
58 100 3307
59 100 4274
60 100 2991
61 100 3199
62 100 2150
63 100 2918
64 100 2109
65 100 2712
66 100 2431
67 100 4194
68 100 2136
69 100 2110
70 100 3262
71 100 1368
72 100 3840
73 100 2216
74 100 3402
75 100 4331
76 100 3156
77 100 2304
78 100 4251
79 100 2439
80 100 2989
81 100 4091
82 100 2960
83 100 3112
84 100 6122
85 100 5579
86 100 3433
87 100 5429
88 100 2192
89 100 2995
90 100 2286
91 100 1663
92 100 3141
93 100 2001
94 100 4602
95 100 3768
96 100 6354
97 100 2558
98 100 2815
99 100 4379
100 100 4023
101 100 4077
102 100 2579
103 100 2533
104 100 2850
105 100 2157
106 100 4358
107 100 2066
108 100 3251
109 100 2298
110 100 2180
111 100 2739
112 100 2157
113 100 2785
114 100 1908
115 100 3235
116 100 3754
117 100 1983
118 100 4398
119 100 770
120 100 1733
121 100 6328
122 100 3439
123 100 3525
124 100 5983
125 100 2039
126 100 6669
127 100 4746
128 100 3992
129 100 3472
130 100 2736
131 100 3397
132 100 3989
133 100 3014
134 100 3452
135 100 1415
136 100 2837
137 100 2944
138 100 4595
139 100 2815
140 100 2848
141 100 4026
142 100 4376
143 100 3481
144 100 3328
145 100 4367
146 100 6481
147 100 5398
148 100 3488
149 100 4991
150 100 4543
151 100 4431
152 100 2302
153 100 3516
154 100 1659
155 100 4449
156 100 3562
157 100 2340
158 100 3898
159 100 3820
160 100 3143
161 100 3528
162 100 2428
163 100 1984
164 100 2771
165 100 4030
166 100 3046
167 100 2364
168 100 2052
169 100 3330
170 100 3312
171 100 3358
172 100 3410
173 100 3593
174 100 4994
175 100 3810
176 100 4860
177 100 6958
178 100 1586
179 100 3406
180 100 2126
181 100 3643
182 100 3453
183 100 2392
184 100 1963
185 100 4880
186 100 4518
187 100 4139
188 100 4047
189 100 5213
190 100 4703
191 100 3393
192 100 2289
193 100 2992
194 100 5125
195 100 2860
196 100 2928
197 100 2107
198 100 2471
199 100 4139
200 100 3466
201 100 2091
202 100 2986
203 100 3617
204 100 5319
205 100 3858
206 100 2342
207 100 5323
208 100 3044
209 100 2712
210 100 2343
211 100 4781
212 100 4479
213 100 2685
214 100 3435
215 100 4434
216 100 3336
217 100 2201
218 100 3730
219 100 3951
220 100 3166
221 100 2203
222 100 3869
223 100 2536
224 100 3495
225 100 3763
226 100 2870
227 100 3947
228 100 1335
229 100 4876
230 100 1173
231 100 7985
232 100 3030
233 100 3268
234 100 2593
235 100 4078
236 100 1292
237 100 4304
238 100 1852
239 100 5532
240 100 3975
241 100 3673
242 100 3057
243 100 2470
244 100 3451
245 100 2394
246 100 5555
247 100 2345
248 100 2864
249 100 3904
250 100 2469
251 100 3108
252 100 2382
253 100 4419
254 100 5995
255 100 5209
256 100 6105
257 100 3514
258 100 3111
259 100 4858
260 100 4955
261 100 6999
262 100 2430
263 100 7825
264 100 3603
265 100 2905
266 100 3339
267 100 2982
268 100 3170
269 100 4090
270 100 5216
271 100 1622
272 100 2027
273 100 1967
274 100 3447
275 100 3822
276 100 3379
277 100 4926
278 100 6618
279 100 2703
280 100 3971
281 100 2953
282 100 2545
283 100 6548
284 100 3966
285 100 5150
286 100 4785
287 100 2286
288 100 3750
289 100 3971
290 100 2245
291 100 4221
292 100 4500
293 100 5777
294 100 2555
295 100 3070
296 100 3711
297 100 4112
298 100 3580
299 100 5527
300 100 4685
301 100 3531
302 100 5190
303 100 2139
304 100 6137
305 100 5970
306 100 2732
307 100 3244
308 100 2515
309 100 3220
310 100 3018
311 100 3192
312 100 4751
313 100 3468
314 100 3024
315 100 2278
316 100 6399
317 100 4881
318 100 4074
319 100 3655
320 100 5272
321 100 4341
322 100 1698
323 100 3925
324 100 2084
325 100 3085
326 100 4564
327 100 3546
328 100 2749
329 100 2205
330 100 2239
331 100 3858
332 100 3561
333 100 2791
334 100 3609
335 100 1348
336 100 3827
337 100 3570
338 100 3145
339 100 5511
340 100 4120
341 100 2349
342 100 2773
343 100 3576
344 100 2796
345 100 3408
346 100 4490
347 100 1795
348 100 3328
349 100 3275
350 100 3870
351 100 3557
352 100 5056
353 100 3129
354 100 4980
355 100 4240
356 100 3871
357 100 3127
358 100 3419
359 100 1664
360 100 3403
361 100 4951
362 100 2097
363 100 3899
364 100 3307
365 100 4635
366 100 3389
367 100 3266
368 100 5310
369 100 2472
370 100 2615
371 100 3399
372 100 3525
373 100 6187
374 100 4200
375 100 3378
376 100 1156
377 100 5620
378 100 3318
379 100 2195
380 100 3224
381 100 4879
382 100 2850
383 100 1789
384 100 3459
385 100 3834
386 100 3721
387 100 1878
388 100 6430
389 100 2728
390 100 5801
391 100 3621
392 100 1778
393 100 3895
394 100 3900
395 100 3975
396 100 3373
397 100 2705
398 100 2668
399 100 4535
400 100 3468
401 100 2676
402 100 1721
403 100 1867
404 100 2214
405 100 4040
406 100 2950
407 100 2461
408 100 2002
409 100 2523
410 100 2266
411 100 2737
412 100 3188
413 100 4179
414 100 4063
415 100 4258
416 100 2277
417 100 3531
418 100 4747
419 100 5124
420 100 4788
421 100 1260
422 100 2108
423 100 5636
424 100 1140
425 100 4036
426 100 6552
427 100 5156
428 100 2376
429 100 3076
430 100 1928
431 100 6539
432 100 1722
433 100 3208
434 100 5794
435 100 3620
436 100 5766
437 100 3050
438 100 1722
439 100 1853
440 100 3219
441 100 4403
442 100 2491
443 100 1989
444 100 6610
445 100 1192
446 100 3859
447 100 2904
448 100 3605
449 100 2169
450 100 4989
451 100 4665
452 100 2599
453 100 3891
454 100 2765
455 100 4876
456 100 3069
457 100 6830
458 100 2766
459 100 3792
460 100 2758
461 100 1520
462 100 3958
463 100 1902
464 100 3925
465 100 5706
466 100 5975
467 100 3956
468 100 1800
469 100 4772
470 100 5610
471 100 3448
472 100 3459
473 100 3807
474 100 4743
475 100 2548
476 100 6455
477 100 3476
478 100 5229
479 100 4070
480 100 2372
481 100 4224
482 100 5403
483 100 4795
484 100 3396
485 100 5024
486 100 3655
487 100 4052
488 100 3837
489 100 4875
490 100 2217
491 100 3478
492 100 4304
493 100 2269
494 100 4684
495 100 2225
496 100 3940
497 100 2700
498 100 3884
499 100 4839
500 100 2234
1 101 4892
2 101 7102
3 101 7011
4 101 6920
5 101 5254
6 101 6719
7 101 5479
8 101 4520
9 101 12856
10 101 8341
11 101 6917
12 101 7871
13 101 5279
14 101 4988
15 101 6336
16 101 3848
17 101 7813
18 101 7121
19 101 10259
20 101 4550
21 101 7737
22 101 4293
23 101 5877
24 101 6805
25 101 2146
26 101 5420
27 101 10309
28 101 8271
29 101 7142
30 101 9470
31 101 7980
32 101 17540
33 101 10829
34 101 9247
35 101 3813
36 101 6493
37 101 7266
38 101 12440
39 101 5717
40 101 5852
41 101 7298
42 101 14336
43 101 3059
44 101 9349
45 101 9492
46 101 7631
47 101 5768
48 101 8134
49 101 4675
50 101 6684
51 101 5898
52 101 7449
53 101 8356
54 101 9195
55 101 11639
56 101 5316
57 101 8672
58 101 6273
59 101 9436
60 101 9189
61 101 4232
62 101 3737
63 101 5370
64 101 5588
65 101 7988
66 101 9535
67 101 8841
68 101 4883
69 101 4829
70 101 9331
71 101 3234
72 101 7325
73 101 9234
74 101 6383
75 101 9286
76 101 7028
77 101 5655
78 101 6952
79 101 9452
80 101 7875
81 101 5360
82 101 6556
83 101 6577
84 101 5564
85 101 14302
86 101 6854
87 101 7368
88 101 11111
89 101 10339
90 101 9115
91 101 5792
92 101 5963
93 101 6347
94 101 4108
95 101 5808
96 101 9783
97 101 9075
98 101 7910
99 101 5278
100 101 7906
101 101 12775
102 101 14482
103 101 6333
104 101 4273
105 101 6271
106 101 9466
107 101 3927
108 101 10687
109 101 5435
110 101 7326
111 101 7501
112 101 3959
113 101 3981
114 101 4069
115 101 6715
116 101 10802
117 101 7186
118 101 7477
119 101 1310
120 101 2751
121 101 6999
122 101 7799
123 101 3487
124 101 8114
125 101 9491
126 101 7696
127 101 8508
128 101 12211
129 101 3937
130 101 7438
131 101 4587
132 101 6202
133 101 6352
134 101 5767
135 101 5562
136 101 5725
137 101 11014
138 101 11263
139 101 7823
140 101 8872
141 101 9425
142 101 4859
143 101 8804
144 101 8606
145 101 11745
146 101 10200
147 101 10868
148 101 6283
149 101 11001
150 101 10223
151 101 5389
152 101 7033
153 101 4050
154 101 5876
155 101 11119
156 101 6967
157 101 5709
158 101 5992
159 101 7245
160 101 3725
161 101 6790
162 101 11562
163 101 8510
164 101 9894
165 101 6644
166 101 7961
167 101 4205
168 101 9800
169 101 3850
170 101 5873
171 101 9467
172 101 3531
173 101 8036
174 101 8645
175 101 7261
176 101 6175
177 101 9286
178 101 6843
179 101 4617
180 101 3683
181 101 9046
182 101 5757
183 101 3784
184 101 3936
185 101 7085
186 101 7436
187 101 5396
188 101 7177
189 101 11077
190 101 7036
191 101 9104
192 101 9664
193 101 10942
194 101 4816
195 101 9000
196 101 5458
197 101 7630
198 101 4276
199 101 6017
200 101 11554
201 101 3363
202 101 10723
203 101 6498
204 101 5507
205 101 5179
206 101 2883
207 101 7266
208 101 11230
209 101 7452
210 101 8057
211 101 8651
212 101 5535
213 101 6022
214 101 4562
215 101 4818
216 101 7339
217 101 6297
218 101 4429
219 101 4839
220 101 6433
221 101 5457
222 101 7154
223 101 17398
224 101 4253
225 101 7257
226 101 9448
227 101 3171
228 101 5527
229 101 9547
230 101 2443
231 101 8202
232 101 3377
233 101 4600
234 101 10741
235 101 12534
236 101 3967
237 101 3830
238 101 3230
239 101 10806
240 101 9915
241 101 10670
242 101 5432
243 101 8198
244 101 5787
245 101 5630
246 101 8925
247 101 5273
248 101 4750
249 101 4771
250 101 3378
251 101 11400
252 101 4368
253 101 9338
254 101 8815
255 101 13575
256 101 6656
257 101 7289
258 101 7460
259 101 7027
260 101 9984
261 101 4095
262 101 6663
263 101 12135
264 101 7282
265 101 9474
266 101 3569
267 101 7989
268 101 5165
269 101 9473
270 101 15996
271 101 12647
272 101 5638
273 101 8190
274 101 6909
275 101 5557
276 101 6993
277 101 3974
278 101 11904
279 101 7493
280 101 6794
281 101 12594
282 101 3770
283 101 6627
284 101 7620
285 101 5837
286 101 3598
287 101 7417
288 101 9903
289 101 5465
290 101 6503
291 101 5880
292 101 17407
293 101 10874
294 101 5622
295 101 5177
296 101 7038
297 101 4864
298 101 11261
299 101 11976
300 101 5582
301 101 7905
302 101 5256
303 101 16658
304 101 5916
305 101 9551
306 101 3904
307 101 8699
308 101 11227
309 101 5598
310 101 4748
311 101 5232
312 101 5796
313 101 8270
314 101 3570
315 101 5593
316 101 9922
317 101 8246
318 101 7012
319 101 6937
320 101 5572
321 101 4914
322 101 6725
323 101 8196
324 101 4844
325 101 8428
326 101 9324
327 101 5879
328 101 5488
329 101 10545
330 101 6441
331 101 3822
332 101 4216
333 101 5045
334 101 6841
335 101 3621
336 101 3106
337 101 4474
338 101 8102
339 101 4907
340 101 5988
341 101 8055
342 101 5688
343 101 10011
344 101 7596
345 101 6830
346 101 5235
347 101 2570
348 101 7199
349 101 5314
350 101 7303
351 101 9538
352 101 9883
353 101 6849
354 101 7098
355 101 6249
356 101 6111
357 101 8833
358 101 10494
359 101 9385
360 101 8410
361 101 7080
362 101 4628
363 101 4478
364 101 8360
365 101 11202
366 101 5403
367 101 4766
368 101 10345
369 101 5882
370 101 9947
371 101 16956
372 101 8343
373 101 10105
374 101 9304
375 101 8869
376 101 3138
377 101 9842
378 101 9488
379 101 5203
380 101 9296
381 101 7206
382 101 7953
383 101 6196
384 101 8292
385 101 4362
386 101 4482
387 101 4011
388 101 9940
389 101 8226
390 101 11152
391 101 10101
392 101 6863
393 101 10823
394 101 8342
395 101 6931
396 101 7988
397 101 11115
398 101 6354
399 101 9022
400 101 8694
401 101 4100
402 101 9318
403 101 7523
404 101 5960
405 101 7456
406 101 5030
407 101 4199
408 101 2783
409 101 6418
410 101 7917
411 101 5599
412 101 6672
413 101 6621
414 101 6620
415 101 10292
416 101 8027
417 101 7778
418 101 6725
419 101 11430
420 101 14636
421 101 3952
422 101 7513
423 101 10951
424 101 4038
425 101 8749
426 101 10253
427 101 9515
428 101 5871
429 101 3603
430 101 6657
431 101 8446
432 101 2552
433 101 4456
434 101 3371
435 101 14642
436 101 3279
437 101 5203
438 101 4139
439 101 3980
440 101 6055
441 101 4823
442 101 11714
443 101 6148
444 101 10269
445 101 2590
446 101 5578
447 101 5639
448 101 10773
449 101 7152
450 101 10173
451 101 5713
452 101 11899
453 101 6422
454 101 11352
455 101 10976
456 101 6841
457 101 5802
458 101 5355
459 101 5536
460 101 7564
461 101 9266
462 101 7643
463 101 4485
464 101 8673
465 101 10047
466 101 10117
467 101 8807
468 101 3971
469 101 15607
470 101 4655
471 101 9822
472 101 6946
473 101 7466
474 101 7888
475 101 9353
476 101 5230
477 101 6930
478 101 4911
479 101 7021
480 101 4024
481 101 4609
482 101 5338
483 101 7672
484 101 3790
485 101 4935
486 101 5996
487 101 5313
488 101 7378
489 101 7653
490 101 5976
491 101 6286
492 101 7254
493 101 10604
494 101 10543
495 101 7669
496 101 7350
497 101 5086
498 101 4749
499 101 4507
500 101 8664
18 102 1
34 102 7
39 102 5
53 102 4
55 102 3
60 102 5
68 102 3
70 102 6
71 102 6
85 102 4
105 102 3
117 102 4
134 102 6
153 102 2
157 102 3
199 102 11
203 102 2
207 102 3
225 102 5
268 102 2
298 102 3
304 102 7
310 102 3
324 102 5
337 102 6
350 102 4
353 102 7
388 102 5
401 102 8
408 102 4
413 102 2
415 102 11
419 102 2
422 102 3
437 102 2
461 102 2
469 102 2
481 102 4
494 102 4
499 102 1
1 103 5435
2 103 3974
3 103 8767
4 103 4902
5 103 2735
6 103 5157
7 103 4511
8 103 4941
9 103 4232
10 103 4727
11 103 6600
12 103 6241
13 103 2221
14 103 3310
15 103 3484
16 103 4178
17 103 5371
18 103 3467
19 103 10727
20 103 2122
21 103 6042
22 103 9307
23 103 3069
24 103 4723
25 103 3923
26 103 4516
27 103 4715
28 103 5242
29 103 3546
30 103 2925
31 103 5822
32 103 4154
33 103 5971
34 103 4631
35 103 1418
36 103 6173
37 103 4030
38 103 4293
39 103 4974
40 103 5429
41 103 9268
42 103 5333
43 103 4224
44 103 5303
45 103 6067
46 103 6387
47 103 5022
48 103 4914
49 103 8420
50 103 2714
51 103 6167
52 103 4045
53 103 4204
54 103 3192
55 103 5921
56 103 4924
57 103 4677
58 103 6539
59 103 2775
60 103 5980
61 103 11318
62 103 5247
63 103 6003
64 103 6290
65 103 2880
66 103 6424
67 103 4730
68 103 3250
69 103 4227
70 103 4829
71 103 6394
72 103 5435
73 103 4514
74 103 3804
75 103 2842
76 103 6381
77 103 2359
78 103 2876
79 103 8539
80 103 4138
81 103 7153
82 103 3460
83 103 5859
84 103 6318
85 103 5981
86 103 7934
87 103 4825
88 103 4816
89 103 6166
90 103 6266
91 103 2756
92 103 7737
93 103 5221
94 103 7599
95 103 5521
96 103 4683
97 103 3692
98 103 2921
99 103 5463
100 103 5889
101 103 5504
102 103 8195
103 103 3040
104 103 3775
105 103 2817
106 103 2883
107 103 2263
108 103 7309
109 103 4805
110 103 5720
111 103 6203
112 103 2354
113 103 2095
114 103 5213
115 103 2381
116 103 2972
117 103 4641
118 103 5718
119 103 1827
120 103 3617
121 103 5417
122 103 8716
123 103 4558
124 103 4711
125 103 6048
126 103 4518
127 103 8686
128 103 5020
129 103 3877
130 103 6418
131 103 6289
132 103 4659
133 103 6865
134 103 5514
135 103 3918
136 103 3687
137 103 4091
138 103 6857
139 103 5713
140 103 2284
141 103 9483
142 103 3659
143 103 5191
144 103 3473
145 103 8603
146 103 10744
147 103 5039
148 103 3716
149 103 4481
150 103 3522
151 103 9392
152 103 2634
153 103 5187
154 103 4048
155 103 6321
156 103 5508
157 103 2955
158 103 7703
159 103 5358
160 103 6170
161 103 8095
162 103 5412
163 103 3479
164 103 4158
165 103 6104
166 103 6542
167 103 2381
168 103 3860
169 103 4168
170 103 5572
171 103 3278
172 103 3043
173 103 6310
174 103 5249
175 103 5448
176 103 3551
177 103 5028
178 103 7430
179 103 6265
180 103 4983
181 103 5994
182 103 5600
183 103 2649
184 103 3285
185 103 5846
186 103 4515
187 103 7124
188 103 7945
189 103 7288
190 103 4070
191 103 5252
192 103 3322
193 103 4116
194 103 4623
195 103 6155
196 103 5607
197 103 3786
198 103 4590
199 103 7113
200 103 3179
201 103 4092
202 103 5793
203 103 8583
204 103 5223
205 103 5491
206 103 4024
207 103 4970
208 103 4075
209 103 6312
210 103 5120
211 103 7743
212 103 5632
213 103 3848
214 103 8836
215 103 3680
216 103 6199
217 103 9462
218 103 8867
219 103 2862
220 103 5901
221 103 2662
222 103 5458
223 103 4067
224 103 6759
225 103 3424
226 103 8433
227 103 8366
228 103 4062
229 103 5969
230 103 1651
231 103 6275
232 103 8722
233 103 4133
234 103 2170
235 103 4328
236 103 1885
237 103 3956
238 103 4495
239 103 5162
240 103 9825
241 103 4485
242 103 5865
243 103 6451
244 103 2366
245 103 2322
246 103 10538
247 103 6200
248 103 4657
249 103 2825
250 103 6895
251 103 7251
252 103 7258
253 103 2810
254 103 4378
255 103 7692
256 103 3831
257 103 4289
258 103 5615
259 103 5678
260 103 3242
261 103 7486
262 103 2841
263 103 7104
264 103 4475
265 103 8252
266 103 3110
267 103 6423
268 103 5817
269 103 9378
270 103 5090
271 103 3382
272 103 4126
273 103 6042
274 103 7864
275 103 4582
276 103 3911
277 103 3153
278 103 4631
279 103 6285
280 103 5096
281 103 7335
282 103 2978
283 103 3004
284 103 3898
285 103 5262
286 103 3428
287 103 4028
288 103 4459
289 103 4717
290 103 5505
291 103 5188
292 103 5491
293 103 5185
294 103 6469
295 103 5372
296 103 3967
297 103 3759
298 103 4007
299 103 5796
300 103 4483
301 103 2490
302 103 7768
303 103 4663
304 103 3554
305 103 6111
306 103 5164
307 103 3529
308 103 5525
309 103 3876
310 103 4670
311 103 5898
312 103 5069
313 103 5138
314 103 3913
315 103 2661
316 103 7123
317 103 5984
318 103 2916
319 103 5487
320 103 3511
321 103 3746
322 103 5240
323 103 5906
324 103 3263
325 103 6078
326 103 4975
327 103 5925
328 103 3694
329 103 2096
330 103 4849
331 103 5518
332 103 6758
333 103 2423
334 103 2578
335 103 2612
336 103 8385
337 103 3751
338 103 8460
339 103 4299
340 103 3297
341 103 3263
342 103 3717
343 103 5722
344 103 6399
345 103 8070
346 103 3242
347 103 4742
348 103 3952
349 103 4544
350 103 3398
351 103 3355
352 103 3224
353 103 2677
354 103 5609
355 103 5386
356 103 5368
357 103 6689
358 103 4673
359 103 3651
360 103 6925
361 103 5727
362 103 4837
363 103 4117
364 103 5884
365 103 6660
366 103 3842
367 103 8268
368 103 7166
369 103 7886
370 103 7040
371 103 7167
372 103 6811
373 103 7059
374 103 2839
375 103 7820
376 103 4436
377 103 4100
378 103 4208
379 103 9752
380 103 4858
381 103 5809
382 103 7941
383 103 5708
384 103 6492
385 103 3716
386 103 4852
387 103 3526
388 103 2571
389 103 3175
390 103 5198
391 103 13217
392 103 4885
393 103 2973
394 103 6106
395 103 8960
396 103 3351
397 103 5080
398 103 2667
399 103 4222
400 103 6256
401 103 6831
402 103 3614
403 103 3008
404 103 3519
405 103 4043
406 103 5355
407 103 4699
408 103 5907
409 103 2902
410 103 3290
411 103 3653
412 103 5945
413 103 2940
414 103 5616
415 103 6946
416 103 5092
417 103 6624
418 103 1999
419 103 4079
420 103 4739
421 103 2049
422 103 3718
423 103 5134
424 103 3047
425 103 4321
426 103 4769
427 103 4477
428 103 8046
429 103 3986
430 103 5318
431 103 6547
432 103 4687
433 103 11135
434 103 3322
435 103 4454
436 103 3247
437 103 5873
438 103 2353
439 103 4950
440 103 3353
441 103 3541
442 103 4268
443 103 2696
444 103 4982
445 103 3886
446 103 4516
447 103 4361
448 103 4433
449 103 3076
450 103 3360
451 103 4544
452 103 7287
453 103 7135
454 103 6318
455 103 4279
456 103 3896
457 103 7417
458 103 3839
459 103 4555
460 103 6427
461 103 8231
462 103 3689
463 103 4955
464 103 7012
465 103 4243
466 103 4284
467 103 8487
468 103 6126
469 103 6193
470 103 2075
471 103 5266
472 103 8113
473 103 5481
474 103 7721
475 103 6144
476 103 4586
477 103 8033
478 103 4601
479 103 5928
480 103 3451
481 103 7391
482 103 7727
483 103 3545
484 103 3936
485 103 4499
486 103 3482
487 103 9424
488 103 5369
489 103 11027
490 103 3564
491 103 6537
492 103 8413
493 103 1468
494 103 8917
495 103 6115
496 103 5505
497 103 2470
498 103 7641
499 103 4104
500 103 5308
1 104 2
5 104 5
7 104 1876
9 104 12
11 104 47
14 104 16
16 104 2271
18 104 1801
19 104 6152
24 104 5996
26 104 1894
30 104 2319
31 104 3800
33 104 2800
39 104 1818
53 104 1861
56 104 57
58 104 3
59 104 2330
72 104 6573
74 104 10
75 104 2326
79 104 5094
86 104 2042
88 104 8
93 104 7
96 104 8231
100 104 3817
106 104 2392
111 104 2915
130 104 2942
131 104 2246
137 104 1504
138 104 1652
146 104 6017
148 104 7
151 104 270
152 104 3
154 104 101
156 104 2350
159 104 6530
161 104 2041
169 104 2269
175 104 6473
179 104 2286
182 104 35
185 104 2582
193 104 1559
196 104 36
200 104 19
205 104 2375
206 104 7
208 104 1533
209 104 3018
222 104 6712
225 104 1855
226 104 2381
237 104 3
239 104 4880
252 104 46
253 104 2456
254 104 2
259 104 2562
260 104 1847
263 104 5099
265 104 2371
274 104 2026
275 104 1905
276 104 6
279 104 3000
288 104 4
289 104 1960
293 104 4763
309 104 2101
316 104 3320
319 104 2394
323 104 3752
339 104 14
344 104 2965
345 104 2025
350 104 1812
352 104 1830
354 104 2603
357 104 4554
361 104 2623
365 104 1663
369 104 44
370 104 10
373 104 3326
374 104 2270
377 104 2668
381 104 2560
390 104 4826
394 104 3820
396 104 13
397 104 14
404 104 16
423 104 4731
426 104 8500
428 104 47
430 104 14
435 104 43
444 104 8287
446 104 1814
450 104 1784
454 104 4527
459 104 1945
460 104 2967
465 104 2720
466 104 2772
472 104 2060
473 104 6627
477 104 2032
488 104 6464
490 104 13
491 104 5
496 104 6445
1 105 3096
2 105 2611
3 105 4410
4 105 2524
5 105 5651
6 105 3417
7 105 3624
8 105 2701
9 105 3475
10 105 1
11 105 4482
13 105 1654
14 105 4181
15 105 7
16 105 2499
17 105 3601
18 105 3749
19 105 6661
20 105 1625
22 105 3446
23 105 4675
24 105 4097
25 105 3488
26 105 3652
27 105 5690
28 105 10
29 105 2670
30 105 4239
31 105 3871
32 105 1933
33 105 3274
34 105 5033
35 105 2462
36 105 3320
37 105 2591
38 105 8
39 105 3946
40 105 28
41 105 4658
42 105 4282
43 105 2902
44 105 1593
45 105 4032
46 105 7
47 105 4930
48 105 642
49 105 3012
50 105 2233
51 105 9
52 105 5010
53 105 6385
54 105 1557
55 105 2004
56 105 3016
57 105 4326
58 105 4217
59 105 4343
60 105 3005
62 105 2555
63 105 3736
64 105 2210
65 105 4032
66 105 3875
67 105 3437
68 105 3038
69 105 2423
70 105 2592
71 105 2726
72 105 5552
73 105 2335
74 105 3921
75 105 4422
76 105 1909
77 105 3173
78 105 3087
79 105 4556
80 105 2687
81 105 31
82 105 3066
83 105 4638
84 105 45
85 105 2
86 105 3554
87 105 4932
88 105 3987
89 105 4991
90 105 2916
91 105 3672
92 105 2890
93 105 3297
94 105 5349
95 105 2420
96 105 4436
97 105 2
98 105 3975
99 105 2664
100 105 3669
101 105 6304
102 105 3214
103 105 2047
104 105 3163
105 105 2934
106 105 4159
107 105 1342
109 105 3763
110 105 2832
111 105 3535
112 105 1507
113 105 1807
114 105 4089
115 105 5563
116 105 2710
117 105 3942
118 105 3126
119 105 1465
120 105 1765
121 105 5013
122 105 416
123 105 3222
124 105 32
125 105 4736
126 105 7
127 105 3595
128 105 3220
129 105 6541
130 105 3540
131 105 5063
132 105 30
133 105 3317
134 105 1954
135 105 1576
136 105 2655
137 105 2705
138 105 2690
139 105 8
140 105 4350
141 105 2637
142 105 3624
143 105 4183
144 105 2648
145 105 3728
146 105 6843
147 105 3805
148 105 3991
149 105 33
150 105 39
151 105 2810
152 105 5579
153 105 2215
154 105 2433
155 105 5944
156 105 3029
157 105 1954
158 105 4776
159 105 5634
160 105 4073
161 105 3636
162 105 611
163 105 1793
164 105 4501
165 105 52
166 105 2416
167 105 2072
168 105 5065
169 105 2531
170 105 1985
171 105 1585
172 105 2975
173 105 3555
174 105 89
175 105 5524
176 105 16
177 105 6
178 105 1914
179 105 5210
180 105 3870
181 105 3976
182 105 2233
183 105 1605
184 105 1707
185 105 4933
186 105 3
187 105 40
188 105 3
189 105 3870
190 105 2252
191 105 196
192 105 3692
193 105 2699
194 105 2462
195 105 6211
196 105 3582
197 105 1526
198 105 3002
200 105 2156
201 105 2665
202 105 2948
203 105 5446
204 105 3212
205 105 4415
206 105 2700
207 105 1911
208 105 2665
209 105 3699
210 105 3467
211 105 6
212 105 2813
213 105 3001
214 105 16
215 105 3589
216 105 3815
217 105 1831
218 105 2670
219 105 3064
220 105 4709
221 105 1709
222 105 5672
223 105 1835
224 105 365
225 105 3664
226 105 4523
227 105 2918
228 105 1614
229 105 3860
230 105 1317
232 105 4997
233 105 3699
234 105 1892
235 105 3
236 105 1923
237 105 2427
238 105 2335
239 105 7237
240 105 3537
241 105 3482
242 105 3274
243 105 34
244 105 5246
245 105 3092
246 105 3885
247 105 3846
248 105 3202
249 105 3041
250 105 2114
251 105 3540
252 105 2372
253 105 4253
254 105 3317
255 105 3225
258 105 2
259 105 4823
260 105 3378
261 105 6972
262 105 2175
263 105 5486
265 105 4567
266 105 3146
267 105 2374
268 105 2934
269 105 2647
270 105 2
271 105 3325
272 105 3522
274 105 3714
275 105 3636
276 105 2476
277 105 2540
278 105 57
279 105 3647
280 105 5813
281 105 2095
282 105 2689
283 105 3479
284 105 9
285 105 6
286 105 2159
287 105 4974
288 105 3429
289 105 3622
290 105 2200
291 105 1308
292 105 6641
293 105 7387
294 105 3131
295 105 2548
296 105 26
297 105 3566
298 105 4
299 105 10
300 105 4781
301 105 3661
302 105 3984
303 105 70
304 105 72
305 105 6180
306 105 1978
307 105 2718
308 105 3136
309 105 3430
310 105 3604
311 105 3210
312 105 4982
313 105 5468
314 105 2003
315 105 1745
316 105 5602
317 105 5261
318 105 3116
319 105 3092
320 105 2124
321 105 3544
322 105 2533
323 105 3712
324 105 3106
326 105 3
327 105 2331
328 105 2638
329 105 1989
330 105 3358
331 105 4049
332 105 314
333 105 2496
334 105 10
335 105 2572
336 105 2987
337 105 2964
338 105 4514
339 105 2601
340 105 3039
341 105 2221
342 105 2621
343 105 1808
344 105 3665
345 105 3523
346 105 3874
347 105 3646
348 105 2634
349 105 4514
350 105 3687
351 105 1605
352 105 3490
353 105 2394
354 105 4916
355 105 3546
356 105 19
357 105 5465
358 105 3885
359 105 5799
360 105 4278
361 105 4837
362 105 2765
363 105 2471
364 105 2891
365 105 2560
366 105 4333
367 105 4045
368 105 2656
369 105 2264
370 105 2487
371 105 71
372 105 4200
373 105 5524
374 105 4302
375 105 3328
376 105 2372
377 105 5284
378 105 4164
379 105 2763
380 105 2561
381 105 4880
382 105 3
383 105 2831
384 105 5858
385 105 3927
386 105 14
387 105 2043
388 105 4090
389 105 1502
390 105 7465
391 105 3883
392 105 1985
393 105 2613
394 105 3839
395 105 4455
396 105 4232
397 105 3118
398 105 3753
399 105 82
400 105 5
401 105 2654
402 105 5634
403 105 3383
404 105 2800
405 105 3123
406 105 1825
407 105 3134
408 105 1471
409 105 2059
410 105 4037
411 105 2609
412 105 4703
413 105 4714
414 105 5746
415 105 5
416 105 3438
417 105 3820
418 105 3885
419 105 3754
420 105 5057
421 105 1128
422 105 1812
423 105 7436
424 105 2674
425 105 2280
426 105 4526
428 105 2411
429 105 2053
430 105 3348
431 105 4804
432 105 3620
434 105 2540
435 105 5907
436 105 2592
437 105 2931
438 105 1520
439 105 3914
440 105 3877
441 105 3726
442 105 4404
443 105 2768
444 105 4612
445 105 1177
446 105 3593
447 105 2138
448 105 3499
449 105 3108
450 105 3401
451 105 4885
452 105 2858
453 105 4
454 105 6404
455 105 6161
456 105 5386
457 105 19
458 105 1905
459 105 3629
460 105 3663
461 105 1640
462 105 10
463 105 2842
464 105 5593
465 105 5469
466 105 5444
468 105 1336
469 105 4638
470 105 2034
471 105 2237
472 105 3550
473 105 5634
474 105 3872
475 105 3836
476 105 23
477 105 3638
478 105 2517
479 105 5442
480 105 4182
481 105 5284
482 105 3972
483 105 4257
484 105 2614
485 105 2460
486 105 3857
487 105 3440
488 105 5683
489 105 4389
490 105 2363
491 105 4245
492 105 4389
493 105 1637
494 105 5808
495 105 1748
496 105 5597
497 105 2550
499 105 3573
500 105 4388
10 106 2073
12 106 1431
15 106 1385
21 106 884
28 106 1737
37 106 1308
38 106 1902
40 106 1426
46 106 972
48 106 2067
51 106 1941
52 106 369
61 106 462
81 106 1331
84 106 1392
85 106 1713
97 106 631
108 106 1208
122 106 1152
124 106 1201
126 106 1325
132 106 1925
139 106 1984
149 106 446
150 106 1047
160 106 923
162 106 1005
165 106 1993
174 106 1281
176 106 1204
177 106 805
186 106 2745
187 106 1219
188 106 1584
190 106 550
191 106 999
199 106 746
202 106 656
207 106 1350
211 106 1023
212 106 1054
214 106 2651
217 106 88
224 106 1173
231 106 1383
234 106 1438
235 106 1956
243 106 390
256 106 752
257 106 1098
258 106 1499
264 106 1048
270 106 1446
273 106 1475
278 106 2077
284 106 1400
285 106 1855
287 106 434
291 106 569
296 106 191
298 106 1709
299 106 1360
303 106 1661
304 106 2045
310 106 132
325 106 2286
326 106 2193
332 106 1136
334 106 2144
356 106 1316
366 106 631
371 106 1830
378 106 1066
382 106 1681
386 106 1487
399 106 985
400 106 523
415 106 1727
427 106 1003
433 106 483
453 106 930
457 106 2213
462 106 1441
467 106 1429
476 106 1584
481 106 25
487 106 297
498 106 1143
7 107 3
26 107 2
33 107 7
41 107 6447
45 107 3265
63 107 2766
67 107 3307
94 107 5294
101 107 3992
118 107 3440
121 107 3375
143 107 2768
145 107 5018
147 107 3100
155 107 4922
158 107 3277
173 107 10989
189 107 3630
195 107 3100
203 107 5193
229 107 3815
240 107 4330
243 107 5
246 107 4731
255 107 2878
261 107 4899
275 107 4
280 107 3847
289 107 6
302 107 4969
305 107 4202
317 107 2795
364 107 5202
414 107 5057
417 107 3984
420 107 3581
431 107 4799
446 107 2
459 107 7
464 107 3223
469 107 4400
474 107 88
479 107 2268
482 107 5083
494 107 3477
500 107 3141
1 108 1466
3 108 3012
4 108 504
5 108 3331
6 108 1855
7 108 2562
8 108 3
9 108 3689
10 108 2215
11 108 1583
12 108 1473
13 108 1898
14 108 1303
15 108 2302
16 108 2228
17 108 1362
18 108 2006
19 108 2485
20 108 697
21 108 2295
23 108 1263
24 108 4203
25 108 749
26 108 2604
28 108 2502
29 108 1272
30 108 2322
31 108 3067
32 108 1402
33 108 1952
35 108 440
36 108 9
37 108 2633
38 108 2414
39 108 2067
40 108 3295
41 108 5
42 108 1631
43 108 1751
44 108 2509
45 108 8
46 108 2875
48 108 2815
49 108 2225
50 108 1345
51 108 3159
52 108 790
53 108 3175
54 108 719
55 108 997
56 108 1518
58 108 2143
59 108 2378
60 108 3518
61 108 3707
62 108 872
64 108 1011
65 108 2511
68 108 2397
69 108 2204
70 108 6
71 108 1134
72 108 1219
73 108 1591
74 108 2686
75 108 2296
76 108 38
77 108 1503
78 108 1957
79 108 3613
80 108 874
81 108 4200
82 108 1268
84 108 2476
85 108 3791
86 108 1988
87 108 6
88 108 1455
89 108 11
90 108 13
91 108 1639
92 108 1889
93 108 1599
96 108 2290
97 108 2580
98 108 2427
99 108 993
100 108 3020
103 108 1168
104 108 15
105 108 147
106 108 2429
107 108 939
108 108 1382
109 108 1265
110 108 1973
111 108 2390
112 108 920
113 108 1728
114 108 1809
115 108 1928
117 108 2695
118 108 4
119 108 861
120 108 648
122 108 1664
123 108 1463
124 108 1554
125 108 2675
126 108 1705
129 108 1532
130 108 2362
131 108 3127
132 108 1694
134 108 1343
135 108 607
136 108 1356
137 108 1064
138 108 2219
139 108 3480
140 108 1998
141 108 2752
142 108 1419
143 108 4
144 108 3194
145 108 4
146 108 2507
147 108 17
148 108 2699
149 108 2231
150 108 2441
151 108 1349
152 108 3264
153 108 1504
154 108 1306
156 108 2961
157 108 650
158 108 10
159 108 1241
160 108 3051
161 108 2040
162 108 1814
163 108 2033
164 108 973
165 108 1875
166 108 902
167 108 1274
168 108 1141
169 108 2171
170 108 1367
171 108 742
172 108 1589
174 108 2736
175 108 1272
176 108 2982
177 108 2402
178 108 1157
179 108 3200
180 108 1915
182 108 2903
183 108 1426
184 108 1927
185 108 2466
186 108 2253
187 108 4069
188 108 1917
189 108 4
190 108 2724
191 108 4297
192 108 1682
193 108 1047
194 108 2278
196 108 1391
197 108 1257
198 108 1063
199 108 2477
200 108 1182
201 108 1351
202 108 1161
204 108 2080
205 108 2447
206 108 1614
207 108 786
208 108 1142
209 108 2352
210 108 2071
211 108 3486
212 108 1671
213 108 1971
214 108 1892
215 108 1544
216 108 2574
217 108 2623
218 108 1500
219 108 1830
221 108 943
222 108 1182
223 108 1368
224 108 3465
225 108 2053
226 108 2248
227 108 2220
228 108 599
230 108 683
231 108 1458
234 108 1595
235 108 2526
236 108 1041
237 108 1568
238 108 2616
239 108 3943
240 108 11
241 108 15
243 108 1255
244 108 1790
245 108 1453
248 108 1488
249 108 1802
250 108 1305
251 108 1
252 108 2581
253 108 2353
254 108 1761
256 108 1969
257 108 2966
258 108 1749
259 108 2490
260 108 2509
262 108 1355
263 108 3279
264 108 2885
265 108 2220
266 108 1574
267 108 904
269 108 2809
270 108 1789
271 108 1504
272 108 2121
273 108 2261
274 108 2030
275 108 2575
276 108 1510
277 108 4030
278 108 2445
279 108 2389
282 108 1289
283 108 700
284 108 1677
285 108 2356
286 108 1112
287 108 821
288 108 1314
289 108 2592
290 108 2118
291 108 3228
293 108 4089
296 108 2789
297 108 211
298 108 953
299 108 4085
301 108 1238
303 108 2336
304 108 1763
305 108 7
306 108 1087
307 108 3157
308 108 1307
309 108 2784
310 108 1627
313 108 1045
314 108 2490
315 108 949
316 108 1581
318 108 1993
319 108 2951
320 108 1948
321 108 174
322 108 1201
323 108 3061
324 108 2425
325 108 2168
326 108 1881
327 108 953
328 108 1362
329 108 1039
330 108 611
332 108 3458
333 108 1018
334 108 1825
335 108 857
336 108 2098
337 108 737
338 108 2
339 108 855
340 108 1477
341 108 1049
342 108 1349
343 108 1701
344 108 2442
345 108 2096
347 108 951
349 108 2007
350 108 2016
351 108 748
352 108 2471
353 108 1646
354 108 2466
355 108 1277
356 108 3156
357 108 2772
358 108 666
359 108 1625
360 108 5
361 108 2465
362 108 723
363 108 1151
365 108 2283
366 108 1320
368 108 1761
369 108 1490
370 108 1622
371 108 1843
372 108 6
373 108 1585
374 108 2295
376 108 1738
377 108 3322
378 108 1299
379 108 2158
380 108 1568
381 108 2500
382 108 2787
383 108 1503
384 108 3
385 108 1645
386 108 2545
387 108 1329
389 108 1010
390 108 4015
391 108 1605
392 108 2257
394 108 3129
395 108 2964
396 108 1459
397 108 2289
399 108 1836
400 108 3754
402 108 1516
403 108 3206
404 108 1714
406 108 1124
407 108 1004
408 108 1515
409 108 1221
410 108 1519
411 108 1383
413 108 3193
414 108 2
415 108 1712
416 108 2014
418 108 1934
419 108 2223
421 108 802
422 108 1065
423 108 4123
424 108 992
425 108 4115
426 108 2265
427 108 1607
428 108 1430
429 108 2452
430 108 1585
432 108 1004
433 108 3830
434 108 1820
435 108 965
436 108 1773
438 108 2237
439 108 1886
441 108 1502
442 108 1845
443 108 2512
444 108 2297
445 108 1033
446 108 2676
447 108 1793
448 108 10
450 108 2411
452 108 1919
453 108 2954
454 108 2374
455 108 6
456 108 1852
457 108 2537
458 108 1572
459 108 2637
460 108 2421
461 108 904
462 108 1769
463 108 1
465 108 3336
466 108 3428
467 108 1537
468 108 887
470 108 2513
471 108 2435
472 108 2024
473 108 1273
476 108 1595
477 108 2053
478 108 2215
480 108 2460
481 108 1994
484 108 697
485 108 2266
487 108 2497
488 108 1235
489 108 2310
490 108 2132
491 108 2030
492 108 1560
493 108 1231
495 108 1405
496 108 1164
497 108 1056
498 108 2173
499 108 2516
1 109 2924
2 109 3752
3 109 2585
4 109 2117
5 109 3390
6 109 2438
7 109 2999
8 109 3889
9 109 8063
10 109 4613
11 109 4920
12 109 4215
13 109 1734
14 109 3408
15 109 4675
16 109 2804
17 109 5856
18 109 1537
19 109 4611
20 109 1719
21 109 4902
22 109 2515
23 109 2375
24 109 5135
25 109 936
26 109 2981
27 109 4908
28 109 4016
29 109 5044
30 109 4002
31 109 6577
32 109 3350
33 109 5074
34 109 4422
35 109 1674
36 109 4626
37 109 4221
38 109 4210
39 109 5777
40 109 4504
41 109 4564
42 109 6509
43 109 5446
44 109 4088
45 109 4174
46 109 5249
47 109 5986
48 109 2932
49 109 3579
50 109 2357
51 109 4890
52 109 3773
53 109 5292
54 109 4589
55 109 3185
56 109 3556
57 109 4638
58 109 3031
59 109 4076
60 109 4933
61 109 3215
62 109 3082
63 109 7398
64 109 760
65 109 9310
66 109 3377
67 109 5871
68 109 6336
69 109 7251
70 109 4130
71 109 997
72 109 4726
73 109 5272
74 109 4148
75 109 3921
76 109 5695
77 109 4110
78 109 2464
79 109 6272
80 109 2313
81 109 4222
82 109 3147
83 109 4073
84 109 5370
85 109 4369
86 109 3501
87 109 5060
88 109 4028
89 109 3688
90 109 3919
91 109 2946
92 109 466
93 109 4424
94 109 4267
95 109 4012
96 109 4071
97 109 5163
98 109 9213
99 109 6148
100 109 6395
101 109 6238
102 109 2259
103 109 4732
104 109 3019
105 109 5439
106 109 4043
107 109 363
108 109 5774
109 109 2771
110 109 4370
111 109 3892
112 109 690
113 109 1221
114 109 3559
115 109 2532
116 109 5824
117 109 4037
118 109 4359
119 109 2197
120 109 1967
121 109 5208
122 109 3645
123 109 1979
124 109 4511
125 109 4770
126 109 4456
127 109 6246
128 109 3117
129 109 1743
130 109 3865
131 109 4207
132 109 4238
133 109 2516
134 109 2790
135 109 1052
136 109 3943
137 109 2700
138 109 3374
139 109 5870
140 109 3249
141 109 3878
142 109 4244
143 109 5094
144 109 5105
145 109 6157
146 109 4646
147 109 3503
148 109 4265
149 109 3736
150 109 9266
151 109 3779
152 109 3295
153 109 3158
154 109 3807
155 109 6214
156 109 4700
157 109 2035
158 109 8904
159 109 4594
160 109 5907
161 109 3631
162 109 3684
163 109 3886
164 109 5534
165 109 4248
166 109 3763
167 109 1962
168 109 3165
169 109 2946
170 109 2790
171 109 4625
172 109 1917
173 109 6803
174 109 4985
175 109 4700
176 109 3183
177 109 6431
178 109 4291
179 109 4446
180 109 795
181 109 6623
182 109 4872
183 109 2518
184 109 2218
185 109 4382
186 109 4363
187 109 4358
188 109 3584
189 109 4819
190 109 5989
191 109 5241
192 109 3287
193 109 2613
194 109 3985
195 109 5095
196 109 3989
197 109 3423
198 109 708
199 109 4535
200 109 4016
201 109 3732
202 109 11071
203 109 5525
204 109 3976
205 109 6199
206 109 5678
207 109 4244
208 109 2547
209 109 3875
210 109 3907
211 109 7379
212 109 4155
213 109 3838
214 109 5293
215 109 4269
216 109 3682
217 109 6115
218 109 3410
219 109 2343
220 109 4059
221 109 1969
222 109 4695
223 109 3478
224 109 6173
225 109 1599
226 109 4695
227 109 3483
228 109 1162
229 109 7861
230 109 4096
231 109 4469
232 109 4408
233 109 5552
234 109 3383
235 109 4117
236 109 821
237 109 2526
238 109 3783
239 109 6240
240 109 6773
241 109 3678
242 109 6642
243 109 4597
244 109 3038
245 109 3997
246 109 5684
247 109 7270
248 109 3702
249 109 2275
250 109 455
251 109 3504
252 109 3339
253 109 3835
254 109 4703
255 109 6552
256 109 3361
257 109 4766
258 109 7159
259 109 4469
260 109 7063
261 109 5455
262 109 2266
263 109 5148
264 109 4720
265 109 4768
266 109 1856
267 109 3630
268 109 3594
269 109 3712
270 109 5385
271 109 4445
272 109 9107
273 109 8636
274 109 3637
275 109 3051
276 109 6410
277 109 1614
278 109 4283
279 109 3828
280 109 6314
281 109 3646
282 109 1500
283 109 1437
284 109 3654
285 109 5319
286 109 3005
287 109 3766
288 109 6333
289 109 2994
290 109 3202
291 109 7509
292 109 3522
293 109 6521
294 109 9932
295 109 10528
296 109 7553
297 109 4365
298 109 3789
299 109 3903
300 109 5790
301 109 3932
302 109 4982
303 109 8401
304 109 5357
305 109 4569
306 109 2111
307 109 5099
308 109 3765
309 109 3621
310 109 3737
311 109 6555
312 109 6000
313 109 2709
314 109 4558
315 109 2011
316 109 4311
317 109 5243
318 109 2441
319 109 4629
320 109 5440
321 109 4356
322 109 2438
323 109 6656
324 109 6373
325 109 4648
326 109 3327
327 109 2684
328 109 4134
329 109 1584
330 109 4487
331 109 3409
332 109 6145
333 109 4044
334 109 4503
335 109 3669
336 109 3614
337 109 6252
338 109 5786
339 109 9182
340 109 6223
341 109 2051
342 109 3964
343 109 2862
344 109 3839
345 109 3627
346 109 7304
347 109 4906
348 109 3718
349 109 4666
350 109 1498
351 109 4561
352 109 6986
353 109 2113
354 109 4249
355 109 7249
356 109 4370
357 109 5684
358 109 2279
359 109 4490
360 109 4306
361 109 4345
362 109 3991
363 109 1937
364 109 3661
365 109 3475
366 109 2993
367 109 5181
368 109 2496
369 109 5319
370 109 3618
371 109 4717
372 109 4347
373 109 4280
374 109 4055
375 109 4715
376 109 988
377 109 7430
378 109 3737
379 109 3824
380 109 5019
381 109 4329
382 109 4982
383 109 3723
384 109 5026
385 109 2483
386 109 2889
387 109 1889
388 109 2669
389 109 3257
390 109 6370
391 109 5996
392 109 2624
393 109 5865
394 109 6516
395 109 2652
396 109 2895
397 109 3515
398 109 4854
399 109 4637
400 109 6107
401 109 3635
402 109 4522
403 109 5667
404 109 4839
405 109 3461
406 109 1138
407 109 783
408 109 1269
409 109 4580
410 109 1760
411 109 3976
412 109 3999
413 109 5842
414 109 3572
415 109 5149
416 109 3821
417 109 5403
418 109 2625
419 109 3189
420 109 8034
421 109 4013
422 109 2292
423 109 6400
424 109 1562
425 109 3409
426 109 4221
427 109 3706
428 109 5390
429 109 4533
430 109 4468
431 109 4350
432 109 4992
433 109 3225
434 109 6106
435 109 4044
436 109 6134
437 109 3534
438 109 3007
439 109 3553
440 109 4893
441 109 4320
442 109 2288
443 109 7868
444 109 4207
445 109 2253
446 109 3036
447 109 2255
448 109 3762
449 109 3154
450 109 7084
451 109 5848
452 109 3325
453 109 5340
454 109 10430
455 109 3302
456 109 4293
457 109 4217
458 109 2500
459 109 3088
460 109 3837
461 109 2602
462 109 3626
463 109 3925
464 109 4538
465 109 7402
466 109 7363
467 109 11918
468 109 1558
469 109 4774
470 109 2945
471 109 4110
472 109 3561
473 109 4731
474 109 5191
475 109 3241
476 109 3680
477 109 3551
478 109 3966
479 109 7209
480 109 3880
481 109 5446
482 109 4966
483 109 4255
484 109 2271
485 109 4013
486 109 3918
487 109 4253
488 109 4612
489 109 3054
490 109 3008
491 109 3119
492 109 3381
493 109 629
494 109 4153
495 109 2338
496 109 4563
497 109 3849
498 109 10368
499 109 3833
500 109 4427
8 110 2051
27 110 1507
34 110 1991
41 110 1689
45 110 1201
47 110 44
63 110 1089
67 110 1570
87 110 1238
89 110 1641
94 110 1872
101 110 2161
102 110 203
118 110 1771
121 110 2064
127 110 1413
128 110 2126
143 110 1125
145 110 1668
147 110 2407
155 110 2069
158 110 1478
173 110 2293
181 110 1440
189 110 2173
195 110 1914
203 110 1967
229 110 504
232 110 1167
240 110 2432
242 110 18
246 110 1870
247 110 11
255 110 2227
261 110 2222
268 110 128
280 110 503
292 110 776
294 110 417
300 110 814
302 110 1332
305 110 1981
311 110 8
312 110 45
317 110 399
331 110 44
338 110 2626
360 110 1160
364 110 2706
367 110 1223
372 110 1201
384 110 169
398 110 1286
401 110 711
414 110 1284
417 110 2005
420 110 1841
431 110 1540
437 110 122
449 110 449
451 110 789
455 110 1011
463 110 2125
464 110 2353
469 110 2464
474 110 1466
479 110 2383
482 110 1401
483 110 2247
494 110 961
500 110 1461
2 111 41
7 111 3
8 111 10156
18 111 1
26 111 2
27 111 10941
34 111 4809
41 111 13272
45 111 16060
47 111 1589
63 111 10447
67 111 13389
83 111 3
87 111 10925
89 111 16584
94 111 13485
96 111 2
101 111 17916
102 111 3894
118 111 9273
121 111 12163
127 111 8710
128 111 22789
143 111 13609
145 111 9212
147 111 15405
155 111 10213
158 111 10586
173 111 11335
181 111 8733
185 111 3
189 111 8659
195 111 7125
203 111 10515
220 111 2
225 111 7
229 111 12282
232 111 10565
240 111 18488
242 111 91
246 111 18019
247 111 393
255 111 10632
259 111 3
261 111 7648
268 111 4439
275 111 4
280 111 10377
281 111 3
289 111 2
292 111 7937
294 111 12159
295 111 5
300 111 16017
302 111 15524
305 111 9649
308 111 2
311 111 85
312 111 1570
317 111 6786
331 111 1893
338 111 7098
348 111 40
350 111 3
354 111 5
360 111 11970
361 111 3
364 111 13107
367 111 9402
372 111 11832
381 111 4
384 111 3320
398 111 10192
401 111 8706
412 111 2
414 111 8756
417 111 10894
420 111 10733
426 111 6
431 111 9780
437 111 4208
444 111 7
446 111 9
449 111 7351
451 111 16053
455 111 7627
459 111 6
463 111 10144
464 111 7954
469 111 11643
474 111 11237
479 111 22876
482 111 15490
483 111 8489
494 111 13873
500 111 21677
8 112 10589
20 112 2
27 112 13997
34 112 8988
41 112 10959
45 112 14470
47 112 5
63 112 13968
67 112 15336
87 112 12076
89 112 7149
94 112 21740
101 112 8628
102 112 609
118 112 6226
121 112 10099
127 112 20971
128 112 8043
143 112 21690
145 112 12665
147 112 15418
155 112 14078
158 112 19450
173 112 12132
181 112 5902
189 112 11260
194 112 6
195 112 5538
203 112 19351
229 112 19811
232 112 21350
240 112 12881
246 112 16366
255 112 11046
261 112 18498
268 112 53
280 112 17277
292 112 14526
294 112 626
300 112 10151
302 112 7981
305 112 27705
312 112 6
317 112 11398
338 112 13602
360 112 13756
364 112 10496
367 112 13623
372 112 13661
384 112 37
398 112 14031
401 112 8717
414 112 13808
417 112 20831
420 112 20787
431 112 10908
437 112 46
449 112 3495
451 112 10056
452 112 5
455 112 11638
463 112 10608
464 112 15403
469 112 18816
474 112 15488
478 112 7
479 112 10148
482 112 8108
483 112 11245
485 112 2
494 112 12626
500 112 18896
2 113 1487
8 113 1585
22 113 2
27 113 2718
34 113 1673
41 113 2334
45 113 1730
47 113 2481
57 113 221
63 113 3200
66 113 950
67 113 1995
70 113 83
83 113 2073
87 113 1530
89 113 2233
90 113 42
94 113 2672
101 113 1908
102 113 1961
118 113 911
121 113 2890
127 113 1519
128 113 1433
133 113 11
143 113 2734
145 113 2474
147 113 2392
155 113 1819
158 113 5328
173 113 2173
181 113 1863
189 113 1708
195 113 2553
203 113 1440
220 113 2028
229 113 2476
232 113 2117
240 113 956
242 113 1084
246 113 2453
247 113 1282
251 113 5
255 113 2396
261 113 2774
268 113 2602
280 113 1795
281 113 1050
292 113 2576
294 113 1239
295 113 1475
300 113 1622
302 113 3375
305 113 2692
311 113 1083
312 113 2501
317 113 2565
331 113 2828
338 113 2633
346 113 26
348 113 1462
360 113 952
364 113 3600
367 113 2241
372 113 1000
375 113 162
384 113 1025
388 113 1274
398 113 2265
401 113 1782
405 113 1445
412 113 2048
414 113 1655
417 113 4037
420 113 1734
431 113 3757
437 113 2545
440 113 1435
449 113 1762
451 113 1633
455 113 2304
463 113 1564
464 113 1740
469 113 1899
474 113 2173
475 113 933
479 113 2302
482 113 3281
483 113 2078
486 113 953
494 113 3142
500 113 2972
2 114 2196
8 114 3561
27 114 5145
34 114 6505
41 114 6562
45 114 5551
47 114 4481
57 114 1597
63 114 2602
66 114 2238
67 114 5242
70 114 15
83 114 4454
87 114 4533
89 114 4457
94 114 4342
101 114 5686
102 114 4335
118 114 2378
121 114 4615
127 114 6967
128 114 6733
143 114 4089
145 114 8376
147 114 6234
155 114 4640
158 114 5848
173 114 4913
181 114 3216
189 114 3826
195 114 3320
203 114 7583
220 114 4566
229 114 3461
232 114 5455
240 114 4050
242 114 4685
246 114 5459
247 114 4084
255 114 4829
261 114 4800
268 114 4495
280 114 2152
281 114 2968
292 114 4454
294 114 4642
295 114 2517
300 114 3400
302 114 4314
305 114 6174
311 114 4833
312 114 4437
317 114 5440
331 114 4248
338 114 3025
348 114 2130
360 114 7006
364 114 5275
367 114 3509
372 114 6995
375 114 53
384 114 5874
388 114 1608
398 114 3913
401 114 4176
405 114 419
412 114 4338
414 114 3204
417 114 4822
420 114 4100
431 114 4763
437 114 4592
440 114 188
449 114 3782
451 114 3348
455 114 5395
463 114 3510
464 114 4800
469 114 5001
474 114 4507
475 114 2363
479 114 3623
482 114 4295
483 114 4326
486 114 179
494 114 3608
500 114 4160
1 115 141
2 115 2868
3 115 3781
4 115 1897
5 115 2608
6 115 3214
8 115 2446
9 115 3998
10 115 4196
11 115 3946
12 115 1928
13 115 3300
14 115 2123
15 115 2942
17 115 3525
20 115 1536
21 115 6562
22 115 2693
23 115 3247
25 115 1643
27 115 2637
28 115 2537
29 115 2851
32 115 3233
34 115 7230
35 115 2135
36 115 2283
37 115 3693
38 115 3823
40 115 4011
41 115 7534
42 115 3473
43 115 4799
44 115 3064
45 115 5744
46 115 5821
47 115 3408
48 115 3630
49 115 4523
50 115 2157
51 115 4240
52 115 2459
54 115 2433
55 115 1025
56 115 1266
57 115 2903
58 115 2989
60 115 2697
61 115 3574
62 115 2550
63 115 2694
64 115 1594
65 115 4404
66 115 3739
67 115 3059
68 115 2430
69 115 2403
70 115 2609
71 115 1579
73 115 3752
74 115 1506
76 115 1941
77 115 3636
78 115 2769
80 115 1218
81 115 3686
82 115 2323
83 115 3225
84 115 4142
85 115 5224
87 115 3413
88 115 1630
89 115 3540
90 115 3135
91 115 2156
92 115 3428
93 115 3174
94 115 4941
95 115 2945
97 115 3215
98 115 4409
99 115 2392
101 115 4868
102 115 3433
103 115 1881
104 115 3568
105 115 2844
107 115 1059
108 115 2261
109 115 2070
110 115 2881
112 115 3712
113 115 2607
114 115 2960
115 115 2477
116 115 3986
117 115 1763
118 115 4838
119 115 1497
120 115 2206
121 115 4732
122 115 3517
123 115 2270
124 115 2265
125 115 5125
126 115 3906
127 115 5073
128 115 3712
129 115 3172
132 115 4124
133 115 3076
134 115 3800
135 115 1717
136 115 3555
138 115 2
139 115 2471
140 115 2879
141 115 4248
142 115 4174
143 115 3683
144 115 5175
145 115 3941
147 115 2544
148 115 1477
149 115 4064
150 115 2264
151 115 262
152 115 3241
153 115 3385
155 115 4188
157 115 1677
158 115 4661
160 115 4820
162 115 3185
163 115 1616
164 115 4218
165 115 3912
166 115 3598
167 115 2661
168 115 2238
170 115 3854
171 115 2400
172 115 3415
173 115 5117
174 115 5057
176 115 2946
177 115 3328
178 115 2965
180 115 1706
181 115 5263
182 115 2981
183 115 2019
184 115 2917
186 115 3486
187 115 3700
188 115 5145
189 115 8464
190 115 3675
191 115 2596
192 115 3102
194 115 2750
195 115 4898
196 115 85
197 115 5135
198 115 2375
199 115 2666
200 115 1635
201 115 1983
202 115 4630
203 115 5706
204 115 1986
206 115 2357
207 115 4509
210 115 4583
211 115 3148
212 115 4933
213 115 3434
214 115 5531
215 115 4254
216 115 4702
217 115 3950
218 115 2896
219 115 2333
220 115 2983
221 115 2398
223 115 3145
224 115 3343
227 115 4002
228 115 1681
229 115 4768
230 115 2824
231 115 1896
232 115 4558
233 115 4481
234 115 3637
235 115 3782
236 115 1334
237 115 1739
238 115 2992
240 115 3626
241 115 5641
242 115 3092
243 115 4559
244 115 900
245 115 3590
246 115 5314
247 115 3422
248 115 3163
249 115 2293
250 115 2434
251 115 2473
252 115 3356
254 115 4039
255 115 4666
256 115 3175
257 115 3145
258 115 6694
261 115 2944
262 115 2154
264 115 3063
266 115 3476
267 115 3710
268 115 4062
269 115 4242
270 115 3539
271 115 2683
272 115 2366
273 115 4123
276 115 2686
277 115 2379
278 115 5957
280 115 3156
281 115 4217
282 115 1506
283 115 1478
284 115 3063
285 115 3479
286 115 2321
287 115 2462
288 115 2096
290 115 2838
291 115 5351
292 115 4335
294 115 3644
295 115 2828
296 115 2259
297 115 4000
298 115 2463
299 115 3902
300 115 4794
301 115 1770
302 115 3800
303 115 3462
304 115 6790
305 115 4957
306 115 3179
307 115 5212
308 115 2384
310 115 2363
311 115 3020
312 115 3309
313 115 3527
314 115 2515
315 115 2372
317 115 6774
318 115 2796
320 115 5205
321 115 4108
322 115 3545
324 115 2437
325 115 3410
326 115 4364
327 115 3048
328 115 3566
329 115 1605
330 115 2998
331 115 4153
332 115 3390
333 115 1753
334 115 3799
335 115 2710
336 115 3957
337 115 2883
338 115 3618
339 115 1168
340 115 3127
341 115 2059
342 115 3493
343 115 3108
346 115 3084
347 115 3315
348 115 2837
349 115 3529
351 115 2608
353 115 1140
355 115 3700
356 115 3962
358 115 2338
359 115 3657
360 115 4427
362 115 2537
363 115 3160
364 115 6075
365 115 6
366 115 5253
367 115 4587
368 115 3059
369 115 2981
370 115 1290
371 115 3607
372 115 4406
375 115 2847
376 115 1460
378 115 2864
379 115 4466
380 115 2779
382 115 4701
383 115 2973
384 115 3613
385 115 2078
386 115 1819
387 115 1441
388 115 4909
389 115 3965
391 115 5123
392 115 2819
393 115 3893
395 115 3833
396 115 48
397 115 5412
398 115 3965
399 115 4635
400 115 2850
401 115 5939
402 115 3591
403 115 2914
404 115 468
405 115 3668
406 115 1276
407 115 2423
408 115 1307
409 115 1855
410 115 5380
411 115 3571
412 115 3130
413 115 2979
414 115 2361
415 115 3688
416 115 4569
417 115 3940
418 115 3247
419 115 2733
420 115 4221
421 115 2124
422 115 1681
424 115 2777
425 115 3220
427 115 5443
428 115 2904
429 115 2703
430 115 3133
431 115 5428
432 115 3371
433 115 3586
434 115 3421
435 115 2870
436 115 3329
437 115 3912
438 115 2364
439 115 2950
440 115 4044
441 115 4330
442 115 2567
443 115 2878
445 115 1122
447 115 1967
448 115 5688
449 115 4435
451 115 4668
452 115 3535
453 115 3535
455 115 3582
456 115 2704
457 115 3529
458 115 1171
461 115 2890
462 115 3136
463 115 2423
464 115 6674
467 115 7254
468 115 2553
469 115 5879
470 115 3790
471 115 3628
474 115 6928
475 115 3888
476 115 3673
478 115 2767
479 115 4309
480 115 4388
481 115 3310
482 115 3791
483 115 2368
484 115 3180
485 115 2612
486 115 2169
487 115 1902
489 115 4024
490 115 4521
491 115 2865
492 115 3218
493 115 2996
494 115 4118
495 115 1810
497 115 1761
498 115 6020
499 115 3379
500 115 4292
3 116 824
4 116 931
5 116 64
6 116 703
7 116 387
9 116 370
10 116 1464
11 116 970
12 116 1382
13 116 1374
14 116 28
15 116 1983
16 116 73
17 116 1072
18 116 784
19 116 1105
20 116 469
21 116 1219
23 116 975
24 116 614
25 116 762
26 116 367
28 116 2757
29 116 772
30 116 2062
31 116 777
32 116 1093
33 116 2303
35 116 739
37 116 1105
38 116 1002
39 116 116
40 116 1787
42 116 1302
43 116 951
44 116 633
46 116 1453
48 116 1779
49 116 1488
50 116 441
51 116 1343
52 116 1628
53 116 831
54 116 441
55 116 668
56 116 482
58 116 876
59 116 2039
60 116 1667
61 116 1759
62 116 662
64 116 631
65 116 1162
68 116 1359
69 116 1249
71 116 851
72 116 625
73 116 837
74 116 44
75 116 2010
77 116 983
78 116 543
79 116 1959
80 116 356
81 116 260
82 116 697
84 116 1195
85 116 276
86 116 1369
88 116 65
91 116 736
92 116 1013
93 116 466
96 116 1392
97 116 1690
98 116 1147
99 116 1320
100 116 735
103 116 415
106 116 2130
107 116 212
108 116 1424
109 116 960
110 116 567
111 116 1168
112 116 539
113 116 593
114 116 1213
115 116 1249
119 116 986
120 116 644
122 116 1928
123 116 529
124 116 1274
125 116 1317
126 116 1057
129 116 608
130 116 1215
131 116 742
132 116 692
134 116 1716
135 116 968
136 116 810
137 116 1078
138 116 111
139 116 896
140 116 598
141 116 839
142 116 1053
144 116 1991
146 116 1110
148 116 54
149 116 1297
150 116 987
151 116 2
152 116 1052
153 116 779
154 116 278
156 116 2270
157 116 886
159 116 611
160 116 864
161 116 1375
162 116 754
163 116 1255
165 116 2314
166 116 590
167 116 253
168 116 644
169 116 68
170 116 1691
171 116 496
172 116 717
174 116 1187
175 116 645
176 116 727
177 116 1318
178 116 852
179 116 750
180 116 990
182 116 1060
183 116 630
184 116 1154
185 116 1141
186 116 1279
187 116 274
188 116 2738
190 116 1587
191 116 1444
192 116 694
193 116 1078
194 116 1110
196 116 28
197 116 795
198 116 507
199 116 1269
200 116 254
201 116 874
202 116 961
204 116 767
205 116 1209
206 116 78
207 116 1186
208 116 1109
209 116 1149
210 116 1532
211 116 1363
212 116 1307
213 116 445
214 116 1106
215 116 1090
216 116 957
217 116 1115
218 116 1884
219 116 1063
221 116 620
222 116 604
223 116 1138
224 116 1164
225 116 837
226 116 1125
227 116 520
228 116 894
230 116 636
231 116 1410
234 116 2101
235 116 1068
236 116 737
237 116 7
238 116 409
239 116 477
243 116 1480
244 116 452
245 116 927
248 116 1108
249 116 1139
250 116 591
252 116 833
253 116 2047
254 116 1630
256 116 1246
257 116 949
258 116 2281
259 116 1173
260 116 1403
262 116 500
263 116 2633
264 116 954
265 116 1204
266 116 731
267 116 550
269 116 750
270 116 893
271 116 5
272 116 1676
273 116 1527
274 116 1403
275 116 361
276 116 963
277 116 1070
278 116 1298
279 116 1147
282 116 520
283 116 1184
284 116 906
285 116 1820
286 116 967
287 116 1529
288 116 1165
289 116 393
290 116 1146
291 116 1221
293 116 496
296 116 396
298 116 1221
299 116 1928
301 116 1359
303 116 1821
304 116 1425
306 116 511
307 116 1916
308 116 1031
309 116 1003
310 116 1177
313 116 1103
314 116 1094
315 116 572
316 116 1193
318 116 519
319 116 2379
320 116 697
322 116 831
323 116 749
324 116 1342
325 116 510
326 116 1334
327 116 921
328 116 786
329 116 418
330 116 843
332 116 1190
333 116 791
334 116 826
335 116 482
336 116 512
337 116 1118
340 116 1748
341 116 613
342 116 794
343 116 2127
344 116 1212
345 116 1407
349 116 1861
350 116 810
351 116 459
352 116 1413
353 116 1783
354 116 1088
355 116 1363
356 116 1787
357 116 1198
358 116 1299
359 116 860
361 116 1127
362 116 843
363 116 371
365 116 113
366 116 1250
368 116 379
369 116 1648
371 116 2476
373 116 1220
374 116 2031
376 116 895
377 116 1333
378 116 393
379 116 208
380 116 922
381 116 1135
382 116 1706
383 116 718
385 116 51
386 116 1315
387 116 820
389 116 322
390 116 493
391 116 1169
392 116 1186
394 116 777
395 116 811
397 116 1155
399 116 680
400 116 1245
402 116 829
403 116 1076
406 116 950
407 116 537
408 116 531
409 116 427
410 116 429
411 116 773
413 116 1123
415 116 1333
416 116 1672
418 116 574
419 116 1186
421 116 257
422 116 1618
423 116 450
424 116 650
425 116 702
426 116 1343
427 116 1144
428 116 1725
429 116 1156
430 116 484
433 116 1653
434 116 881
435 116 1702
436 116 880
438 116 727
439 116 1167
441 116 1006
442 116 1207
443 116 1303
444 116 1391
445 116 402
446 116 385
447 116 633
450 116 1391
452 116 602
453 116 1372
454 116 1061
456 116 1374
457 116 1101
458 116 528
459 116 355
460 116 1188
461 116 463
462 116 1008
465 116 1295
466 116 1330
467 116 2274
468 116 332
470 116 413
471 116 727
472 116 1426
473 116 637
476 116 598
477 116 1450
478 116 1079
480 116 1172
481 116 727
484 116 620
485 116 993
487 116 901
488 116 618
489 116 1234
490 116 803
491 116 886
492 116 1552
493 116 527
495 116 822
496 116 609
497 116 841
498 116 1579
499 116 360
1 117 16
3 117 1616
4 117 878
5 117 1637
6 117 1864
7 117 2086
9 117 2222
10 117 2480
11 117 1309
12 117 1932
13 117 1408
14 117 74
15 117 3730
16 117 1047
17 117 1734
18 117 1317
19 117 3654
20 117 1265
21 117 3502
23 117 2686
24 117 2334
25 117 894
26 117 2171
28 117 3420
29 117 1724
30 117 3138
31 117 2878
32 117 1525
33 117 1916
35 117 1057
37 117 2161
38 117 2360
39 117 1647
40 117 3455
42 117 3132
43 117 1542
44 117 2260
46 117 3182
48 117 3606
49 117 2415
50 117 1618
51 117 3696
52 117 2395
53 117 3897
54 117 1403
55 117 2091
56 117 1151
58 117 2369
59 117 3259
60 117 2016
61 117 2597
62 117 1492
64 117 1253
65 117 1224
68 117 2009
69 117 2039
71 117 1668
72 117 2156
73 117 2265
74 117 1509
75 117 3124
77 117 1784
78 117 1303
79 117 4333
80 117 777
81 117 2012
82 117 3440
84 117 3151
85 117 2884
86 117 2693
88 117 1601
91 117 2489
92 117 1389
93 117 762
96 117 3096
97 117 1647
98 117 1193
99 117 1614
100 117 2967
103 117 1684
106 117 3152
107 117 908
108 117 3698
109 117 1215
110 117 1895
111 117 3147
112 117 483
113 117 2342
114 117 876
115 117 1121
119 117 954
120 117 1508
122 117 1269
123 117 1491
124 117 1599
125 117 2071
126 117 2668
129 117 2005
130 117 3162
131 117 2744
132 117 3167
134 117 2349
135 117 1617
136 117 1773
137 117 1886
138 117 77
139 117 2039
140 117 1531
141 117 3101
142 117 2720
144 117 1658
146 117 3550
148 117 1559
149 117 2797
150 117 2570
151 117 19
152 117 1534
153 117 1936
154 117 540
156 117 2386
157 117 1105
159 117 2127
160 117 2909
161 117 2603
162 117 1919
163 117 1758
165 117 2463
166 117 3388
167 117 1162
168 117 2168
169 117 994
170 117 2330
171 117 1372
172 117 1096
173 117 8
174 117 2165
175 117 2157
176 117 3448
177 117 1893
178 117 977
179 117 2949
180 117 1472
182 117 2106
183 117 1928
184 117 1596
185 117 1508
186 117 2389
187 117 2081
188 117 2980
190 117 1971
191 117 2218
192 117 1713
193 117 1882
194 117 1778
196 117 284
197 117 1838
198 117 696
199 117 3623
200 117 1168
201 117 1104
202 117 1230
204 117 1283
205 117 2416
206 117 856
207 117 1636
208 117 1936
209 117 3287
210 117 1512
211 117 3765
212 117 2806
213 117 2378
214 117 2261
215 117 2773
216 117 1571
217 117 1812
218 117 1482
219 117 1675
221 117 928
222 117 2142
223 117 1539
224 117 2457
225 117 1445
226 117 2210
227 117 2007
228 117 1573
230 117 858
231 117 1885
234 117 1858
235 117 2367
236 117 854
237 117 32
238 117 1846
239 117 3176
243 117 3091
244 117 1363
245 117 1744
248 117 599
249 117 1602
250 117 1305
252 117 1044
253 117 3236
254 117 1320
256 117 2477
257 117 2943
258 117 2797
259 117 1611
260 117 2644
262 117 1582
263 117 4592
264 117 2805
265 117 2040
266 117 1063
267 117 3549
269 117 3158
270 117 2200
271 117 4
272 117 2231
273 117 1952
274 117 2621
275 117 2122
276 117 3131
277 117 1766
278 117 1788
279 117 3119
282 117 1324
283 117 1678
284 117 4235
285 117 2968
286 117 1432
287 117 2356
288 117 2129
289 117 2152
290 117 2331
291 117 1860
293 117 3216
296 117 1460
298 117 2541
299 117 2275
301 117 1726
303 117 2471
304 117 2227
306 117 1191
307 117 1573
308 117 1703
309 117 2855
310 117 2393
313 117 1776
314 117 1320
315 117 872
316 117 2601
318 117 1334
319 117 2272
320 117 1577
322 117 1201
323 117 2947
324 117 2062
325 117 1872
326 117 2509
327 117 2118
328 117 1688
329 117 864
330 117 2729
332 117 2582
333 117 1368
334 117 3207
335 117 758
336 117 1947
337 117 2551
339 117 58
340 117 2708
341 117 1285
342 117 1726
343 117 2003
344 117 3163
345 117 2619
349 117 2380
350 117 1428
351 117 1381
352 117 2667
353 117 924
354 117 1518
355 117 2936
356 117 3563
357 117 2707
358 117 1769
359 117 1812
361 117 1425
362 117 2107
363 117 1421
365 117 89
366 117 1555
368 117 1410
369 117 2224
371 117 1972
373 117 2540
374 117 3022
376 117 1472
377 117 5235
378 117 1718
379 117 1818
380 117 3201
381 117 1466
382 117 1281
383 117 1357
385 117 941
386 117 1789
387 117 1216
389 117 918
390 117 3139
391 117 1549
392 117 1522
394 117 2975
395 117 1617
397 117 2300
399 117 2324
400 117 1106
402 117 1762
403 117 2328
406 117 898
407 117 720
408 117 745
409 117 1703
410 117 2503
411 117 1739
413 117 2166
415 117 3283
416 117 1552
418 117 2222
419 117 2726
421 117 1562
422 117 2751
423 117 3285
424 117 1436
425 117 1548
426 117 3132
427 117 2364
428 117 2243
429 117 1277
430 117 760
433 117 2686
434 117 1640
435 117 2069
436 117 1593
438 117 1763
439 117 793
441 117 2690
442 117 1637
443 117 1562
444 117 3134
445 117 758
446 117 2176
447 117 1174
450 117 2674
452 117 2160
453 117 1970
454 117 4499
456 117 1534
457 117 5147
458 117 1399
459 117 2043
460 117 3309
461 117 1626
462 117 4226
465 117 5250
466 117 5452
467 117 3309
468 117 1170
470 117 784
471 117 3500
472 117 2586
473 117 2160
476 117 2578
477 117 2601
478 117 1896
480 117 2593
481 117 2265
484 117 1710
485 117 1901
487 117 2045
488 117 2137
489 117 1991
490 117 2118
491 117 2261
492 117 2109
493 117 1027
495 117 2067
496 117 2146
497 117 1340
498 117 2024
499 117 2255
1 118 983
2 118 5214
3 118 2734
4 118 2012
5 118 1329
6 118 1978
7 118 2350
8 118 3527
9 118 1700
10 118 2198
11 118 2647
12 118 2649
13 118 1542
14 118 2128
15 118 1970
16 118 2545
17 118 1867
18 118 1851
19 118 3529
20 118 1105
21 118 3501
22 118 2154
23 118 3184
24 118 2764
25 118 941
26 118 2262
27 118 2166
28 118 4204
29 118 2321
30 118 2712
31 118 3754
32 118 2233
33 118 2474
34 118 4160
35 118 1443
36 118 3500
37 118 2959
38 118 2365
39 118 2761
40 118 1261
41 118 5
42 118 2281
43 118 1327
44 118 1821
46 118 3824
47 118 2267
48 118 3636
49 118 2442
50 118 1957
51 118 4013
52 118 3939
53 118 3088
54 118 4332
55 118 2829
56 118 1944
57 118 2018
58 118 2071
59 118 2784
60 118 2594
61 118 2720
62 118 1524
64 118 899
65 118 2112
66 118 2619
68 118 1390
69 118 1942
70 118 2289
71 118 1168
72 118 3311
73 118 2705
74 118 1518
75 118 2773
76 118 3927
77 118 2124
78 118 1810
79 118 1997
80 118 645
81 118 2932
82 118 902
83 118 2998
84 118 2742
85 118 1812
86 118 2430
87 118 3003
88 118 1316
89 118 2128
90 118 2281
91 118 1358
92 118 1438
93 118 2229
95 118 3175
96 118 3390
97 118 2845
98 118 2147
99 118 2023
100 118 3750
102 118 2961
103 118 1332
104 118 2034
105 118 2004
106 118 2747
107 118 1352
108 118 2123
109 118 1518
110 118 1179
111 118 1955
112 118 1846
113 118 1516
114 118 3670
115 118 2015
116 118 2909
117 118 1227
119 118 1460
120 118 823
122 118 2770
123 118 1827
124 118 3008
125 118 2099
126 118 2099
127 118 1306
128 118 3268
129 118 2110
130 118 1944
131 118 2611
132 118 2493
133 118 2707
134 118 2573
135 118 793
136 118 2618
137 118 3053
138 118 1649
139 118 1892
140 118 1017
141 118 2026
142 118 2002
144 118 2165
146 118 3584
148 118 1542
149 118 1922
150 118 2482
151 118 1312
152 118 1313
153 118 1847
154 118 2010
155 118 3
156 118 2702
157 118 1409
158 118 4
159 118 3228
160 118 3017
161 118 2473
162 118 2881
163 118 2661
164 118 1395
165 118 5315
166 118 3159
167 118 897
168 118 2896
169 118 2567
170 118 2391
171 118 4406
172 118 2172
174 118 3684
175 118 3282
176 118 3157
177 118 2716
178 118 1745
179 118 2590
180 118 1476
181 118 1964
182 118 1824
183 118 1194
184 118 1784
185 118 2805
186 118 4678
187 118 3090
188 118 2462
190 118 2501
191 118 2450
192 118 2082
193 118 3136
194 118 2181
196 118 2726
197 118 1435
198 118 2277
199 118 3563
200 118 1587
201 118 2165
202 118 1651
204 118 2711
205 118 2277
206 118 1497
207 118 1981
208 118 3068
209 118 1942
210 118 2929
211 118 2085
212 118 1154
213 118 2264
214 118 3740
215 118 1969
216 118 2360
217 118 1382
218 118 1985
219 118 1557
220 118 3075
221 118 815
222 118 3245
223 118 2256
224 118 2733
225 118 1774
226 118 2146
227 118 2706
228 118 815
230 118 1379
231 118 2542
232 118 2061
233 118 1369
234 118 2406
235 118 2343
236 118 1834
237 118 2392
238 118 1172
239 118 3291
241 118 1827
242 118 1988
243 118 3700
244 118 177
245 118 2088
247 118 3373
248 118 1398
249 118 1618
250 118 1435
251 118 2449
252 118 1413
253 118 2848
254 118 2726
256 118 2900
257 118 2912
258 118 4334
259 118 2920
260 118 3816
262 118 2010
263 118 2826
264 118 2861
265 118 2076
266 118 2223
267 118 3004
268 118 2676
269 118 1939
270 118 4120
271 118 1917
272 118 1551
273 118 3570
274 118 2514
275 118 2359
276 118 2622
277 118 1337
278 118 2878
279 118 1975
281 118 1891
282 118 1469
283 118 1862
284 118 4297
285 118 2821
286 118 1583
287 118 3834
288 118 3021
289 118 2341
290 118 1306
291 118 4467
292 118 1714
293 118 3498
294 118 2824
295 118 1932
296 118 2144
297 118 1977
298 118 3224
299 118 3019
300 118 201
301 118 1468
302 118 3
303 118 3668
304 118 2349
306 118 2357
307 118 2216
308 118 2491
309 118 1985
310 118 2190
311 118 2090
312 118 2263
313 118 2893
314 118 2072
315 118 783
316 118 2965
318 118 1804
319 118 2715
320 118 2098
321 118 1870
322 118 2125
323 118 3776
324 118 1423
325 118 3365
326 118 1858
327 118 1654
328 118 2620
329 118 1518
330 118 1888
331 118 3875
332 118 2799
333 118 1991
334 118 2262
335 118 808
336 118 2545
337 118 2700
338 118 2374
339 118 1364
340 118 2307
341 118 1480
342 118 2535
343 118 2832
344 118 2017
345 118 2492
346 118 2973
347 118 1627
348 118 5157
349 118 1114
350 118 1763
351 118 4329
352 118 3816
353 118 3063
354 118 2869
355 118 2648
356 118 1388
357 118 4776
358 118 2809
359 118 1760
360 118 3640
361 118 2756
362 118 2124
363 118 1127
365 118 1704
366 118 2310
367 118 640
368 118 3124
369 118 2224
370 118 1504
371 118 1665
372 118 3583
373 118 3043
374 118 2731
375 118 2197
376 118 1441
377 118 4710
378 118 1729
379 118 2234
380 118 2493
381 118 2853
382 118 2115
383 118 1987
384 118 2448
385 118 1253
386 118 2707
387 118 1970
388 118 2854
389 118 1047
390 118 3442
391 118 2201
392 118 2541
393 118 3007
394 118 3703
395 118 2715
396 118 1173
397 118 2150
398 118 1979
399 118 2176
400 118 2319
401 118 1834
402 118 1795
403 118 3994
404 118 1374
405 118 2080
406 118 1438
407 118 2310
408 118 1141
409 118 1322
410 118 1548
411 118 2587
412 118 2927
413 118 2446
415 118 2002
416 118 2893
418 118 1752
419 118 3551
421 118 1974
422 118 1519
423 118 3405
424 118 1235
425 118 2705
426 118 3543
427 118 2855
428 118 2354
429 118 2084
430 118 2374
431 118 2
432 118 1724
433 118 2589
434 118 1807
435 118 1706
436 118 1854
437 118 2655
438 118 1922
439 118 3597
440 118 2070
441 118 1960
442 118 2882
443 118 2655
444 118 3671
445 118 1470
446 118 2399
447 118 1997
448 118 1771
449 118 3715
450 118 3829
451 118 217
452 118 3134
453 118 4522
454 118 2130
455 118 2111
456 118 2795
457 118 5795
458 118 1031
459 118 2385
460 118 1971
461 118 1655
462 118 4254
463 118 3738
464 118 5
465 118 4929
466 118 4776
467 118 2572
468 118 555
470 118 2170
471 118 2160
472 118 2512
473 118 3410
474 118 98
475 118 2515
476 118 2972
477 118 2527
478 118 2135
480 118 1953
481 118 3159
482 118 1
483 118 2421
484 118 1576
485 118 2189
486 118 1961
487 118 4453
488 118 3282
489 118 2612
490 118 2540
491 118 2131
492 118 965
493 118 1764
495 118 1561
496 118 3376
497 118 2014
498 118 3107
499 118 1693
1 119 15
4 119 1838
5 119 94
6 119 10
7 119 5
10 119 43
11 119 36
12 119 42
13 119 3204
14 119 3
15 119 138
16 119 3
17 119 19
18 119 7
19 119 78
20 119 4577
21 119 48
22 119 32
24 119 363
25 119 39
26 119 4
27 119 16
28 119 21
29 119 607
30 119 122
31 119 24
33 119 11
34 119 8
35 119 140
37 119 72
38 119 106
39 119 1
42 119 167
43 119 5
45 119 89
47 119 68
48 119 25
49 119 2
50 119 7
51 119 538
52 119 97
53 119 4
54 119 13
55 119 6
57 119 44
58 119 86
59 119 103
60 119 14
63 119 35
64 119 17
65 119 12
66 119 242
67 119 26
68 119 169
70 119 9
71 119 34
72 119 97
73 119 4
74 119 34
75 119 113
76 119 21
77 119 57
78 119 36
79 119 48
80 119 10154
81 119 60
82 119 60
83 119 6
85 119 17
86 119 72
87 119 10
88 119 46
89 119 15
91 119 262
92 119 13
93 119 56
94 119 25
95 119 5
96 119 341
97 119 21
98 119 9
99 119 23
100 119 18
101 119 5
102 119 37
103 119 23328
105 119 7
106 119 110
107 119 5
108 119 3
110 119 12
111 119 460
112 119 138
113 119 42
114 119 11
115 119 44
116 119 4
117 119 4
118 119 14
119 119 10659
120 119 5552
122 119 33
123 119 1900
124 119 12
125 119 18
127 119 9
128 119 5
129 119 8
130 119 453
131 119 209
132 119 4
133 119 3
134 119 19
135 119 2
136 119 6
137 119 65
138 119 93
139 119 11
140 119 25
142 119 2
143 119 16
144 119 61
146 119 77
147 119 79
148 119 44
149 119 22
151 119 41
153 119 8
154 119 5
155 119 5
156 119 11
157 119 6938
158 119 225
159 119 91
160 119 94
161 119 40
162 119 84
163 119 67
164 119 86
165 119 8
166 119 30
167 119 115
168 119 2
169 119 5
170 119 17
171 119 22
172 119 1898
173 119 2325
174 119 59
175 119 77
176 119 7
178 119 2
179 119 227
180 119 1
181 119 94
182 119 14
183 119 5940
184 119 2001
185 119 103
187 119 68
188 119 46
189 119 5
190 119 67
191 119 19
192 119 9164
193 119 80
194 119 33
196 119 8
197 119 59
198 119 5
199 119 6
201 119 3
202 119 45
204 119 13
206 119 13
207 119 66
208 119 54
209 119 429
210 119 171
211 119 7
213 119 12
214 119 14
215 119 2
216 119 8
217 119 1
218 119 78
219 119 3
220 119 8
221 119 13129
222 119 82
224 119 37
225 119 3
226 119 42
227 119 25
228 119 1
229 119 23
230 119 5335
231 119 36
232 119 11
233 119 2
234 119 19
235 119 89
236 119 176
237 119 18
238 119 9
240 119 41
241 119 37
242 119 34
243 119 8
244 119 3293
245 119 50
246 119 78
247 119 128
248 119 43
249 119 3
251 119 26
252 119 6
253 119 109
254 119 35
255 119 1915
256 119 5
257 119 49
259 119 141
260 119 34
261 119 14
262 119 2
264 119 46
265 119 41
266 119 1942
267 119 42
268 119 52
270 119 11
271 119 15
272 119 225
273 119 11
274 119 52
275 119 6
277 119 5
278 119 62
279 119 408
281 119 291
282 119 321
283 119 952
284 119 9
286 119 5
287 119 92
288 119 72
289 119 4
290 119 3
292 119 6
294 119 600
295 119 29
296 119 343
297 119 18
298 119 7
300 119 10
302 119 15
303 119 35
304 119 7
305 119 303
306 119 942
307 119 61
308 119 8
309 119 161
310 119 4
311 119 34
312 119 84
313 119 99
314 119 71
315 119 13393
316 119 231
317 119 5
318 119 33
319 119 8
320 119 17
321 119 15
322 119 5
323 119 21
324 119 172
325 119 37
326 119 197
328 119 4
329 119 40
330 119 58
331 119 4
332 119 33
333 119 3947
335 119 5224
336 119 39
337 119 4
338 119 31
339 119 19
341 119 7094
342 119 2
343 119 72
344 119 437
345 119 52
350 119 1
351 119 20
352 119 38
353 119 23
354 119 132
355 119 31
357 119 427
359 119 472
360 119 85
361 119 131
362 119 5
363 119 472
365 119 85
368 119 85
369 119 5
371 119 19
372 119 111
373 119 242
374 119 110
375 119 95
376 119 62
377 119 131
378 119 93
379 119 472
380 119 18
381 119 134
383 119 11
384 119 7
385 119 16
386 119 13
387 119 4759
388 119 3
389 119 2
391 119 70
392 119 2
393 119 4
394 119 22
396 119 25
397 119 5
398 119 3
399 119 4
400 119 10
401 119 1
402 119 515
403 119 79
404 119 13
405 119 51
406 119 15
407 119 3
408 119 345
409 119 23304
410 119 19
411 119 2
412 119 10
413 119 68
416 119 158
417 119 10
419 119 4
420 119 21
421 119 8667
422 119 119
424 119 8
425 119 18
426 119 337
427 119 25
428 119 3
429 119 81
430 119 52
431 119 4
434 119 3
435 119 24
436 119 7
437 119 64
438 119 4742
439 119 9
440 119 71
441 119 3
442 119 17
443 119 12
444 119 355
445 119 4574
446 119 1
447 119 8
448 119 45
449 119 21
450 119 33
451 119 10
452 119 6
453 119 12
454 119 165
455 119 38
457 119 22
458 119 3693
459 119 7
460 119 454
461 119 6199
462 119 15
465 119 135
466 119 151
467 119 40
468 119 1380
469 119 16
470 119 10
472 119 67
473 119 79
475 119 248
476 119 51
477 119 61
478 119 25
480 119 156
481 119 23
482 119 15
483 119 8
484 119 6949
485 119 35
486 119 28
487 119 27
488 119 88
490 119 18
491 119 85
492 119 32
493 119 105
494 119 23
495 119 3035
496 119 96
497 119 3919
498 119 776
499 119 234
500 119 3
2 120 4
4 120 217
6 120 2
8 120 5
10 120 1
13 120 794
20 120 5563
22 120 1
29 120 3
34 120 9
35 120 14
57 120 6
66 120 6
68 120 8
72 120 1
77 120 6
78 120 5
80 120 4327
82 120 5
89 120 1
93 120 8
96 120 11
103 120 3516
111 120 6
115 120 5
116 120 8
119 120 2848
120 120 165
123 120 41
130 120 2
131 120 1
137 120 8
138 120 2
157 120 2140
158 120 5
159 120 4
160 120 7
162 120 6
164 120 4
167 120 3
172 120 50
173 120 38
175 120 2
179 120 6
181 120 5
183 120 5678
184 120 17
188 120 3
192 120 2167
193 120 3
197 120 8
202 120 5
206 120 5
208 120 2
209 120 5
214 120 14
221 120 3028
222 120 5
230 120 1540
234 120 6
244 120 4454
245 120 5
247 120 5
255 120 11
257 120 5
263 120 7
264 120 3
266 120 49
272 120 3
279 120 2
282 120 2
283 120 3
295 120 6
297 120 4
300 120 5
303 120 4
305 120 5
306 120 5
313 120 3
314 120 4
315 120 3136
316 120 3
318 120 2
321 120 6
324 120 4
329 120 2
331 120 6
333 120 881
335 120 2868
340 120 1
341 120 2775
343 120 2
344 120 6
348 120 7
358 120 3
359 120 1
363 120 19
365 120 2
367 120 8
368 120 11
370 120 3
373 120 4
375 120 5
382 120 4
387 120 81
391 120 7
393 120 6
398 120 9
400 120 3
402 120 1
408 120 7
409 120 3488
413 120 5
421 120 3158
422 120 3
426 120 12
429 120 3
430 120 9
438 120 4664
440 120 7
444 120 20
445 120 2503
451 120 3
458 120 173
460 120 2
461 120 1506
463 120 3
468 120 13
469 120 7
473 120 1
475 120 11
480 120 1
484 120 2519
488 120 7
495 120 65
496 120 3
497 120 810
498 120 3
19 121 5013
24 121 4192
30 121 3085
31 121 4972
53 121 5899
59 121 3100
72 121 2624
75 121 3211
79 121 6880
86 121 2472
96 121 5898
100 121 5047
106 121 3098
111 121 870
130 121 927
131 121 4442
146 121 4907
156 121 2963
159 121 2610
161 121 2442
175 121 2597
179 121 4480
185 121 2725
205 121 3213
209 121 884
222 121 2504
226 121 9
239 121 4090
253 121 3107
259 121 2743
260 121 2971
263 121 5919
265 121 4
274 121 2385
279 121 863
293 121 4141
309 121 2261
316 121 2870
319 121 2855
323 121 5099
344 121 877
345 121 2473
352 121 2919
354 121 2752
357 121 2948
361 121 2690
373 121 2889
374 121 3158
377 121 4962
381 121 2711
390 121 4203
394 121 5126
423 121 4162
426 121 6016
440 121 2
444 121 6163
450 121 2880
454 121 3611
460 121 907
465 121 5176
466 121 5083
472 121 2419
473 121 2562
477 121 2438
488 121 2624
496 121 2507
1 122 3197
2 122 3386
3 122 3024
4 122 1626
5 122 1691
6 122 2345
7 122 1973
8 122 3172
9 122 2548
10 122 3357
11 122 2809
12 122 3226
13 122 2293
14 122 1499
15 122 3472
16 122 3656
17 122 2355
18 122 2643
19 122 5858
20 122 582
21 122 5978
22 122 2527
23 122 2121
24 122 4151
25 122 681
26 122 1968
27 122 3502
28 122 4669
29 122 2493
30 122 2558
31 122 3409
32 122 1205
33 122 3565
34 122 3489
35 122 2249
36 122 5656
37 122 3393
38 122 4011
39 122 3589
40 122 2486
41 122 2986
42 122 3352
43 122 2935
44 122 3034
45 122 4190
46 122 2489
47 122 1689
48 122 3123
49 122 3697
50 122 2349
51 122 3208
52 122 1926
53 122 2897
54 122 3754
55 122 2862
56 122 2853
57 122 4006
58 122 2055
59 122 2536
60 122 3337
61 122 3272
62 122 2713
63 122 1809
64 122 1663
65 122 2718
66 122 1419
67 122 2909
68 122 2515
69 122 2448
70 122 2215
71 122 2522
72 122 3519
73 122 3375
74 122 2947
75 122 2601
76 122 2863
77 122 1786
78 122 2919
79 122 2989
80 122 1866
81 122 4537
82 122 1491
83 122 3152
84 122 5104
85 122 3492
86 122 3332
87 122 2954
88 122 1476
89 122 3805
90 122 2352
91 122 2837
92 122 2669
93 122 2596
94 122 3908
95 122 4355
96 122 3785
97 122 6042
98 122 2683
99 122 2359
100 122 3247
101 122 4088
102 122 5005
103 122 1757
104 122 3543
105 122 1807
106 122 2491
107 122 1786
108 122 3730
109 122 1756
110 122 2895
111 122 3321
112 122 1440
113 122 1761
114 122 2631
115 122 1514
116 122 3437
117 122 1678
118 122 2523
119 122 1535
120 122 1809
121 122 4137
122 122 2446
123 122 2371
124 122 3763
125 122 4115
126 122 3666
127 122 2314
128 122 3393
129 122 2869
130 122 3348
131 122 4147
132 122 2426
133 122 1699
134 122 2585
135 122 1593
136 122 2278
137 122 2075
138 122 1703
139 122 5508
140 122 2163
141 122 2513
142 122 2833
143 122 3496
144 122 1762
145 122 2745
146 122 5822
147 122 3117
148 122 2907
149 122 2369
150 122 2371
151 122 1422
152 122 2342
153 122 2398
154 122 2639
155 122 4013
156 122 4162
157 122 1314
158 122 5402
159 122 3527
160 122 2583
161 122 3372
162 122 3935
163 122 2222
164 122 1691
165 122 3623
166 122 1684
167 122 1040
168 122 1539
169 122 3667
170 122 2738
171 122 3711
172 122 1560
173 122 5220
174 122 3609
175 122 3604
176 122 3613
177 122 2128
178 122 1872
179 122 4113
180 122 3605
181 122 2817
182 122 3442
183 122 1802
184 122 2305
185 122 3234
186 122 2933
187 122 4440
188 122 2638
189 122 5078
190 122 1401
191 122 1471
192 122 2743
193 122 2075
194 122 3139
195 122 2575
196 122 1517
197 122 1644
198 122 2760
199 122 2953
200 122 2538
201 122 1446
202 122 2288
203 122 3136
204 122 4272
205 122 2105
206 122 2290
207 122 2135
208 122 2121
209 122 3282
210 122 2079
211 122 2524
212 122 2126
213 122 4743
214 122 3200
215 122 2842
216 122 2033
217 122 4060
218 122 2724
219 122 1369
220 122 3189
221 122 1157
222 122 3564
223 122 1169
224 122 3561
225 122 2498
226 122 2305
227 122 2476
228 122 1673
229 122 1757
230 122 2085
231 122 3297
232 122 3538
233 122 2244
234 122 1736
235 122 4101
236 122 1069
237 122 2204
238 122 2173
239 122 5277
240 122 3319
241 122 3183
242 122 2426
243 122 3308
244 122 1546
245 122 1759
246 122 3853
247 122 2631
248 122 3226
249 122 1324
250 122 2585
251 122 2108
252 122 2282
253 122 2509
254 122 3381
255 122 3934
256 122 4686
257 122 3406
258 122 3495
259 122 3275
260 122 4834
261 122 4600
262 122 2311
263 122 4518
264 122 3335
265 122 2349
266 122 1655
267 122 1567
268 122 2557
269 122 2539
270 122 2191
271 122 2162
272 122 1613
273 122 3181
274 122 3325
275 122 2047
276 122 2285
277 122 2804
278 122 3620
279 122 3372
280 122 3233
281 122 3929
282 122 1125
283 122 1645
284 122 3258
285 122 4098
286 122 1631
287 122 1860
288 122 3629
289 122 2004
290 122 3560
291 122 4143
292 122 2066
293 122 5226
294 122 3499
295 122 3508
296 122 4560
297 122 1281
298 122 4657
299 122 2395
300 122 4136
301 122 1056
302 122 3011
303 122 2095
304 122 4035
305 122 4360
306 122 1344
307 122 1830
308 122 2154
309 122 2016
310 122 2919
311 122 2535
312 122 1770
313 122 1481
314 122 2936
315 122 1169
316 122 4566
317 122 3582
318 122 3098
319 122 3990
320 122 3088
321 122 1334
322 122 1185
323 122 3476
324 122 2467
325 122 3005
326 122 2252
327 122 3031
328 122 2377
329 122 1595
330 122 2605
331 122 3676
332 122 3523
333 122 1889
334 122 2848
335 122 1004
336 122 2531
337 122 2982
338 122 4211
339 122 2790
340 122 1637
341 122 2367
342 122 2405
343 122 2630
344 122 3444
345 122 3298
346 122 2413
347 122 2486
348 122 3369
349 122 3184
350 122 2539
351 122 3781
352 122 4796
353 122 2448
354 122 3323
355 122 2438
356 122 2534
357 122 3316
358 122 2162
359 122 1780
360 122 3220
361 122 3274
362 122 2290
363 122 1299
364 122 5194
365 122 1786
366 122 3010
367 122 2162
368 122 1970
369 122 3919
370 122 1756
371 122 3779
372 122 3229
373 122 4584
374 122 2602
375 122 2923
376 122 1921
377 122 4279
378 122 2899
379 122 3220
380 122 3659
381 122 3319
382 122 3708
383 122 1878
384 122 4261
385 122 2564
386 122 2427
387 122 1986
388 122 1500
389 122 2960
390 122 5240
391 122 4212
392 122 1677
393 122 3463
394 122 3440
395 122 2920
396 122 2648
397 122 1874
398 122 2782
399 122 2158
400 122 2585
401 122 1215
402 122 1786
403 122 2898
404 122 2109
405 122 4928
406 122 1193
407 122 2750
408 122 1977
409 122 1756
410 122 1892
411 122 2316
412 122 3110
413 122 2016
414 122 5046
415 122 3281
416 122 2109
417 122 2769
418 122 3076
419 122 2640
420 122 2703
421 122 1544
422 122 1912
423 122 5387
424 122 2261
425 122 2300
426 122 3998
427 122 3429
428 122 3804
429 122 2948
430 122 2576
431 122 5193
432 122 2583
433 122 3239
434 122 1910
435 122 3939
436 122 1962
437 122 2574
438 122 3398
439 122 2711
440 122 2431
441 122 2852
442 122 1662
443 122 2334
444 122 4083
445 122 1282
446 122 2079
447 122 2353
448 122 3237
449 122 1731
450 122 4812
451 122 3942
452 122 4127
453 122 2685
454 122 3329
455 122 2995
456 122 2493
457 122 2650
458 122 1904
459 122 2016
460 122 3417
461 122 1399
462 122 3228
463 122 3304
464 122 3668
465 122 4312
466 122 4335
467 122 3179
468 122 854
469 122 5828
470 122 2107
471 122 3005
472 122 3336
473 122 3598
474 122 9151
475 122 1467
476 122 2574
477 122 3251
478 122 3148
479 122 3369
480 122 2464
481 122 2222
482 122 3115
483 122 3143
484 122 1625
485 122 3178
486 122 3130
487 122 4242
488 122 3520
489 122 1897
490 122 1957
491 122 1994
492 122 2139
493 122 2261
494 122 3476
495 122 1670
496 122 3600
497 122 2038
498 122 3410
499 122 4264
500 122 2730
1 123 1299
2 123 1001
3 123 1457
4 123 731
5 123 1428
6 123 2059
7 123 612
8 123 1833
9 123 1055
10 123 526
11 123 2251
12 123 1117
13 123 781
14 123 1843
15 123 2394
16 123 980
17 123 564
18 123 290
19 123 1957
20 123 607
21 123 1194
22 123 434
23 123 1496
24 123 1318
25 123 768
26 123 611
27 123 1485
28 123 3625
29 123 806
30 123 1859
31 123 1943
32 123 1622
33 123 1095
34 123 845
35 123 335
36 123 885
37 123 1441
38 123 1665
39 123 871
40 123 1626
41 123 2452
42 123 2015
43 123 774
44 123 659
45 123 924
46 123 1243
47 123 910
48 123 1032
49 123 679
50 123 1278
51 123 1670
52 123 1084
53 123 395
54 123 1238
55 123 1238
56 123 1239
57 123 875
58 123 1381
59 123 1810
60 123 2232
61 123 979
62 123 890
63 123 1062
64 123 577
65 123 1544
66 123 1443
67 123 1864
68 123 1693
69 123 1635
70 123 1034
71 123 353
72 123 2476
73 123 1449
74 123 432
75 123 1762
76 123 1257
77 123 1180
78 123 951
79 123 2549
80 123 457
81 123 928
82 123 881
83 123 511
84 123 1240
85 123 1652
86 123 1348
87 123 1702
88 123 1635
89 123 855
90 123 760
91 123 783
92 123 1399
93 123 833
94 123 1578
95 123 1377
96 123 1876
97 123 2223
98 123 1572
99 123 1312
100 123 1948
101 123 1550
102 123 1135
103 123 743
104 123 1422
105 123 1469
106 123 1894
107 123 495
108 123 889
109 123 599
110 123 1164
111 123 1574
112 123 691
113 123 635
114 123 2179
115 123 879
116 123 1234
117 123 919
118 123 1425
119 123 639
120 123 370
121 123 895
122 123 2359
123 123 647
124 123 1824
125 123 904
126 123 1950
127 123 303
128 123 1693
129 123 762
130 123 1754
131 123 1428
132 123 1887
133 123 1312
134 123 1505
135 123 678
136 123 1480
137 123 1312
138 123 1056
139 123 912
140 123 947
141 123 1404
142 123 1025
143 123 2898
144 123 1033
145 123 2066
146 123 1995
147 123 257
148 123 417
149 123 1571
150 123 1561
151 123 1505
152 123 1458
153 123 1507
154 123 1127
155 123 2618
156 123 1608
157 123 758
158 123 1294
159 123 2521
160 123 1861
161 123 1349
162 123 1914
163 123 668
164 123 799
165 123 2035
166 123 1014
167 123 864
168 123 1189
169 123 1011
170 123 1578
171 123 1228
172 123 812
173 123 1419
174 123 3009
175 123 2515
176 123 1586
177 123 1541
178 123 574
179 123 1467
180 123 673
181 123 1011
182 123 594
183 123 508
184 123 993
185 123 1100
186 123 1916
187 123 925
188 123 1931
189 123 2874
190 123 1409
191 123 1294
192 123 190
193 123 1420
194 123 1608
195 123 1825
196 123 968
197 123 635
198 123 1031
199 123 922
200 123 1013
201 123 1152
202 123 1107
203 123 1241
204 123 1897
205 123 2553
206 123 1453
207 123 1348
208 123 1339
209 123 1683
210 123 2618
211 123 1130
212 123 1182
213 123 744
214 123 1680
215 123 1063
216 123 1454
217 123 1836
218 123 1190
219 123 729
220 123 460
221 123 462
222 123 2555
223 123 1617
224 123 974
225 123 322
226 123 877
227 123 1286
228 123 692
229 123 3097
230 123 712
231 123 1091
232 123 1860
233 123 661
234 123 1026
235 123 1714
236 123 619
237 123 692
238 123 1272
239 123 2320
240 123 1317
241 123 592
242 123 1198
243 123 2657
244 123 806
245 123 1220
246 123 916
247 123 985
248 123 688
249 123 705
250 123 1307
251 123 1099
252 123 822
253 123 1867
254 123 1763
255 123 2403
256 123 859
257 123 1224
258 123 1362
259 123 1124
260 123 2030
261 123 1924
262 123 1310
263 123 1951
264 123 1153
265 123 845
266 123 814
267 123 1024
268 123 914
269 123 1357
270 123 1020
271 123 1749
272 123 1101
273 123 996
274 123 1346
275 123 589
276 123 1455
277 123 1193
278 123 964
279 123 1734
280 123 1243
281 123 612
282 123 363
283 123 654
284 123 1236
285 123 1492
286 123 560
287 123 1046
288 123 1552
289 123 587
290 123 538
291 123 875
292 123 1449
293 123 2441
294 123 818
295 123 902
296 123 1536
297 123 1017
298 123 1777
299 123 1010
300 123 1466
301 123 541
302 123 1261
303 123 1987
304 123 969
305 123 1358
306 123 1211
307 123 966
308 123 1020
309 123 1420
310 123 1204
311 123 1175
312 123 888
313 123 1150
314 123 1750
315 123 418
316 123 1991
317 123 1112
318 123 980
319 123 1649
320 123 1274
321 123 946
322 123 584
323 123 1969
324 123 1633
325 123 1650
326 123 1323
327 123 902
328 123 1447
329 123 1007
330 123 871
331 123 2310
332 123 950
333 123 870
334 123 686
335 123 482
336 123 1305
337 123 629
338 123 1190
339 123 1503
340 123 2218
341 123 884
342 123 1411
343 123 1902
344 123 1656
345 123 1331
346 123 1702
347 123 1394
348 123 968
349 123 1586
350 123 296
351 123 1257
352 123 2104
353 123 730
354 123 1041
355 123 714
356 123 1676
357 123 1965
358 123 2022
359 123 1285
360 123 1358
361 123 1112
362 123 1266
363 123 1263
364 123 1744
365 123 1087
366 123 1551
367 123 1442
368 123 1254
369 123 891
370 123 807
371 123 1277
372 123 1295
373 123 1924
374 123 1822
375 123 762
376 123 607
377 123 2918
378 123 1685
379 123 886
380 123 371
381 123 1125
382 123 1532
383 123 1309
384 123 2621
385 123 605
386 123 799
387 123 602
388 123 1287
389 123 938
390 123 2376
391 123 1403
392 123 1334
393 123 1228
394 123 2004
395 123 1482
396 123 810
397 123 1640
398 123 336
399 123 1272
400 123 1994
401 123 387
402 123 1356
403 123 414
404 123 1362
405 123 1584
406 123 1122
407 123 941
408 123 771
409 123 769
410 123 942
411 123 1437
412 123 431
413 123 971
414 123 1361
415 123 1028
416 123 2617
417 123 644
418 123 1103
419 123 1649
420 123 332
421 123 458
422 123 1251
423 123 2403
424 123 510
425 123 1537
426 123 2018
427 123 1936
428 123 863
429 123 1797
430 123 838
431 123 2261
432 123 1348
433 123 993
434 123 702
435 123 600
436 123 650
437 123 894
438 123 791
439 123 2145
440 123 1085
441 123 1070
442 123 770
443 123 920
444 123 1995
445 123 451
446 123 588
447 123 692
448 123 549
449 123 1931
450 123 1974
451 123 1420
452 123 1334
453 123 1803
454 123 2045
455 123 1568
456 123 404
457 123 2056
458 123 718
459 123 618
460 123 1662
461 123 1072
462 123 1289
463 123 1753
464 123 1760
465 123 3080
466 123 3092
467 123 1387
468 123 989
469 123 1704
470 123 599
471 123 1148
472 123 1370
473 123 2431
474 123 1708
475 123 1429
476 123 1331
477 123 1308
478 123 1637
479 123 1604
480 123 691
481 123 939
482 123 1271
483 123 1610
484 123 570
485 123 1587
486 123 540
487 123 1054
488 123 2366
489 123 1163
490 123 852
491 123 1401
492 123 1720
493 123 536
494 123 2399
495 123 835
496 123 2448
497 123 838
498 123 1952
499 123 806
500 123 1259
1 124 1852
2 124 1145
3 124 2321
4 124 736
5 124 1196
6 124 1444
7 124 1742
8 124 2447
9 124 1785
10 124 1660
11 124 1613
12 124 1783
13 124 1121
14 124 2451
15 124 2609
16 124 1564
17 124 833
18 124 1376
19 124 2938
20 124 686
21 124 2364
22 124 1120
23 124 1174
24 124 2113
25 124 1845
26 124 1725
27 124 2241
28 124 1632
29 124 1306
30 124 1923
31 124 472
32 124 1199
33 124 1209
34 124 2588
35 124 907
36 124 1768
37 124 2405
38 124 1814
39 124 1523
40 124 2532
41 124 2943
42 124 3069
43 124 1741
44 124 1202
45 124 1507
46 124 969
47 124 2462
48 124 2281
49 124 1723
50 124 1068
51 124 1512
52 124 1906
53 124 1649
54 124 2051
55 124 1526
56 124 1087
57 124 1013
58 124 1946
59 124 1954
60 124 1811
61 124 1304
62 124 455
63 124 2339
64 124 1088
65 124 1249
66 124 1839
67 124 1864
68 124 2157
69 124 1182
70 124 844
71 124 1270
72 124 2017
73 124 2158
74 124 1496
75 124 1959
76 124 2312
77 124 1563
78 124 2186
79 124 2049
80 124 602
81 124 1106
82 124 1451
83 124 1547
84 124 2361
85 124 2739
86 124 1644
87 124 2207
88 124 1413
89 124 2561
90 124 2034
91 124 1712
92 124 581
93 124 757
94 124 2637
95 124 1346
96 124 2709
97 124 2392
98 124 1336
99 124 1229
100 124 500
101 124 904
102 124 1576
103 124 890
104 124 1741
105 124 1744
106 124 1912
107 124 624
108 124 2227
109 124 1233
110 124 1769
111 124 1864
112 124 721
113 124 852
114 124 1700
115 124 1301
116 124 1808
117 124 587
118 124 2780
119 124 723
120 124 463
121 124 1440
122 124 1678
123 124 716
124 124 2669
125 124 1387
126 124 1312
127 124 1354
128 124 1371
129 124 1693
130 124 1892
131 124 1988
132 124 1905
133 124 2442
134 124 1679
135 124 1018
136 124 1894
137 124 1320
138 124 869
139 124 2118
140 124 1031
141 124 1918
142 124 1366
143 124 1937
144 124 1647
145 124 1436
146 124 2904
147 124 2623
148 124 1479
149 124 1438
150 124 1965
151 124 1474
152 124 1289
153 124 1991
154 124 1004
155 124 1628
156 124 2974
157 124 940
158 124 2221
159 124 1964
160 124 3719
161 124 1676
162 124 2159
163 124 2162
164 124 466
165 124 3038
166 124 1083
167 124 557
168 124 1229
169 124 1575
170 124 1673
171 124 1948
172 124 1034
173 124 1761
174 124 2998
175 124 2053
176 124 2938
177 124 1600
178 124 1116
179 124 1967
180 124 1339
181 124 1105
182 124 1908
183 124 775
184 124 785
185 124 819
186 124 2738
187 124 1158
188 124 1550
189 124 1503
190 124 1163
191 124 2563
192 124 775
193 124 1308
194 124 1966
195 124 2619
196 124 1561
197 124 1592
198 124 714
199 124 1626
200 124 1268
201 124 1142
202 124 1718
203 124 2242
204 124 1961
205 124 688
206 124 1387
207 124 1007
208 124 1276
209 124 1907
210 124 1863
211 124 1602
212 124 1713
213 124 1242
214 124 3532
215 124 1307
216 124 2660
217 124 2029
218 124 730
219 124 1600
220 124 1520
221 124 867
222 124 2032
223 124 1232
224 124 1995
225 124 1397
226 124 1659
227 124 1672
228 124 1057
229 124 1600
230 124 1081
231 124 1822
232 124 2129
233 124 633
234 124 814
235 124 1845
236 124 523
237 124 924
238 124 834
239 124 3250
240 124 1863
241 124 1675
242 124 1815
243 124 2396
244 124 1191
245 124 1587
246 124 790
247 124 1452
248 124 1660
249 124 1649
250 124 1286
251 124 1739
252 124 734
253 124 1993
254 124 1765
255 124 2408
256 124 1921
257 124 1637
258 124 1639
259 124 829
260 124 1399
261 124 1532
262 124 1055
263 124 2738
264 124 1582
265 124 1778
266 124 1039
267 124 1101
268 124 1525
269 124 2051
270 124 2147
271 124 1401
272 124 1446
273 124 2018
274 124 1555
275 124 1861
276 124 2152
277 124 1010
278 124 2232
279 124 1855
280 124 1875
281 124 1548
282 124 709
283 124 931
284 124 1302
285 124 2559
286 124 728
287 124 1823
288 124 2841
289 124 1789
290 124 1809
291 124 1410
292 124 1535
293 124 3237
294 124 1559
295 124 1511
296 124 1357
297 124 1489
298 124 2690
299 124 1526
300 124 3076
301 124 1038
302 124 1621
303 124 2030
304 124 2920
305 124 2592
306 124 1489
307 124 1605
308 124 1454
309 124 2526
310 124 1737
311 124 1804
312 124 2534
313 124 1487
314 124 2131
315 124 849
316 124 2020
317 124 1216
318 124 2282
319 124 2853
320 124 1805
321 124 1485
322 124 1266
323 124 455
324 124 2134
325 124 2064
326 124 3358
327 124 1857
328 124 1803
329 124 1311
330 124 1995
331 124 2161
332 124 1985
333 124 614
334 124 2449
335 124 618
336 124 1723
337 124 1879
338 124 1745
339 124 1731
340 124 1234
341 124 2053
342 124 1882
343 124 1492
344 124 1887
345 124 1670
346 124 1207
347 124 1969
348 124 1145
349 124 1574
350 124 1402
351 124 2084
352 124 1363
353 124 1260
354 124 795
355 124 2185
356 124 2505
357 124 2149
358 124 1069
359 124 1619
360 124 3403
361 124 816
362 124 1944
363 124 1489
364 124 1913
365 124 813
366 124 781
367 124 2226
368 124 824
369 124 1238
370 124 1442
371 124 3593
372 124 3521
373 124 2155
374 124 1861
375 124 1228
376 124 677
377 124 987
378 124 1775
379 124 1384
380 124 1138
381 124 828
382 124 2747
383 124 1067
384 124 1890
385 124 1081
386 124 1125
387 124 1110
388 124 1815
389 124 345
390 124 3319
391 124 1013
392 124 691
393 124 1812
394 124 465
395 124 2312
396 124 771
397 124 1383
398 124 2437
399 124 912
400 124 2830
401 124 2323
402 124 1520
403 124 1329
404 124 921
405 124 2283
406 124 881
407 124 756
408 124 437
409 124 932
410 124 1049
411 124 1909
412 124 1506
413 124 2401
414 124 1465
415 124 1908
416 124 1946
417 124 1841
418 124 1649
419 124 2034
420 124 4210
421 124 988
422 124 1017
423 124 3184
424 124 1203
425 124 1541
426 124 2783
427 124 2131
428 124 1245
429 124 2203
430 124 773
431 124 3731
432 124 1922
433 124 1196
434 124 1421
435 124 1147
436 124 1556
437 124 1603
438 124 1160
439 124 1687
440 124 1730
441 124 1397
442 124 2493
443 124 2075
444 124 2811
445 124 1345
446 124 1747
447 124 797
448 124 1590
449 124 2419
450 124 1410
451 124 3063
452 124 1757
453 124 1170
454 124 3012
455 124 1506
456 124 1816
457 124 3427
458 124 797
459 124 1777
460 124 1958
461 124 909
462 124 1313
463 124 2376
464 124 1782
465 124 1029
466 124 1036
467 124 2438
468 124 575
469 124 3742
470 124 1169
471 124 1759
472 124 1679
473 124 2048
474 124 1699
475 124 1747
476 124 1446
477 124 1587
478 124 2060
479 124 1967
480 124 1277
481 124 502
482 124 1483
483 124 1499
484 124 617
485 124 1991
486 124 1676
487 124 1871
488 124 2041
489 124 1463
490 124 1966
491 124 1891
492 124 1295
493 124 1184
494 124 1861
495 124 1043
496 124 2042
497 124 628
498 124 2524
499 124 969
500 124 2108
1 125 1203
2 125 752
3 125 1709
4 125 476
5 125 1211
6 125 840
7 125 1465
8 125 456
9 125 1070
10 125 1141
11 125 126
12 125 2026
13 125 582
14 125 848
15 125 547
16 125 537
17 125 864
18 125 762
19 125 2688
20 125 521
21 125 971
22 125 655
23 125 1260
24 125 537
25 125 568
26 125 1432
27 125 2832
28 125 186
29 125 832
30 125 1168
31 125 1378
32 125 435
33 125 402
34 125 759
35 125 998
36 125 782
37 125 1029
38 125 1185
39 125 874
40 125 1293
41 125 1213
42 125 395
43 125 824
44 125 943
45 125 2290
46 125 1262
47 125 1714
48 125 1206
49 125 565
50 125 659
51 125 1513
52 125 565
53 125 1397
54 125 704
55 125 1058
56 125 328
57 125 935
58 125 811
59 125 1143
60 125 712
61 125 1054
62 125 1019
63 125 1307
64 125 391
65 125 1057
66 125 1109
67 125 2190
68 125 1486
69 125 1139
70 125 569
71 125 573
72 125 1279
73 125 1116
74 125 309
75 125 1207
76 125 966
77 125 250
78 125 1182
79 125 793
80 125 509
81 125 807
82 125 1323
83 125 1023
84 125 1315
85 125 446
86 125 622
87 125 704
88 125 753
89 125 236
90 125 858
91 125 689
92 125 593
93 125 990
94 125 897
95 125 749
96 125 2272
97 125 763
98 125 1073
99 125 1533
100 125 1458
101 125 1463
102 125 999
103 125 617
104 125 894
105 125 799
106 125 1212
107 125 729
108 125 1523
109 125 579
110 125 731
111 125 1543
112 125 956
113 125 318
114 125 621
115 125 786
116 125 1265
117 125 1225
118 125 2241
119 125 736
120 125 609
121 125 1590
122 125 1994
123 125 477
124 125 696
125 125 738
126 125 1190
127 125 1096
128 125 847
129 125 712
130 125 1632
131 125 2402
132 125 970
133 125 629
134 125 1141
135 125 566
136 125 798
137 125 1006
138 125 885
139 125 611
140 125 466
141 125 720
142 125 623
143 125 1316
144 125 821
145 125 1142
146 125 2607
147 125 560
148 125 293
149 125 1099
150 125 390
151 125 600
152 125 634
153 125 829
154 125 693
155 125 2141
156 125 1718
157 125 729
158 125 1809
159 125 1286
160 125 814
161 125 595
162 125 1756
163 125 1019
164 125 949
165 125 1329
166 125 1079
167 125 903
168 125 1089
169 125 589
170 125 1109
171 125 712
172 125 910
173 125 1114
174 125 582
175 125 1333
176 125 178
177 125 1338
178 125 230
179 125 2393
180 125 726
181 125 1740
182 125 344
183 125 139
184 125 308
185 125 1691
186 125 868
187 125 787
188 125 1323
189 125 950
190 125 307
191 125 849
192 125 1141
193 125 1019
194 125 1432
195 125 1479
196 125 1150
197 125 1290
198 125 818
199 125 1271
200 125 558
201 125 660
202 125 592
203 125 2671
204 125 1152
205 125 1703
206 125 827
207 125 648
208 125 1017
209 125 1582
210 125 1499
211 125 150
212 125 1518
213 125 880
214 125 1352
215 125 568
216 125 1204
217 125 834
218 125 640
219 125 726
220 125 1049
221 125 664
222 125 1364
223 125 429
224 125 658
225 125 818
226 125 1284
227 125 339
228 125 539
229 125 2172
230 125 588
231 125 1904
232 125 965
233 125 1303
234 125 1093
235 125 1216
236 125 273
237 125 479
238 125 382
239 125 1246
240 125 2242
241 125 1366
242 125 928
243 125 343
244 125 512
245 125 263
246 125 1252
247 125 2206
248 125 740
249 125 752
250 125 751
251 125 1230
252 125 759
253 125 1160
254 125 578
255 125 224
256 125 1698
257 125 461
258 125 567
259 125 1750
260 125 872
261 125 2519
262 125 681
263 125 2478
264 125 500
265 125 1278
266 125 890
267 125 1010
268 125 499
269 125 689
270 125 1515
271 125 116
272 125 659
273 125 1318
274 125 672
275 125 1350
276 125 376
277 125 630
278 125 326
279 125 1700
280 125 495
281 125 1551
282 125 573
283 125 402
284 125 848
285 125 1596
286 125 527
287 125 545
288 125 1197
289 125 1410
290 125 944
291 125 1409
292 125 714
293 125 1287
294 125 1118
295 125 1013
296 125 288
297 125 566
298 125 825
299 125 556
300 125 1937
301 125 160
302 125 596
303 125 1031
304 125 1802
305 125 1688
306 125 729
307 125 899
308 125 967
309 125 1637
310 125 716
311 125 877
312 125 1740
313 125 907
314 125 1166
315 125 675
316 125 2319
317 125 2209
318 125 1198
319 125 1714
320 125 490
321 125 530
322 125 685
323 125 1447
324 125 1485
325 125 587
326 125 1419
327 125 956
328 125 778
329 125 837
330 125 744
331 125 782
332 125 653
333 125 1153
334 125 990
335 125 421
336 125 293
337 125 947
338 125 675
339 125 402
340 125 708
341 125 461
342 125 754
343 125 1212
344 125 1603
345 125 627
346 125 585
347 125 514
348 125 774
349 125 749
350 125 777
351 125 696
352 125 898
353 125 457
354 125 1708
355 125 1827
356 125 1278
357 125 792
358 125 905
359 125 1434
360 125 835
361 125 1715
362 125 376
363 125 976
364 125 1533
365 125 914
366 125 718
367 125 316
368 125 1180
369 125 1358
370 125 951
371 125 1181
372 125 827
373 125 2249
374 125 1191
375 125 740
376 125 522
377 125 548
378 125 420
379 125 627
380 125 955
381 125 1695
382 125 1724
383 125 1231
384 125 760
385 125 865
386 125 815
387 125 187
388 125 319
389 125 402
390 125 1270
391 125 770
392 125 1142
393 125 1262
394 125 1439
395 125 1675
396 125 1158
397 125 1133
398 125 1186
399 125 1565
400 125 635
401 125 1245
402 125 1490
403 125 780
404 125 865
405 125 659
406 125 508
407 125 870
408 125 781
409 125 565
410 125 604
411 125 850
412 125 1054
413 125 377
414 125 1073
415 125 1107
416 125 1447
417 125 1489
418 125 833
419 125 634
420 125 1471
421 125 192
422 125 409
423 125 1231
424 125 335
425 125 405
426 125 2354
427 125 2044
428 125 1338
429 125 1120
430 125 1013
431 125 961
432 125 568
433 125 1118
434 125 1748
435 125 892
436 125 1701
437 125 477
438 125 775
439 125 683
440 125 1052
441 125 585
442 125 874
443 125 971
444 125 2376
445 125 840
446 125 1399
447 125 332
448 125 1399
449 125 1651
450 125 922
451 125 2001
452 125 1700
453 125 1103
454 125 935
455 125 1686
456 125 1128
457 125 1197
458 125 512
459 125 1361
460 125 1586
461 125 721
462 125 873
463 125 485
464 125 669
465 125 578
466 125 576
467 125 559
468 125 534
469 125 1337
470 125 505
471 125 1771
472 125 665
473 125 1326
474 125 1456
475 125 1082
476 125 546
477 125 623
478 125 1411
479 125 467
480 125 806
481 125 344
482 125 597
483 125 1019
484 125 1292
485 125 1422
486 125 1279
487 125 812
488 125 1255
489 125 1576
490 125 927
491 125 792
492 125 623
493 125 562
494 125 1055
495 125 931
496 125 1327
497 125 1218
498 125 599
499 125 628
500 125 2121
1 126 6804
2 126 3576
3 126 10181
4 126 1490
5 126 2324
6 126 4424
7 126 5777
8 126 4951
9 126 8756
10 126 4714
11 126 3012
12 126 6417
13 126 2299
14 126 3267
15 126 6812
16 126 4464
17 126 2622
18 126 5655
19 126 9360
20 126 1611
21 126 4951
22 126 3982
23 126 5475
24 126 5138
25 126 2291
26 126 5777
27 126 6910
28 126 5949
29 126 5390
30 126 2818
31 126 8668
32 126 1596
33 126 5174
34 126 4898
35 126 2240
36 126 5196
37 126 4995
38 126 4298
39 126 3629
40 126 7030
41 126 6321
42 126 3819
43 126 4172
44 126 9573
45 126 6424
46 126 9644
47 126 5049
48 126 3417
49 126 3235
50 126 2578
51 126 4188
52 126 3603
53 126 7012
54 126 5339
55 126 4378
56 126 4858
57 126 4902
58 126 6540
59 126 2780
60 126 4549
61 126 6344
62 126 5677
63 126 6625
64 126 1590
65 126 4167
66 126 6533
67 126 5641
68 126 4415
69 126 3902
70 126 3116
71 126 3177
72 126 4682
73 126 5097
74 126 2651
75 126 2859
76 126 1968
77 126 3521
78 126 5007
79 126 4039
80 126 3773
81 126 5265
82 126 4566
83 126 6829
84 126 2820
85 126 4600
86 126 6357
87 126 4717
88 126 5460
89 126 6020
90 126 3274
91 126 2252
92 126 3215
93 126 4079
94 126 5002
95 126 4918
96 126 6569
97 126 4640
98 126 4248
99 126 3760
100 126 8758
101 126 5736
102 126 3917
103 126 2398
104 126 2965
105 126 4756
106 126 2863
107 126 3581
108 126 4642
109 126 4067
110 126 3425
111 126 6599
112 126 2110
113 126 3931
114 126 4158
115 126 2357
116 126 6166
117 126 2712
118 126 5344
119 126 2161
120 126 2868
121 126 3876
122 126 4413
123 126 5607
124 126 6763
125 126 5798
126 126 5136
127 126 6267
128 126 3707
129 126 4591
130 126 6555
131 126 4637
132 126 4676
133 126 4615
134 126 3923
135 126 3077
136 126 5799
137 126 4820
138 126 3638
139 126 4220
140 126 2326
141 126 3381
142 126 3168
143 126 4546
144 126 3403
145 126 6538
146 126 9588
147 126 4016
148 126 2658
149 126 3123
150 126 3134
151 126 3838
152 126 3535
153 126 4320
154 126 3290
155 126 6809
156 126 4065
157 126 3577
158 126 4825
159 126 4712
160 126 5215
161 126 6243
162 126 5400
163 126 3740
164 126 2611
165 126 9506
166 126 10579
167 126 1951
168 126 2365
169 126 4559
170 126 4040
171 126 5551
172 126 7596
173 126 7528
174 126 5222
175 126 4688
176 126 4307
177 126 3706
178 126 6433
179 126 4791
180 126 5976
181 126 3222
182 126 4411
183 126 2419
184 126 2130
185 126 5798
186 126 4596
187 126 5244
188 126 3486
189 126 5439
190 126 5260
191 126 6728
192 126 4021
193 126 4690
194 126 6223
195 126 4558
196 126 6799
197 126 2574
198 126 4467
199 126 5321
200 126 3568
201 126 4336
202 126 3273
203 126 5718
204 126 4556
205 126 4093
206 126 3129
207 126 7693
208 126 4776
209 126 6456
210 126 3351
211 126 3415
212 126 3773
213 126 8230
214 126 5765
215 126 3180
216 126 3720
217 126 3699
218 126 4589
219 126 3031
220 126 6894
221 126 2997
222 126 4683
223 126 1579
224 126 6298
225 126 5494
226 126 3650
227 126 5063
228 126 3212
229 126 4740
230 126 3257
231 126 6246
232 126 6264
233 126 2244
234 126 4833
235 126 4334
236 126 1226
237 126 2653
238 126 7924
239 126 4742
240 126 5257
241 126 4254
242 126 6825
243 126 7337
244 126 2253
245 126 3588
246 126 6016
247 126 4232
248 126 3906
249 126 2941
250 126 3212
251 126 4447
252 126 4344
253 126 2775
254 126 5649
255 126 4465
256 126 3612
257 126 2869
258 126 3805
259 126 5944
260 126 6055
261 126 6344
262 126 2541
263 126 5764
264 126 2874
265 126 3466
266 126 7592
267 126 10912
268 126 4493
269 126 3314
270 126 2528
271 126 5217
272 126 3814
273 126 4507
274 126 6495
275 126 5824
276 126 4240
277 126 2556
278 126 4384
279 126 6753
280 126 8958
281 126 2795
282 126 3264
283 126 4390
284 126 5273
285 126 6000
286 126 3797
287 126 3571
288 126 5578
289 126 5793
290 126 2988
291 126 3638
292 126 4527
293 126 4865
294 126 4756
295 126 6562
296 126 4469
297 126 3606
298 126 7512
299 126 5760
300 126 7532
301 126 2507
302 126 3877
303 126 3988
304 126 4420
305 126 4607
306 126 2003
307 126 3461
308 126 4534
309 126 5986
310 126 3706
311 126 6858
312 126 4988
313 126 2175
314 126 3592
315 126 3107
316 126 6783
317 126 6491
318 126 4992
319 126 4108
320 126 3841
321 126 3564
322 126 1957
323 126 8882
324 126 4271
325 126 4378
326 126 6834
327 126 6205
328 126 5664
329 126 3226
330 126 3394
331 126 5186
332 126 6205
333 126 6706
334 126 5183
335 126 2219
336 126 5218
337 126 2574
338 126 7411
339 126 2653
340 126 4331
341 126 3005
342 126 5670
343 126 3234
344 126 6677
345 126 6525
346 126 3275
347 126 3416
348 126 3678
349 126 3633
350 126 5576
351 126 5504
352 126 6188
353 126 2614
354 126 5855
355 126 2743
356 126 6869
357 126 3993
358 126 2798
359 126 2589
360 126 4054
361 126 5892
362 126 2199
363 126 5148
364 126 6062
365 126 3556
366 126 4444
367 126 4707
368 126 2566
369 126 4229
370 126 5873
371 126 4853
372 126 4192
373 126 6814
374 126 2819
375 126 3779
376 126 4306
377 126 6127
378 126 4913
379 126 6325
380 126 3317
381 126 5929
382 126 5295
383 126 5714
384 126 5718
385 126 3992
386 126 4050
387 126 1348
388 126 5022
389 126 5617
390 126 4740
391 126 8469
392 126 2056
393 126 6147
394 126 8788
395 126 10246
396 126 3545
397 126 5050
398 126 3384
399 126 3089
400 126 6543
401 126 5672
402 126 2582
403 126 6627
404 126 2359
405 126 10892
406 126 1334
407 126 4267
408 126 2592
409 126 2442
410 126 2885
411 126 5859
412 126 6713
413 126 6625
414 126 7756
415 126 4364
416 126 3362
417 126 4103
418 126 5800
419 126 5809
420 126 4324
421 126 3069
422 126 1945
423 126 5004
424 126 2245
425 126 6823
426 126 6646
427 126 4214
428 126 4099
429 126 3624
430 126 4131
431 126 6948
432 126 3685
433 126 6414
434 126 3546
435 126 4542
436 126 3664
437 126 4416
438 126 3048
439 126 4238
440 126 4727
441 126 3164
442 126 3673
443 126 6866
444 126 6654
445 126 1985
446 126 5759
447 126 3957
448 126 4194
449 126 5278
450 126 6099
451 126 7439
452 126 6028
453 126 3504
454 126 3719
455 126 2339
456 126 4960
457 126 5731
458 126 1843
459 126 5824
460 126 6598
461 126 2508
462 126 5362
463 126 4911
464 126 5376
465 126 6231
466 126 6217
467 126 6843
468 126 2505
469 126 5717
470 126 3671
471 126 6040
472 126 6358
473 126 4559
474 126 6193
475 126 6442
476 126 4491
477 126 6272
478 126 6185
479 126 7025
480 126 4272
481 126 3736
482 126 3992
483 126 3630
484 126 3679
485 126 6340
486 126 3422
487 126 5973
488 126 4683
489 126 4753
490 126 2913
491 126 6625
492 126 4142
493 126 1071
494 126 6183
495 126 3134
496 126 4674
497 126 6657
498 126 7366
499 126 5441
500 126 3174
1 127 1629
2 127 3376
3 127 2469
4 127 1171
5 127 997
6 127 2399
7 127 983
8 127 1683
9 127 3012
10 127 1671
11 127 1832
12 127 2344
13 127 2435
14 127 1557
15 127 1767
16 127 2455
17 127 1551
18 127 2021
19 127 3600
20 127 893
21 127 3447
22 127 1394
23 127 1240
24 127 2388
25 127 677
26 127 979
27 127 2962
28 127 1603
29 127 1754
30 127 2137
31 127 1922
32 127 1276
33 127 1683
34 127 2138
35 127 1197
36 127 1460
37 127 1231
38 127 1900
39 127 966
40 127 2889
41 127 3055
42 127 1311
43 127 1724
44 127 2245
45 127 4113
46 127 2184
47 127 2233
48 127 2201
49 127 2972
50 127 1023
51 127 1943
52 127 1602
53 127 1609
54 127 1486
55 127 2490
56 127 1422
57 127 2006
58 127 1778
59 127 2070
60 127 1449
61 127 1809
62 127 1071
63 127 2940
64 127 1332
65 127 1347
66 127 2148
67 127 2228
68 127 2390
69 127 1453
70 127 3269
71 127 1046
72 127 3799
73 127 2516
74 127 2521
75 127 2127
76 127 1603
77 127 1373
78 127 2618
79 127 2367
80 127 1721
81 127 1977
82 127 1369
83 127 1836
84 127 2304
85 127 2955
86 127 3019
87 127 2129
88 127 2348
89 127 2451
90 127 3396
91 127 2763
92 127 1481
93 127 2032
94 127 2688
95 127 1071
96 127 5683
97 127 2647
98 127 1405
99 127 1930
100 127 1944
101 127 2567
102 127 1920
103 127 844
104 127 2519
105 127 1256
106 127 2172
107 127 1088
108 127 2296
109 127 1875
110 127 2234
111 127 2245
112 127 927
113 127 1211
114 127 1718
115 127 1911
116 127 2586
117 127 1813
118 127 1226
119 127 917
120 127 1039
121 127 2605
122 127 1673
123 127 1072
124 127 2416
125 127 2690
126 127 2438
127 127 2958
128 127 2215
129 127 3053
130 127 2272
131 127 3792
132 127 1846
133 127 1486
134 127 1306
135 127 1001
136 127 1636
137 127 644
138 127 1153
139 127 2181
140 127 1477
141 127 1727
142 127 2074
143 127 2687
144 127 1328
145 127 3710
146 127 3577
147 127 3455
148 127 2503
149 127 1950
150 127 3292
151 127 2365
152 127 1594
153 127 2097
154 127 891
155 127 2770
156 127 2205
157 127 2242
158 127 3118
159 127 3738
160 127 2438
161 127 2957
162 127 2248
163 127 2254
164 127 1311
165 127 2981
166 127 2399
167 127 1023
168 127 1557
169 127 2442
170 127 1267
171 127 1441
172 127 952
173 127 4831
174 127 3508
175 127 3682
176 127 2465
177 127 2812
178 127 1473
179 127 3803
180 127 938
181 127 1653
182 127 1504
183 127 666
184 127 721
185 127 2420
186 127 2348
187 127 1971
188 127 2029
189 127 1751
190 127 1947
191 127 1714
192 127 986
193 127 684
194 127 1690
195 127 2411
196 127 1978
197 127 1697
198 127 754
199 127 2560
200 127 995
201 127 1303
202 127 2222
203 127 3586
204 127 2574
205 127 1799
206 127 1816
207 127 2285
208 127 687
209 127 2243
210 127 2910
211 127 2548
212 127 2176
213 127 3057
214 127 2042
215 127 2157
216 127 2610
217 127 2535
218 127 1086
219 127 1529
220 127 1773
221 127 725
222 127 3733
223 127 1309
224 127 3691
225 127 2087
226 127 1747
227 127 2665
228 127 999
229 127 1844
230 127 2541
231 127 2433
232 127 2431
233 127 2471
234 127 2048
235 127 1920
236 127 769
237 127 1698
238 127 1131
239 127 2361
240 127 3531
241 127 1173
242 127 1390
243 127 3617
244 127 1044
245 127 1453
246 127 2748
247 127 3362
248 127 1049
249 127 1580
250 127 1432
251 127 2770
252 127 2166
253 127 2120
254 127 2400
255 127 1705
256 127 1564
257 127 1746
258 127 4017
259 127 2383
260 127 2467
261 127 2303
262 127 1028
263 127 2127
264 127 1775
265 127 1750
266 127 950
267 127 2371
268 127 3552
269 127 1802
270 127 1982
271 127 1337
272 127 1799
273 127 1979
274 127 2998
275 127 959
276 127 2337
277 127 854
278 127 2634
279 127 2323
280 127 3191
281 127 2898
282 127 420
283 127 744
284 127 1475
285 127 1335
286 127 1274
287 127 1531
288 127 1219
289 127 953
290 127 1125
291 127 2138
292 127 1934
293 127 2320
294 127 2183
295 127 1974
296 127 2318
297 127 1697
298 127 3055
299 127 2506
300 127 1274
301 127 469
302 127 2260
303 127 1578
304 127 2497
305 127 3773
306 127 1899
307 127 1316
308 127 2244
309 127 2604
310 127 1662
311 127 1394
312 127 2279
313 127 1699
314 127 784
315 127 736
316 127 2544
317 127 2563
318 127 2556
319 127 2217
320 127 2204
321 127 1722
322 127 1444
323 127 1946
324 127 2490
325 127 1699
326 127 2190
327 127 2736
328 127 1710
329 127 1983
330 127 1276
331 127 1158
332 127 3672
333 127 1206
334 127 3002
335 127 1221
336 127 2729
337 127 1414
338 127 2834
339 127 1299
340 127 2396
341 127 1143
342 127 1607
343 127 1967
344 127 2275
345 127 2974
346 127 2745
347 127 4073
348 127 3483
349 127 1831
350 127 2070
351 127 1522
352 127 2503
353 127 652
354 127 2375
355 127 2064
356 127 2989
357 127 1044
358 127 1281
359 127 2173
360 127 3257
361 127 2337
362 127 1296
363 127 1614
364 127 2509
365 127 1145
366 127 1969
367 127 4259
368 127 2693
369 127 2574
370 127 2004
371 127 1054
372 127 3187
373 127 2644
374 127 2172
375 127 2624
376 127 2204
377 127 4700
378 127 2081
379 127 1767
380 127 1792
381 127 2433
382 127 3477
383 127 1562
384 127 2330
385 127 1849
386 127 2516
387 127 1312
388 127 1819
389 127 692
390 127 2390
391 127 2121
392 127 1232
393 127 2551
394 127 1897
395 127 2456
396 127 1624
397 127 1889
398 127 3121
399 127 925
400 127 3084
401 127 4251
402 127 2102
403 127 1816
404 127 1444
405 127 2203
406 127 866
407 127 707
408 127 732
409 127 806
410 127 1438
411 127 1708
412 127 1855
413 127 2111
414 127 3769
415 127 1086
416 127 2887
417 127 1908
418 127 2528
419 127 1479
420 127 1822
421 127 1010
422 127 1840
423 127 2347
424 127 1367
425 127 1602
426 127 5953
427 127 1524
428 127 2507
429 127 820
430 127 2112
431 127 2717
432 127 4240
433 127 1877
434 127 1542
435 127 2390
436 127 1504
437 127 3461
438 127 1394
439 127 1723
440 127 2135
441 127 2077
442 127 2825
443 127 1625
444 127 5945
445 127 814
446 127 955
447 127 1041
448 127 1185
449 127 2268
450 127 2495
451 127 1348
452 127 1438
453 127 2621
454 127 839
455 127 2244
456 127 2366
457 127 3295
458 127 1890
459 127 965
460 127 2304
461 127 1408
462 127 1506
463 127 1693
464 127 3148
465 127 4837
466 127 4909
467 127 2755
468 127 1401
469 127 3404
470 127 1258
471 127 2312
472 127 3144
473 127 3654
474 127 2696
475 127 2171
476 127 3602
477 127 2947
478 127 1765
479 127 3110
480 127 1280
481 127 2209
482 127 2428
483 127 1661
484 127 1127
485 127 1752
486 127 2020
487 127 1715
488 127 3658
489 127 1911
490 127 1993
491 127 1739
492 127 1644
493 127 1218
494 127 3050
495 127 857
496 127 3764
497 127 1207
498 127 4221
499 127 1821
500 127 3591
1 128 1234
2 128 1018
3 128 1490
4 128 717
5 128 388
6 128 1186
7 128 237
8 128 634
9 128 415
10 128 1644
11 128 688
12 128 136
13 128 534
14 128 1207
15 128 1278
16 128 1465
17 128 274
18 128 889
19 128 1276
20 128 308
21 128 956
22 128 872
23 128 277
24 128 616
25 128 581
26 128 246
27 128 779
28 128 972
29 128 881
30 128 492
31 128 1327
32 128 557
33 128 681
34 128 2322
35 128 575
36 128 936
37 128 856
38 128 1436
39 128 378
40 128 1471
41 128 291
42 128 565
43 128 726
44 128 414
45 128 1112
46 128 183
47 128 811
48 128 1227
49 128 1333
50 128 601
51 128 1122
52 128 1368
53 128 343
54 128 853
55 128 883
56 128 619
57 128 477
58 128 1475
59 128 555
60 128 852
61 128 735
62 128 506
63 128 847
64 128 652
65 128 936
66 128 1197
67 128 640
68 128 1093
69 128 957
70 128 828
71 128 420
72 128 864
73 128 978
74 128 730
75 128 479
76 128 1543
77 128 703
78 128 1127
79 128 850
80 128 849
81 128 1349
82 128 1127
83 128 1102
84 128 1839
85 128 280
86 128 1102
87 128 1663
88 128 911
89 128 1121
90 128 815
91 128 791
92 128 822
93 128 664
94 128 2238
95 128 1751
96 128 1068
97 128 2030
98 128 967
99 128 1219
100 128 1346
101 128 1694
102 128 1075
103 128 426
104 128 712
105 128 911
106 128 512
107 128 307
108 128 308
109 128 690
110 128 1056
111 128 1485
112 128 975
113 128 895
114 128 386
115 128 548
116 128 621
117 128 1090
118 128 2212
119 128 541
120 128 809
121 128 2130
122 128 656
123 128 536
124 128 1699
125 128 681
126 128 680
127 128 1102
128 128 1399
129 128 889
130 128 1469
131 128 1300
132 128 538
133 128 260
134 128 171
135 128 398
136 128 797
137 128 907
138 128 559
139 128 327
140 128 573
141 128 322
142 128 535
143 128 894
144 128 1617
145 128 1179
146 128 1317
147 128 1596
148 128 697
149 128 1683
150 128 2576
151 128 1029
152 128 543
153 128 880
154 128 864
155 128 1469
156 128 1007
157 128 564
158 128 1291
159 128 775
160 128 1031
161 128 1177
162 128 1753
163 128 561
164 128 833
165 128 1322
166 128 1710
167 128 761
168 128 777
169 128 1378
170 128 170
171 128 921
172 128 243
173 128 1363
174 128 1157
175 128 805
176 128 338
177 128 908
178 128 1018
179 128 1355
180 128 616
181 128 752
182 128 504
183 128 458
184 128 576
185 128 1303
186 128 1215
187 128 1393
188 128 1113
189 128 1490
190 128 790
191 128 1559
192 128 757
193 128 862
194 128 1009
195 128 2029
196 128 844
197 128 1201
198 128 483
199 128 1275
200 128 704
201 128 537
202 128 1025
203 128 701
204 128 812
205 128 302
206 128 334
207 128 651
208 128 800
209 128 1496
210 128 1401
211 128 2455
212 128 1236
213 128 1164
214 128 396
215 128 525
216 128 1000
217 128 846
218 128 366
219 128 536
220 128 1082
221 128 634
222 128 827
223 128 565
224 128 1396
225 128 891
226 128 1539
227 128 787
228 128 458
229 128 1135
230 128 241
231 128 192
232 128 332
233 128 420
234 128 1648
235 128 1516
236 128 542
237 128 719
238 128 1082
239 128 768
240 128 1238
241 128 555
242 128 646
243 128 996
244 128 559
245 128 729
246 128 893
247 128 723
248 128 943
249 128 539
250 128 502
251 128 1714
252 128 833
253 128 502
254 128 1129
255 128 3171
256 128 987
257 128 882
258 128 718
259 128 1257
260 128 1270
261 128 854
262 128 592
263 128 1705
264 128 846
265 128 1583
266 128 217
267 128 1786
268 128 2037
269 128 302
270 128 1333
271 128 991
272 128 1574
273 128 467
274 128 1178
275 128 211
276 128 1396
277 128 469
278 128 1082
279 128 1527
280 128 2178
281 128 1302
282 128 190
283 128 703
284 128 1543
285 128 1681
286 128 135
287 128 1299
288 128 1307
289 128 226
290 128 1057
291 128 1192
292 128 1098
293 128 742
294 128 921
295 128 2248
296 128 750
297 128 521
298 128 642
299 128 2254
300 128 788
301 128 428
302 128 2194
303 128 968
304 128 444
305 128 414
306 128 485
307 128 1633
308 128 936
309 128 296
310 128 1338
311 128 709
312 128 795
313 128 1616
314 128 874
315 128 678
316 128 2177
317 128 495
318 128 1145
319 128 984
320 128 1316
321 128 434
322 128 210
323 128 1278
324 128 1148
325 128 652
326 128 1052
327 128 1314
328 128 847
329 128 208
330 128 664
331 128 1814
332 128 1439
333 128 153
334 128 719
335 128 746
336 128 755
337 128 834
338 128 1069
339 128 523
340 128 598
341 128 621
342 128 787
343 128 688
344 128 1474
345 128 1129
346 128 807
347 128 949
348 128 1095
349 128 902
350 128 881
351 128 938
352 128 1316
353 128 819
354 128 1310
355 128 312
356 128 1404
357 128 790
358 128 546
359 128 1335
360 128 2404
361 128 1274
362 128 295
363 128 881
364 128 1354
365 128 560
366 128 391
367 128 389
368 128 505
369 128 893
370 128 88
371 128 423
372 128 2286
373 128 2195
374 128 496
375 128 1210
376 128 862
377 128 917
378 128 692
379 128 607
380 128 1064
381 128 1357
382 128 1196
383 128 694
384 128 944
385 128 622
386 128 719
387 128 486
388 128 784
389 128 684
390 128 820
391 128 1815
392 128 444
393 128 587
394 128 1237
395 128 1535
396 128 831
397 128 944
398 128 1031
399 128 441
400 128 1831
401 128 945
402 128 1324
403 128 1180
404 128 619
405 128 1071
406 128 497
407 128 546
408 128 414
409 128 437
410 128 346
411 128 768
412 128 1100
413 128 624
414 128 1767
415 128 987
416 128 1449
417 128 1615
418 128 381
419 128 1053
420 128 1529
421 128 734
422 128 741
423 128 748
424 128 1209
425 128 763
426 128 1092
427 128 1062
428 128 910
429 128 858
430 128 737
431 128 830
432 128 1003
433 128 721
434 128 603
435 128 1017
436 128 607
437 128 2029
438 128 373
439 128 354
440 128 544
441 128 478
442 128 915
443 128 1012
444 128 1088
445 128 422
446 128 247
447 128 791
448 128 556
449 128 1727
450 128 1280
451 128 856
452 128 2083
453 128 1168
454 128 2652
455 128 1419
456 128 654
457 128 909
458 128 541
459 128 234
460 128 1458
461 128 804
462 128 1539
463 128 596
464 128 2499
465 128 866
466 128 905
467 128 1765
468 128 683
469 128 2123
470 128 853
471 128 529
472 128 1113
473 128 782
474 128 1099
475 128 1099
476 128 1004
477 128 1189
478 128 1001
479 128 2181
480 128 1102
481 128 755
482 128 2257
483 128 1152
484 128 1294
485 128 1083
486 128 397
487 128 694
488 128 889
489 128 511
490 128 714
491 128 1477
492 128 639
493 128 341
494 128 1728
495 128 911
496 128 830
497 128 142
498 128 374
499 128 845
500 128 794
1 129 8030
2 129 4935
3 129 6619
4 129 3348
5 129 3217
6 129 9028
7 129 6537
8 129 11022
9 129 12038
10 129 6631
11 129 6858
12 129 5060
13 129 6379
14 129 6488
15 129 7973
16 129 5533
17 129 3888
18 129 5356
19 129 6965
20 129 4397
21 129 11575
22 129 5018
23 129 3965
24 129 13735
25 129 6846
26 129 6522
27 129 11144
28 129 4546
29 129 4938
30 129 16004
31 129 6486
32 129 6476
33 129 8978
34 129 7733
35 129 3688
36 129 2432
37 129 5748
38 129 7006
39 129 4881
40 129 7195
41 129 7966
42 129 8636
43 129 8024
44 129 7058
45 129 10432
46 129 7090
47 129 6781
48 129 14596
49 129 8692
50 129 7709
51 129 6871
52 129 4521
53 129 4274
54 129 6680
55 129 8021
56 129 4967
57 129 5026
58 129 2576
59 129 16214
60 129 7608
61 129 5974
62 129 6303
63 129 12013
64 129 5517
65 129 5330
66 129 6197
67 129 5707
68 129 3676
69 129 10562
70 129 6044
71 129 6422
72 129 10686
73 129 13002
74 129 5123
75 129 16123
76 129 6825
77 129 6363
78 129 8927
79 129 15236
80 129 3742
81 129 5692
82 129 7890
83 129 3937
84 129 6660
85 129 5616
86 129 9524
87 129 8028
88 129 7550
89 129 5892
90 129 3923
91 129 7477
92 129 4871
93 129 7191
94 129 6489
95 129 5620
96 129 10897
97 129 6726
98 129 5367
99 129 7150
100 129 6374
101 129 10189
102 129 5256
103 129 5374
104 129 5397
105 129 3805
106 129 16135
107 129 3963
108 129 6710
109 129 5774
110 129 3738
111 129 8273
112 129 4632
113 129 4458
114 129 4500
115 129 5221
116 129 10879
117 129 6909
118 129 10232
119 129 8026
120 129 3287
121 129 9810
122 129 4334
123 129 5274
124 129 7717
125 129 8449
126 129 4644
127 129 8473
128 129 8974
129 129 7345
130 129 8390
131 129 10588
132 129 5375
133 129 4758
134 129 8509
135 129 4412
136 129 16110
137 129 10590
138 129 6003
139 129 7181
140 129 9379
141 129 8871
142 129 6840
143 129 4850
144 129 5818
145 129 7427
146 129 7017
147 129 7644
148 129 5155
149 129 7071
150 129 4384
151 129 14805
152 129 5408
153 129 14498
154 129 4772
155 129 10286
156 129 5300
157 129 4186
158 129 12345
159 129 10711
160 129 5965
161 129 9437
162 129 19080
163 129 5767
164 129 6462
165 129 7288
166 129 2940
167 129 4004
168 129 6898
169 129 5431
170 129 8537
171 129 6849
172 129 3880
173 129 9339
174 129 10208
175 129 10713
176 129 5375
177 129 15433
178 129 8642
179 129 10607
180 129 4450
181 129 9683
182 129 5469
183 129 2573
184 129 8756
185 129 12482
186 129 4718
187 129 5721
188 129 7189
189 129 16740
190 129 4165
191 129 6123
192 129 3329
193 129 10421
194 129 3667
195 129 8211
196 129 5117
197 129 5694
198 129 3321
199 129 4352
200 129 7808
201 129 7825
202 129 11620
203 129 11459
204 129 11323
205 129 5284
206 129 5412
207 129 6309
208 129 10510
209 129 8462
210 129 8336
211 129 9061
212 129 8076
213 129 5624
214 129 6984
215 129 7103
216 129 5744
217 129 8414
218 129 6333
219 129 3603
220 129 4068
221 129 2299
222 129 10594
223 129 6646
224 129 4286
225 129 5358
226 129 6228
227 129 7953
228 129 4347
229 129 9057
230 129 4588
231 129 4986
232 129 7243
233 129 12747
234 129 10043
235 129 7012
236 129 4339
237 129 13987
238 129 3923
239 129 11475
240 129 9974
241 129 6592
242 129 12934
243 129 5366
244 129 4202
245 129 6407
246 129 10029
247 129 7114
248 129 9617
249 129 3606
250 129 4483
251 129 3702
252 129 6145
253 129 16069
254 129 2604
255 129 5384
256 129 4707
257 129 6071
258 129 12585
259 129 12353
260 129 7740
261 129 6352
262 129 7731
263 129 13280
264 129 6019
265 129 6515
266 129 4027
267 129 2965
268 129 5272
269 129 8796
270 129 11105
271 129 5006
272 129 7073
273 129 6230
274 129 9456
275 129 6514
276 129 10310
277 129 5982
278 129 6191
279 129 8424
280 129 7624
281 129 7146
282 129 3949
283 129 4650
284 129 8999
285 129 6466
286 129 6361
287 129 4528
288 129 7146
289 129 6675
290 129 5869
291 129 7928
292 129 4157
293 129 11846
294 129 5091
295 129 5471
296 129 7455
297 129 4494
298 129 9412
299 129 5339
300 129 8376
301 129 13628
302 129 5931
303 129 5208
304 129 4109
305 129 8647
306 129 4154
307 129 5806
308 129 6609
309 129 5865
310 129 5167
311 129 12995
312 129 6717
313 129 12273
314 129 5418
315 129 2262
316 129 5693
317 129 10663
318 129 8943
319 129 5289
320 129 7353
321 129 4401
322 129 5624
323 129 6515
324 129 3626
325 129 11021
326 129 7508
327 129 3811
328 129 16002
329 129 7258
330 129 9644
331 129 7204
332 129 4348
333 129 3088
334 129 5016
335 129 3244
336 129 8047
337 129 5540
338 129 5992
339 129 5570
340 129 7501
341 129 3869
342 129 16174
343 129 4451
344 129 8599
345 129 9377
346 129 4754
347 129 3982
348 129 4940
349 129 3970
350 129 5365
351 129 6954
352 129 7960
353 129 2909
354 129 12588
355 129 4925
356 129 7171
357 129 6047
358 129 4391
359 129 4387
360 129 5705
361 129 12235
362 129 4422
363 129 4881
364 129 7134
365 129 6018
366 129 11153
367 129 6671
368 129 7538
369 129 7934
370 129 5164
371 129 8272
372 129 5624
373 129 5934
374 129 15995
375 129 4822
376 129 7723
377 129 5671
378 129 6737
379 129 10224
380 129 7010
381 129 12263
382 129 7849
383 129 9016
384 129 7379
385 129 8269
386 129 10312
387 129 3018
388 129 8077
389 129 4361
390 129 11715
391 129 7427
392 129 2478
393 129 10772
394 129 6568
395 129 6639
396 129 8012
397 129 7317
398 129 5740
399 129 8452
400 129 8842
401 129 7886
402 129 4455
403 129 5203
404 129 5627
405 129 7850
406 129 1871
407 129 3330
408 129 4302
409 129 5415
410 129 7550
411 129 16209
412 129 4023
413 129 5328
414 129 16904
415 129 6866
416 129 8461
417 129 10865
418 129 5901
419 129 8325
420 129 4865
421 129 4651
422 129 4645
423 129 11761
424 129 7425
425 129 12027
426 129 11209
427 129 5676
428 129 7986
429 129 5468
430 129 7106
431 129 9642
432 129 4056
433 129 6111
434 129 3866
435 129 5358
436 129 3921
437 129 5254
438 129 5211
439 129 4464
440 129 7113
441 129 6783
442 129 4176
443 129 6073
444 129 11553
445 129 3358
446 129 6558
447 129 3304
448 129 6549
449 129 7324
450 129 7922
451 129 8514
452 129 6698
453 129 6519
454 129 11321
455 129 4114
456 129 3777
457 129 7338
458 129 5136
459 129 6582
460 129 8622
461 129 6621
462 129 9018
463 129 10979
464 129 5638
465 129 5664
466 129 5674
467 129 9080
468 129 6196
469 129 5971
470 129 4459
471 129 4395
472 129 9405
473 129 10565
474 129 12951
475 129 6268
476 129 8158
477 129 9554
478 129 3643
479 129 4788
480 129 9387
481 129 5361
482 129 5801
483 129 3072
484 129 12084
485 129 3485
486 129 5471
487 129 5995
488 129 10652
489 129 5560
490 129 4787
491 129 2546
492 129 8877
493 129 4100
494 129 8612
495 129 7585
496 129 10752
497 129 3042
498 129 8020
499 129 5329
500 129 7389
1 130 1126
2 130 1711
3 130 1266
4 130 657
5 130 1015
6 130 1080
7 130 1216
8 130 615
9 130 1165
10 130 2226
11 130 927
12 130 1405
13 130 879
14 130 700
15 130 2019
16 130 1461
17 130 517
18 130 790
19 130 1534
20 130 860
21 130 1495
22 130 1468
23 130 663
24 130 1965
25 130 706
26 130 1210
27 130 1768
28 130 1028
29 130 723
30 130 1361
31 130 1047
32 130 1178
33 130 1746
34 130 1185
35 130 380
36 130 733
37 130 1194
38 130 1808
39 130 1273
40 130 896
41 130 1562
42 130 965
43 130 1268
44 130 1697
45 130 2300
46 130 757
47 130 1812
48 130 1062
49 130 712
50 130 661
51 130 1150
52 130 1045
53 130 2198
54 130 1452
55 130 890
56 130 1129
57 130 444
58 130 1839
59 130 1368
60 130 1347
61 130 1178
62 130 606
63 130 1086
64 130 830
65 130 817
66 130 1846
67 130 1704
68 130 1382
69 130 965
70 130 1081
71 130 656
72 130 1804
73 130 1406
74 130 838
75 130 1358
76 130 597
77 130 1373
78 130 1873
79 130 1120
80 130 552
81 130 2320
82 130 843
83 130 1750
84 130 2249
85 130 1201
86 130 2420
87 130 1213
88 130 1241
89 130 785
90 130 1944
91 130 754
92 130 553
93 130 1453
94 130 1652
95 130 1703
96 130 4162
97 130 2450
98 130 818
99 130 1617
100 130 1097
101 130 1782
102 130 1329
103 130 497
104 130 1541
105 130 1269
106 130 1303
107 130 440
108 130 1622
109 130 701
110 130 2402
111 130 1260
112 130 757
113 130 916
114 130 1484
115 130 1034
116 130 1469
117 130 1157
118 130 1275
119 130 663
120 130 737
121 130 1348
122 130 901
123 130 926
124 130 1680
125 130 835
126 130 532
127 130 3132
128 130 2050
129 130 1201
130 130 1270
131 130 1951
132 130 2653
133 130 618
134 130 665
135 130 661
136 130 363
137 130 924
138 130 852
139 130 1213
140 130 1042
141 130 1241
142 130 1369
143 130 1215
144 130 1389
145 130 3494
146 130 1586
147 130 2373
148 130 832
149 130 649
150 130 1372
151 130 615
152 130 790
153 130 1731
154 130 913
155 130 599
156 130 1973
157 130 950
158 130 3241
159 130 1819
160 130 1530
161 130 2479
162 130 2162
163 130 1289
164 130 617
165 130 2114
166 130 958
167 130 192
168 130 1059
169 130 1481
170 130 646
171 130 1396
172 130 718
173 130 1396
174 130 713
175 130 1817
176 130 1294
177 130 1066
178 130 1136
179 130 2014
180 130 1688
181 130 1618
182 130 1526
183 130 1220
184 130 685
185 130 1760
186 130 1353
187 130 2246
188 130 1392
189 130 1336
190 130 2031
191 130 1240
192 130 874
193 130 944
194 130 1387
195 130 2932
196 130 1630
197 130 816
198 130 824
199 130 1567
200 130 1585
201 130 692
202 130 558
203 130 540
204 130 1187
205 130 1232
206 130 1523
207 130 959
208 130 915
209 130 1333
210 130 1108
211 130 1851
212 130 1773
213 130 810
214 130 1711
215 130 1350
216 130 852
217 130 1315
218 130 1495
219 130 1061
220 130 1739
221 130 430
222 130 1817
223 130 1219
224 130 651
225 130 700
226 130 1178
227 130 1713
228 130 694
229 130 1066
230 130 817
231 130 1452
232 130 1476
233 130 1924
234 130 1825
235 130 1772
236 130 576
237 130 746
238 130 1432
239 130 1121
240 130 2013
241 130 1485
242 130 2062
243 130 1100
244 130 675
245 130 1386
246 130 811
247 130 945
248 130 945
249 130 967
250 130 760
251 130 1550
252 130 745
253 130 1311
254 130 1728
255 130 729
256 130 1315
257 130 2141
258 130 2545
259 130 1750
260 130 1864
261 130 649
262 130 655
263 130 1091
264 130 2141
265 130 1095
266 130 719
267 130 926
268 130 1460
269 130 1116
270 130 2206
271 130 1410
272 130 1642
273 130 1108
274 130 2578
275 130 1167
276 130 2052
277 130 646
278 130 2315
279 130 1260
280 130 1264
281 130 1317
282 130 624
283 130 1227
284 130 2073
285 130 835
286 130 841
287 130 1034
288 130 1841
289 130 1243
290 130 992
291 130 437
292 130 954
293 130 1151
294 130 1808
295 130 1426
296 130 1482
297 130 619
298 130 2137
299 130 1424
300 130 2328
301 130 1507
302 130 1432
303 130 1208
304 130 2846
305 130 3088
306 130 1058
307 130 1353
308 130 498
309 130 1497
310 130 698
311 130 2137
312 130 1816
313 130 2621
314 130 1813
315 130 450
316 130 1401
317 130 1705
318 130 1910
319 130 1891
320 130 972
321 130 652
322 130 313
323 130 1110
324 130 1483
325 130 1927
326 130 1782
327 130 1630
328 130 374
329 130 475
330 130 1043
331 130 608
332 130 666
333 130 1374
334 130 1383
335 130 520
336 130 1767
337 130 386
338 130 394
339 130 485
340 130 845
341 130 1010
342 130 369
343 130 1004
344 130 1225
345 130 2522
346 130 837
347 130 344
348 130 1791
349 130 1501
350 130 779
351 130 1428
352 130 1927
353 130 601
354 130 1709
355 130 1357
356 130 906
357 130 362
358 130 1485
359 130 1496
360 130 1604
361 130 1750
362 130 631
363 130 782
364 130 961
365 130 865
366 130 1234
367 130 1510
368 130 1344
369 130 848
370 130 1129
371 130 1387
372 130 1657
373 130 1401
374 130 1347
375 130 741
376 130 648
377 130 2066
378 130 1920
379 130 1897
380 130 1432
381 130 1800
382 130 1268
383 130 957
384 130 2509
385 130 439
386 130 1760
387 130 1270
388 130 1733
389 130 1072
390 130 1153
391 130 2318
392 130 920
393 130 1458
394 130 1092
395 130 1259
396 130 973
397 130 590
398 130 1901
399 130 1158
400 130 1502
401 130 1531
402 130 1520
403 130 716
404 130 1338
405 130 1411
406 130 527
407 130 861
408 130 643
409 130 446
410 130 531
411 130 382
412 130 1677
413 130 933
414 130 953
415 130 434
416 130 1173
417 130 1642
418 130 1305
419 130 949
420 130 1742
421 130 641
422 130 811
423 130 1128
424 130 829
425 130 1106
426 130 4335
427 130 1497
428 130 901
429 130 1852
430 130 1427
431 130 3144
432 130 350
433 130 1177
434 130 809
435 130 1040
436 130 799
437 130 1555
438 130 771
439 130 1504
440 130 1095
441 130 1333
442 130 1436
443 130 1192
444 130 4360
445 130 368
446 130 1226
447 130 765
448 130 1490
449 130 568
450 130 1929
451 130 2330
452 130 1088
453 130 1466
454 130 4169
455 130 882
456 130 1463
457 130 2644
458 130 703
459 130 1216
460 130 1324
461 130 653
462 130 2075
463 130 556
464 130 2143
465 130 2210
466 130 2170
467 130 1661
468 130 662
469 130 1439
470 130 573
471 130 1440
472 130 2505
473 130 1775
474 130 945
475 130 1874
476 130 887
477 130 2502
478 130 1458
479 130 1369
480 130 513
481 130 914
482 130 1501
483 130 1849
484 130 1254
485 130 1467
486 130 1602
487 130 1632
488 130 1809
489 130 1307
490 130 987
491 130 1788
492 130 1538
493 130 733
494 130 1943
495 130 1131
496 130 1876
497 130 1357
498 130 2152
499 130 1390
500 130 1751
1 131 3156
2 131 4493
3 131 4036
4 131 1790
5 131 4021
6 131 5199
7 131 2141
8 131 3953
9 131 2833
10 131 3865
11 131 5188
12 131 4076
13 131 3780
14 131 3451
15 131 2129
16 131 2354
17 131 3305
18 131 2974
19 131 6504
20 131 1748
21 131 5097
22 131 5206
23 131 3026
24 131 3043
25 131 3608
26 131 2205
27 131 2141
28 131 4534
29 131 4455
30 131 3313
31 131 6132
32 131 4050
33 131 2007
34 131 3391
35 131 1790
36 131 2815
37 131 4066
38 131 3052
39 131 2727
40 131 4623
41 131 6369
42 131 4563
43 131 2877
44 131 2982
45 131 3870
46 131 3586
47 131 4685
48 131 3161
49 131 4074
50 131 1117
51 131 5382
52 131 4112
53 131 4571
54 131 1962
55 131 5824
56 131 3049
57 131 3370
58 131 3191
59 131 3182
60 131 2839
61 131 3000
62 131 1629
63 131 7959
64 131 2370
65 131 2878
66 131 2977
67 131 3639
68 131 4544
69 131 4600
70 131 2399
71 131 2567
72 131 5162
73 131 3096
74 131 6662
75 131 3316
76 131 2392
77 131 7731
78 131 2766
79 131 5804
80 131 2450
81 131 2562
82 131 1607
83 131 5645
84 131 6323
85 131 7993
86 131 3853
87 131 4866
88 131 2893
89 131 2580
90 131 3710
91 131 2259
92 131 3835
93 131 2807
94 131 3749
95 131 2398
96 131 3044
97 131 4571
98 131 2790
99 131 3749
100 131 5991
101 131 4808
102 131 3292
103 131 3141
104 131 3478
105 131 1311
106 131 3162
107 131 2634
108 131 3680
109 131 1683
110 131 4035
111 131 4600
112 131 1482
113 131 1866
114 131 4115
115 131 3254
116 131 3347
117 131 3944
118 131 4506
119 131 1439
120 131 2334
121 131 3448
122 131 8565
123 131 3076
124 131 7451
125 131 3328
126 131 3269
127 131 6045
128 131 4652
129 131 3943
130 131 4590
131 131 7108
132 131 5528
133 131 3611
134 131 5003
135 131 2486
136 131 4745
137 131 2909
138 131 3997
139 131 3496
140 131 3877
141 131 5049
142 131 2540
143 131 4410
144 131 2626
145 131 7037
146 131 6572
147 131 5364
148 131 6612
149 131 3891
150 131 3034
151 131 2422
152 131 7610
153 131 3026
154 131 1762
155 131 4549
156 131 3549
157 131 2939
158 131 4718
159 131 5324
160 131 3914
161 131 3764
162 131 3303
163 131 3429
164 131 2884
165 131 3566
166 131 3313
167 131 3376
168 131 2565
169 131 2279
170 131 5184
171 131 2024
172 131 2467
173 131 5403
174 131 3917
175 131 5283
176 131 3580
177 131 3806
178 131 2303
179 131 7219
180 131 2676
181 131 5547
182 131 2908
183 131 2379
184 131 2401
185 131 6204
186 131 2447
187 131 2610
188 131 5102
189 131 5302
190 131 3466
191 131 3857
192 131 1689
193 131 2810
194 131 2539
195 131 3425
196 131 3381
197 131 2050
198 131 2763
199 131 4464
200 131 2537
201 131 1778
202 131 2490
203 131 4938
204 131 3612
205 131 5458
206 131 3726
207 131 2951
208 131 2753
209 131 4492
210 131 4591
211 131 3698
212 131 3390
213 131 3243
214 131 3370
215 131 2480
216 131 4213
217 131 2454
218 131 2756
219 131 2106
220 131 5530
221 131 1400
222 131 5308
223 131 4255
224 131 5430
225 131 2884
226 131 4159
227 131 3345
228 131 2620
229 131 6227
230 131 1007
231 131 4030
232 131 5322
233 131 4074
234 131 3459
235 131 3074
236 131 1641
237 131 2510
238 131 2103
239 131 6573
240 131 6311
241 131 2699
242 131 4287
243 131 2203
244 131 2158
245 131 7739
246 131 6647
247 131 3788
248 131 4849
249 131 2109
250 131 2746
251 131 2771
252 131 2983
253 131 3225
254 131 4259
255 131 3269
256 131 4464
257 131 4059
258 131 11451
259 131 6184
260 131 6252
261 131 4822
262 131 1200
263 131 3999
264 131 4105
265 131 4032
266 131 2429
267 131 3175
268 131 4389
269 131 5040
270 131 4373
271 131 2948
272 131 4548
273 131 4133
274 131 3765
275 131 2195
276 131 3025
277 131 2493
278 131 4090
279 131 4577
280 131 4051
281 131 5308
282 131 2609
283 131 2561
284 131 3744
285 131 4875
286 131 2877
287 131 4021
288 131 1956
289 131 2196
290 131 5009
291 131 3321
292 131 4033
293 131 6418
294 131 4411
295 131 4208
296 131 3955
297 131 4201
298 131 4091
299 131 3764
300 131 4322
301 131 2821
302 131 5092
303 131 4288
304 131 1551
305 131 5253
306 131 1308
307 131 2667
308 131 3447
309 131 2204
310 131 3030
311 131 4285
312 131 4498
313 131 3742
314 131 1901
315 131 1321
316 131 2673
317 131 2322
318 131 2859
319 131 3526
320 131 2062
321 131 4263
322 131 2868
323 131 6062
324 131 4443
325 131 3772
326 131 2724
327 131 2615
328 131 4630
329 131 4590
330 131 1912
331 131 3791
332 131 5301
333 131 1635
334 131 3664
335 131 1270
336 131 3267
337 131 3942
338 131 3486
339 131 3937
340 131 3209
341 131 3235
342 131 4652
343 131 4862
344 131 4573
345 131 3767
346 131 6026
347 131 2612
348 131 4569
349 131 4190
350 131 2950
351 131 2047
352 131 6212
353 131 2308
354 131 6162
355 131 3536
356 131 4669
357 131 3679
358 131 3228
359 131 5000
360 131 3149
361 131 6089
362 131 3101
363 131 2955
364 131 4286
365 131 4054
366 131 3659
367 131 4740
368 131 3690
369 131 5189
370 131 2889
371 131 5220
372 131 3092
373 131 2624
374 131 3327
375 131 3904
376 131 1950
377 131 6182
378 131 6108
379 131 3651
380 131 2103
381 131 6027
382 131 3956
383 131 3833
384 131 5285
385 131 2013
386 131 4358
387 131 2175
388 131 3992
389 131 3320
390 131 6481
391 131 3525
392 131 2097
393 131 3267
394 131 6166
395 131 4051
396 131 2571
397 131 4854
398 131 4912
399 131 4185
400 131 4867
401 131 5545
402 131 5004
403 131 5528
404 131 2480
405 131 8507
406 131 1900
407 131 2786
408 131 2149
409 131 3132
410 131 2676
411 131 4831
412 131 5560
413 131 3228
414 131 4696
415 131 3955
416 131 4520
417 131 4530
418 131 3010
419 131 3519
420 131 8622
421 131 2255
422 131 1550
423 131 6477
424 131 3722
425 131 2839
426 131 3182
427 131 3859
428 131 5095
429 131 1833
430 131 2907
431 131 7291
432 131 2633
433 131 3017
434 131 3609
435 131 3780
436 131 3627
437 131 4548
438 131 2383
439 131 4237
440 131 5181
441 131 2399
442 131 3962
443 131 2229
444 131 3214
445 131 2472
446 131 2174
447 131 2515
448 131 2695
449 131 6288
450 131 6171
451 131 4495
452 131 5030
453 131 4762
454 131 3284
455 131 3683
456 131 2611
457 131 6168
458 131 974
459 131 2178
460 131 4520
461 131 4198
462 131 3998
463 131 3969
464 131 5199
465 131 6147
466 131 6213
467 131 6223
468 131 1156
469 131 5358
470 131 2352
471 131 3758
472 131 3827
473 131 5186
474 131 4627
475 131 2943
476 131 4636
477 131 3618
478 131 2569
479 131 3820
480 131 1792
481 131 3597
482 131 5204
483 131 3723
484 131 5012
485 131 2567
486 131 5444
487 131 1804
488 131 5266
489 131 4122
490 131 2890
491 131 3289
492 131 1727
493 131 1470
494 131 4248
495 131 5287
496 131 5180
497 131 1711
498 131 5207
499 131 3579
500 131 5846
1 132 3
2 132 6
5 132 7
7 132 2
8 132 5
9 132 3
10 132 6
12 132 19
17 132 3
18 132 7
19 132 51
20 132 4
23 132 17
24 132 2
26 132 3
28 132 5
31 132 10
32 132 5
33 132 2
35 132 2
37 132 6
39 132 28
41 132 14
42 132 1
44 132 9
48 132 5
49 132 3
50 132 7
52 132 6
53 132 7
54 132 20
58 132 3
61 132 4
64 132 3
67 132 9
68 132 4
69 132 1
70 132 8
73 132 14
76 132 1
77 132 28
79 132 5
80 132 1
83 132 16
86 132 5
93 132 10
95 132 5
96 132 5
97 132 3
99 132 7
100 132 8
102 132 6
103 132 2
105 132 8
107 132 1
108 132 13
110 132 2
111 132 5
113 132 17
114 132 1
115 132 4
117 132 1
118 132 22
119 132 12
120 132 6
121 132 3
122 132 4
123 132 7
125 132 8
126 132 12
129 132 11
130 132 25
131 132 5
133 132 3
135 132 9
136 132 7
137 132 8
141 132 13
142 132 7
143 132 6
145 132 6
146 132 55
147 132 3
149 132 9
153 132 21
155 132 6
156 132 3
157 132 2
158 132 26
160 132 7
161 132 3
162 132 4
163 132 4
164 132 2
165 132 5
166 132 2
168 132 11
171 132 12
173 132 5
178 132 4
179 132 6
183 132 3
184 132 5
185 132 11
186 132 14
188 132 2
189 132 3
190 132 18
193 132 2
194 132 15
197 132 3
198 132 10
199 132 2
200 132 8
201 132 4
202 132 10
205 132 7
206 132 6
207 132 32
208 132 7
209 132 24
210 132 10
213 132 4
214 132 4
215 132 10
217 132 6
218 132 1
220 132 20
221 132 3
223 132 10
225 132 2
226 132 2
227 132 6
228 132 8
230 132 5
231 132 20
234 132 6
237 132 5
238 132 5
242 132 6
243 132 13
244 132 5
245 132 33
246 132 35
247 132 2
251 132 8
254 132 5
256 132 5
259 132 15
260 132 11
261 132 17
262 132 14
263 132 22
265 132 10
267 132 4
268 132 9
269 132 14
272 132 4
273 132 5
274 132 6
275 132 3
277 132 5
279 132 17
280 132 4
281 132 47
283 132 2
285 132 17
286 132 30
287 132 10
288 132 11
289 132 4
290 132 3
292 132 3
295 132 6
296 132 3
297 132 9
298 132 5
299 132 4
300 132 3
301 132 13
303 132 8
304 132 2
305 132 8
308 132 12
309 132 3
310 132 11
311 132 6
314 132 9
315 132 3
316 132 1
319 132 3
320 132 7
321 132 12
322 132 5
323 132 12
324 132 8
325 132 3
328 132 4
329 132 4
330 132 2
331 132 3
333 132 2
334 132 3
335 132 7
336 132 2
337 132 11
339 132 2
340 132 4
341 132 2
342 132 2
343 132 8
344 132 15
345 132 2
346 132 2
348 132 2
349 132 16
350 132 4
351 132 15
352 132 10
353 132 10
354 132 11
355 132 7
359 132 1
361 132 4
362 132 4
366 132 12
367 132 4
368 132 11
369 132 3
371 132 11
373 132 8
375 132 32
377 132 17
380 132 4
381 132 14
382 132 10
385 132 2
386 132 6
387 132 1
388 132 20
391 132 18
392 132 2
394 132 8
397 132 7
398 132 4
401 132 14
402 132 7
404 132 4
405 132 2
407 132 8
409 132 5
411 132 3
412 132 9
415 132 3
416 132 6
418 132 2
425 132 7
426 132 11
428 132 3
429 132 16
430 132 11
431 132 12
433 132 4
434 132 8
436 132 6
437 132 15
439 132 3
441 132 7
443 132 2
444 132 4
446 132 5
447 132 10
449 132 4
450 132 15
451 132 3
452 132 7
456 132 2
457 132 8
459 132 5
460 132 25
463 132 5
465 132 29
466 132 31
467 132 2
471 132 16
472 132 3
476 132 9
477 132 4
478 132 16
483 132 8
484 132 6
485 132 10
486 132 6
489 132 14
491 132 2
492 132 3
493 132 1
494 132 2
497 132 3
500 132 12
1 133 3230
2 133 2435
3 133 3648
4 133 2238
5 133 2926
6 133 3837
7 133 3519
8 133 3720
9 133 4171
10 133 2185
11 133 2685
12 133 7311
13 133 1583
14 133 3628
15 133 2802
16 133 5004
17 133 2646
18 133 3421
19 133 8517
20 133 1413
21 133 3239
22 133 3749
23 133 3485
24 133 5190
25 133 1526
26 133 3556
27 133 3192
28 133 2971
29 133 4460
30 133 4852
31 133 3509
32 133 2109
33 133 4510
34 133 4839
35 133 1386
36 133 3687
37 133 4396
38 133 2779
39 133 4599
40 133 3600
41 133 6176
42 133 3524
43 133 3980
44 133 2475
45 133 6938
46 133 4277
47 133 3162
48 133 4040
49 133 4351
50 133 4009
51 133 3908
52 133 3848
53 133 4680
54 133 3740
55 133 3522
56 133 3309
57 133 4233
58 133 3841
59 133 4776
60 133 2632
61 133 3367
62 133 1871
63 133 3476
64 133 1024
65 133 2051
66 133 2970
67 133 4667
68 133 2957
69 133 2914
70 133 6049
71 133 1623
72 133 3096
73 133 2073
74 133 3019
75 133 4779
76 133 3958
77 133 2619
78 133 3058
79 133 4611
80 133 611
81 133 5462
82 133 4129
83 133 3623
84 133 4606
85 133 4114
86 133 2183
87 133 3816
88 133 3566
89 133 4075
90 133 3989
91 133 3397
92 133 1964
93 133 2437
94 133 4538
95 133 1923
96 133 4710
97 133 5414
98 133 2094
99 133 2541
100 133 3459
101 133 3877
102 133 5657
103 133 4722
104 133 4033
105 133 1889
106 133 4827
107 133 1415
108 133 3411
109 133 4307
110 133 2800
111 133 4226
112 133 895
113 133 2011
114 133 5622
115 133 3538
116 133 3311
117 133 2293
118 133 4792
119 133 1760
120 133 5237
121 133 2007
122 133 5259
123 133 4109
124 133 4595
125 133 2735
126 133 5619
127 133 2497
128 133 2361
129 133 2661
130 133 4261
131 133 4024
132 133 3488
133 133 3312
134 133 3574
135 133 1904
136 133 2620
137 133 4285
138 133 2811
139 133 3395
140 133 4527
141 133 3848
142 133 3116
143 133 4562
144 133 3174
145 133 5714
146 133 8671
147 133 4468
148 133 3047
149 133 3364
150 133 3351
151 133 3405
152 133 3700
153 133 2377
154 133 2128
155 133 4589
156 133 4457
157 133 1481
158 133 4096
159 133 3189
160 133 3219
161 133 2106
162 133 3618
163 133 7190
164 133 2091
165 133 4707
166 133 3531
167 133 3669
168 133 2650
169 133 5013
170 133 3709
171 133 3648
172 133 2479
173 133 8700
174 133 6781
175 133 3055
176 133 2819
177 133 4837
178 133 2663
179 133 4005
180 133 1910
181 133 3465
182 133 2450
183 133 2446
184 133 2400
185 133 4586
186 133 7186
187 133 5441
188 133 5222
189 133 6070
190 133 4922
191 133 3489
192 133 2600
193 133 4313
194 133 7603
195 133 4228
196 133 3529
197 133 1655
198 133 3598
199 133 4837
200 133 4042
201 133 2413
202 133 3884
203 133 4964
204 133 3707
205 133 4446
206 133 1673
207 133 3492
208 133 4289
209 133 4270
210 133 2753
211 133 2612
212 133 3138
213 133 4337
214 133 2574
215 133 3237
216 133 2486
217 133 5455
218 133 2992
219 133 1779
220 133 3480
221 133 1737
222 133 3208
223 133 2066
224 133 4612
225 133 3503
226 133 3211
227 133 2880
228 133 1887
229 133 3708
230 133 3265
231 133 7160
232 133 2915
233 133 3012
234 133 3270
235 133 2836
236 133 1699
237 133 1797
238 133 3805
239 133 4633
240 133 3002
241 133 3343
242 133 4286
243 133 3837
244 133 2272
245 133 2625
246 133 4319
247 133 4304
248 133 7555
249 133 1794
250 133 4246
251 133 3779
252 133 1314
253 133 4777
254 133 4680
255 133 5572
256 133 5343
257 133 3114
258 133 5693
259 133 4386
260 133 2361
261 133 3358
262 133 4065
263 133 5347
264 133 3210
265 133 3110
266 133 2429
267 133 3476
268 133 5025
269 133 3879
270 133 4061
271 133 2550
272 133 2903
273 133 2465
274 133 2156
275 133 3422
276 133 6500
277 133 1252
278 133 3026
279 133 4152
280 133 4555
281 133 5280
282 133 1918
283 133 2466
284 133 4923
285 133 7379
286 133 1650
287 133 3954
288 133 4155
289 133 3522
290 133 4120
291 133 2545
292 133 5629
293 133 4711
294 133 5516
295 133 3719
296 133 2904
297 133 3777
298 133 4372
299 133 3423
300 133 3905
301 133 3633
302 133 5037
303 133 2477
304 133 4487
305 133 8514
306 133 1472
307 133 3293
308 133 2981
309 133 3764
310 133 3078
311 133 4252
312 133 3395
313 133 3985
314 133 3052
315 133 1767
316 133 4534
317 133 4112
318 133 3028
319 133 4474
320 133 4457
321 133 3814
322 133 2730
323 133 3576
324 133 3050
325 133 2422
326 133 3871
327 133 3018
328 133 2683
329 133 2317
330 133 3737
331 133 3266
332 133 4759
333 133 1895
334 133 5055
335 133 1595
336 133 2910
337 133 3376
338 133 3981
339 133 2614
340 133 3773
341 133 1937
342 133 2556
343 133 3599
344 133 4223
345 133 2181
346 133 4276
347 133 1817
348 133 2464
349 133 1956
350 133 3345
351 133 3704
352 133 2398
353 133 2070
354 133 4631
355 133 3454
356 133 3642
357 133 4220
358 133 2470
359 133 3164
360 133 3330
361 133 4559
362 133 2570
363 133 2157
364 133 3864
365 133 2811
366 133 3031
367 133 4309
368 133 1895
369 133 3456
370 133 3936
371 133 2945
372 133 3294
373 133 4608
374 133 4887
375 133 3906
376 133 3365
377 133 4636
378 133 2721
379 133 4774
380 133 3770
381 133 4577
382 133 5110
383 133 2917
384 133 4005
385 133 4118
386 133 4618
387 133 1717
388 133 4543
389 133 3840
390 133 4728
391 133 2721
392 133 3036
393 133 3276
394 133 3559
395 133 3594
396 133 3227
397 133 3907
398 133 4165
399 133 2784
400 133 3047
401 133 2420
402 133 3176
403 133 4454
404 133 2477
405 133 3303
406 133 2094
407 133 3473
408 133 1136
409 133 4830
410 133 2393
411 133 2527
412 133 3577
413 133 3627
414 133 5346
415 133 2212
416 133 2765
417 133 5158
418 133 2974
419 133 7131
420 133 3535
421 133 2254
422 133 3484
423 133 4625
424 133 1835
425 133 3399
426 133 4818
427 133 3385
428 133 3315
429 133 2965
430 133 2348
431 133 5173
432 133 1893
433 133 3388
434 133 3225
435 133 2399
436 133 3145
437 133 5014
438 133 2823
439 133 5537
440 133 3784
441 133 3109
442 133 2090
443 133 3315
444 133 4983
445 133 1254
446 133 3552
447 133 4572
448 133 3272
449 133 4469
450 133 2374
451 133 3892
452 133 6327
453 133 3402
454 133 7051
455 133 3076
456 133 2669
457 133 3625
458 133 1261
459 133 3520
460 133 4223
461 133 2823
462 133 4870
463 133 3656
464 133 5312
465 133 4837
466 133 4999
467 133 5574
468 133 1840
469 133 5349
470 133 1989
471 133 3922
472 133 2183
473 133 3169
474 133 2934
475 133 2779
476 133 4625
477 133 2164
478 133 7850
479 133 3187
480 133 2707
481 133 3576
482 133 5314
483 133 3975
484 133 1848
485 133 7830
486 133 5483
487 133 2928
488 133 3130
489 133 3825
490 133 4135
491 133 3961
492 133 3596
493 133 1822
494 133 4047
495 133 2093
496 133 3145
497 133 2029
498 133 4607
499 133 7019
500 133 3681
16 134 5
23 134 4
24 134 4
30 134 4
35 134 2
37 134 1
39 134 6
41 134 4
44 134 11
46 134 2
47 134 5
49 134 2
55 134 5
56 134 5
57 134 11
59 134 8
61 134 9
64 134 3
65 134 5
74 134 20
75 134 5
85 134 8
86 134 2
89 134 1
99 134 3
101 134 3
105 134 2
106 134 3
120 134 8
122 134 3
126 134 4
128 134 12
131 134 7
132 134 7
134 134 4
135 134 3
136 134 9
138 134 2
139 134 5
140 134 4
141 134 10
142 134 18
144 134 8
147 134 3
148 134 14
152 134 7
153 134 8
155 134 15
157 134 3
160 134 5
161 134 4
169 134 3
170 134 7
172 134 2
174 134 3
176 134 5
177 134 6
179 134 7
182 134 1
183 134 3
185 134 1
186 134 5
205 134 4
215 134 7
216 134 2
218 134 4
219 134 10
221 134 4
228 134 1
229 134 5
230 134 10
232 134 6
234 134 7
237 134 2
240 134 3
241 134 4
243 134 4
244 134 2
248 134 3
249 134 7
252 134 2
253 134 3
254 134 14
255 134 7
256 134 2
258 134 2
259 134 2
266 134 2
269 134 11
274 134 3
276 134 5
280 134 2
282 134 7
283 134 4
285 134 5
297 134 2
301 134 3
302 134 4
303 134 1
306 134 7
307 134 6
308 134 7
312 134 5
315 134 4
321 134 5
326 134 3
328 134 4
330 134 10
331 134 8
337 134 2
338 134 21
339 134 7
341 134 7
342 134 10
345 134 6
353 134 3
354 134 1
355 134 3
359 134 2
361 134 6
362 134 4
364 134 7
365 134 9
368 134 4
369 134 3
370 134 10
374 134 1
379 134 1
380 134 5
381 134 2
383 134 3
385 134 9
387 134 2
388 134 1
399 134 8
400 134 5
402 134 7
403 134 2
404 134 5
410 134 4
411 134 12
413 134 4
414 134 8
415 134 7
417 134 2
419 134 7
420 134 5
424 134 2
425 134 10
427 134 2
428 134 4
433 134 14
441 134 11
443 134 4
447 134 5
448 134 6
456 134 11
464 134 2
467 134 24
468 134 4
471 134 5
472 134 5
477 134 7
479 134 3
482 134 2
490 134 3
492 134 3
495 134 1
498 134 3
500 134 5
1 135 3052
2 135 4682
3 135 2828
4 135 3775
5 135 3327
6 135 1754
7 135 3931
8 135 5057
9 135 2745
10 135 4953
11 135 3817
12 135 3529
13 135 1274
14 135 2683
15 135 5187
16 135 3173
17 135 2908
18 135 5650
19 135 8293
20 135 1206
21 135 6474
22 135 2884
23 135 3892
24 135 3658
25 135 1098
26 135 4004
27 135 2614
28 135 4361
29 135 1786
30 135 2896
31 135 1862
32 135 2247
33 135 3892
34 135 2047
35 135 1418
36 135 2283
37 135 2903
38 135 5267
39 135 3311
40 135 6302
41 135 4236
42 135 2951
43 135 1896
44 135 2777
45 135 6058
46 135 4432
47 135 4269
48 135 3272
49 135 4075
50 135 2585
51 135 4758
52 135 2183
53 135 1262
54 135 2230
55 135 1699
56 135 4580
57 135 4951
58 135 2922
59 135 2913
60 135 3369
61 135 3846
62 135 1334
63 135 2228
64 135 1653
65 135 3283
66 135 4114
67 135 3452
68 135 4542
69 135 2042
70 135 3239
71 135 1726
72 135 2052
73 135 3209
74 135 2319
75 135 2963
76 135 2742
77 135 2831
78 135 2867
79 135 4906
80 135 1793
81 135 4207
82 135 1824
83 135 3417
84 135 4364
85 135 3626
86 135 3376
87 135 2935
88 135 5776
89 135 3937
90 135 3997
91 135 1652
92 135 2317
93 135 2131
94 135 4292
95 135 4511
96 135 3570
97 135 3129
98 135 3431
99 135 5181
100 135 1934
101 135 4597
102 135 4944
103 135 1839
104 135 2257
105 135 3598
106 135 2937
107 135 1631
108 135 5100
109 135 4826
110 135 2543
111 135 3304
112 135 1513
113 135 1638
114 135 2359
115 135 5207
116 135 3075
117 135 2910
118 135 2866
119 135 1694
120 135 2116
121 135 3544
122 135 4227
123 135 2083
124 135 3790
125 135 3858
126 135 4419
127 135 6626
128 135 2719
129 135 4453
130 135 3163
131 135 5433
132 135 5040
133 135 4335
134 135 3030
135 135 3134
136 135 2301
137 135 7071
138 135 1730
139 135 3765
140 135 2199
141 135 3630
142 135 4832
143 135 3350
144 135 3301
145 135 3114
146 135 8265
147 135 4600
148 135 2413
149 135 3645
150 135 3253
151 135 2513
152 135 3295
153 135 2419
154 135 1535
155 135 4334
156 135 4261
157 135 2032
158 135 2938
159 135 2034
160 135 3432
161 135 3381
162 135 3030
163 135 2791
164 135 1171
165 135 6977
166 135 2094
167 135 1400
168 135 2231
169 135 3085
170 135 3121
171 135 2246
172 135 1340
173 135 5324
174 135 5038
175 135 2005
176 135 4645
177 135 4177
178 135 2762
179 135 5396
180 135 5366
181 135 3870
182 135 4429
183 135 4079
184 135 1418
185 135 4496
186 135 4701
187 135 4171
188 135 4383
189 135 4128
190 135 4270
191 135 2938
192 135 1398
193 135 6909
194 135 3339
195 135 6045
196 135 3207
197 135 3047
198 135 2061
199 135 4034
200 135 2722
201 135 3222
202 135 3976
203 135 4496
204 135 2201
205 135 4400
206 135 2001
207 135 2640
208 135 6921
209 135 3223
210 135 4886
211 135 3097
212 135 2832
213 135 2957
214 135 3918
215 135 4798
216 135 2359
217 135 3143
218 135 3181
219 135 6345
220 135 3378
221 135 913
222 135 1953
223 135 2148
224 135 4694
225 135 5421
226 135 4377
227 135 3749
228 135 3112
229 135 5730
230 135 1618
231 135 3611
232 135 3137
233 135 2619
234 135 3415
235 135 5424
236 135 1768
237 135 7156
238 135 3606
239 135 3477
240 135 4234
241 135 2636
242 135 3389
243 135 2686
244 135 1702
245 135 2788
246 135 7378
247 135 6789
248 135 2120
249 135 6389
250 135 3214
251 135 2279
252 135 2619
253 135 2983
254 135 3450
255 135 6174
256 135 5307
257 135 4515
258 135 3385
259 135 4599
260 135 5281
261 135 2908
262 135 2612
263 135 3752
264 135 4581
265 135 4406
266 135 1287
267 135 2091
268 135 4140
269 135 3741
270 135 6249
271 135 2641
272 135 3348
273 135 3338
274 135 3387
275 135 4129
276 135 5447
277 135 2889
278 135 5242
279 135 3241
280 135 3613
281 135 3080
282 135 2040
283 135 2271
284 135 3207
285 135 4538
286 135 2388
287 135 2352
288 135 5349
289 135 4014
290 135 5864
291 135 3169
292 135 3776
293 135 3450
294 135 3106
295 135 3207
296 135 3980
297 135 3821
298 135 3581
299 135 3881
300 135 4361
301 135 2126
302 135 4121
303 135 4896
304 135 2901
305 135 3180
306 135 2959
307 135 3287
308 135 3543
309 135 3379
310 135 4507
311 135 3460
312 135 4353
313 135 3838
314 135 5054
315 135 885
316 135 3401
317 135 2116
318 135 2871
319 135 4190
320 135 3916
321 135 3705
322 135 2856
323 135 1823
324 135 4526
325 135 3802
326 135 2466
327 135 2641
328 135 2328
329 135 2952
330 135 3336
331 135 4202
332 135 4801
333 135 1675
334 135 3474
335 135 2265
336 135 3649
337 135 2534
338 135 4407
339 135 1915
340 135 3243
341 135 1248
342 135 2271
343 135 3624
344 135 3181
345 135 3374
346 135 4180
347 135 2257
348 135 4614
349 135 3066
350 135 5507
351 135 2222
352 135 5316
353 135 2132
354 135 4625
355 135 5166
356 135 6198
357 135 3627
358 135 1934
359 135 2876
360 135 2014
361 135 4586
362 135 4846
363 135 1587
364 135 2917
365 135 1713
366 135 2839
367 135 2053
368 135 2527
369 135 3825
370 135 2341
371 135 3420
372 135 2025
373 135 3471
374 135 3018
375 135 2920
376 135 2483
377 135 6595
378 135 3600
379 135 3236
380 135 4067
381 135 4490
382 135 2826
383 135 1486
384 135 2275
385 135 2472
386 135 7139
387 135 2538
388 135 3068
389 135 2368
390 135 3346
391 135 4504
392 135 6664
393 135 3139
394 135 1927
395 135 2719
396 135 3014
397 135 3675
398 135 4729
399 135 2892
400 135 3893
401 135 4623
402 135 2962
403 135 3233
404 135 2365
405 135 7475
406 135 2737
407 135 2123
408 135 1298
409 135 1869
410 135 1576
411 135 2231
412 135 3409
413 135 2853
414 135 6006
415 135 3461
416 135 4997
417 135 6804
418 135 2409
419 135 3337
420 135 3931
421 135 2338
422 135 2486
423 135 3513
424 135 1561
425 135 2020
426 135 3731
427 135 3353
428 135 3644
429 135 5212
430 135 2179
431 135 7441
432 135 2172
433 135 3862
434 135 1654
435 135 4434
436 135 1640
437 135 4227
438 135 2573
439 135 2300
440 135 5180
441 135 4847
442 135 4224
443 135 3464
444 135 3621
445 135 3203
446 135 4003
447 135 3785
448 135 2647
449 135 6447
450 135 5503
451 135 4456
452 135 3578
453 135 4558
454 135 4353
455 135 3431
456 135 2141
457 135 3924
458 135 1991
459 135 4027
460 135 3220
461 135 2534
462 135 3212
463 135 5010
464 135 3965
465 135 6534
466 135 6718
467 135 5304
468 135 1883
469 135 5477
470 135 2802
471 135 4373
472 135 3318
473 135 1977
474 135 4461
475 135 4091
476 135 7781
477 135 3313
478 135 3334
479 135 6541
480 135 1856
481 135 3242
482 135 4191
483 135 6515
484 135 1944
485 135 3452
486 135 2851
487 135 3420
488 135 1997
489 135 3823
490 135 6279
491 135 2854
492 135 4453
493 135 1179
494 135 4053
495 135 2074
496 135 2025
497 135 1673
498 135 3820
499 135 3447
500 135 4963
1 136 1701
2 136 2267
3 136 3475
4 136 1195
5 136 2692
6 136 2950
7 136 3287
8 136 3711
9 136 1921
10 136 2978
11 136 2909
12 136 2965
13 136 2777
14 136 4925
15 136 3875
16 136 3186
17 136 3163
18 136 2060
19 136 4893
20 136 1491
21 136 2920
22 136 1947
23 136 2870
24 136 4111
25 136 1329
26 136 3305
27 136 4279
28 136 4866
29 136 2444
30 136 5516
31 136 3981
32 136 2590
33 136 2545
34 136 2292
35 136 1679
36 136 2972
37 136 2003
38 136 3503
39 136 3116
40 136 3278
41 136 3736
42 136 3387
43 136 4559
44 136 2092
45 136 3663
46 136 3867
47 136 2858
48 136 2180
49 136 2407
50 136 3432
51 136 2811
52 136 2836
53 136 4172
54 136 3206
55 136 5526
56 136 4108
57 136 1207
58 136 3210
59 136 5710
60 136 4054
61 136 2540
62 136 2221
63 136 4914
64 136 1197
65 136 1903
66 136 2693
67 136 2997
68 136 2694
69 136 2646
70 136 2339
71 136 1273
72 136 3225
73 136 4115
74 136 2102
75 136 5753
76 136 7518
77 136 2626
78 136 6373
79 136 5141
80 136 1283
81 136 2826
82 136 2912
83 136 2221
84 136 3867
85 136 4877
86 136 2783
87 136 3719
88 136 3058
89 136 3871
90 136 2716
91 136 2093
92 136 2671
93 136 2288
94 136 5616
95 136 2747
96 136 3206
97 136 3586
98 136 1881
99 136 3310
100 136 3891
101 136 3332
102 136 2793
103 136 2168
104 136 3302
105 136 3933
106 136 5492
107 136 2316
108 136 2916
109 136 2722
110 136 3293
111 136 2866
112 136 1461
113 136 1265
114 136 2497
115 136 3128
116 136 3426
117 136 3739
118 136 5618
119 136 2029
120 136 2501
121 136 5015
122 136 5230
123 136 920
124 136 3219
125 136 4165
126 136 3854
127 136 4722
128 136 4086
129 136 3929
130 136 2987
131 136 4060
132 136 4129
133 136 3108
134 136 3493
135 136 1939
136 136 3368
137 136 3060
138 136 6693
139 136 1944
140 136 2486
141 136 3128
142 136 1692
143 136 2775
144 136 3214
145 136 4255
146 136 4912
147 136 3774
148 136 2154
149 136 3383
150 136 2923
151 136 2757
152 136 3032
153 136 2833
154 136 2685
155 136 3959
156 136 3815
157 136 1642
158 136 3851
159 136 3163
160 136 2826
161 136 2863
162 136 4612
163 136 2449
164 136 2029
165 136 3855
166 136 1504
167 136 1307
168 136 3290
169 136 3104
170 136 3560
171 136 3149
172 136 1728
173 136 4599
174 136 4349
175 136 3149
176 136 3301
177 136 3309
178 136 3042
179 136 4177
180 136 1794
181 136 3973
182 136 2938
183 136 2214
184 136 4026
185 136 4708
186 136 2619
187 136 2776
188 136 1974
189 136 5055
190 136 3665
191 136 3140
192 136 2319
193 136 3094
194 136 2222
195 136 2696
196 136 2948
197 136 2033
198 136 1950
199 136 4546
200 136 3643
201 136 1340
202 136 3577
203 136 6950
204 136 3708
205 136 5531
206 136 2650
207 136 5328
208 136 3091
209 136 2880
210 136 2784
211 136 4723
212 136 2603
213 136 4075
214 136 3992
215 136 1603
216 136 2177
217 136 4253
218 136 2326
219 136 3914
220 136 2123
221 136 1241
222 136 3083
223 136 2682
224 136 3291
225 136 2061
226 136 3034
227 136 5647
228 136 1909
229 136 2894
230 136 1431
231 136 3041
232 136 3418
233 136 5486
234 136 2855
235 136 3291
236 136 1506
237 136 1737
238 136 2396
239 136 4305
240 136 3416
241 136 2199
242 136 3414
243 136 2980
244 136 2236
245 136 2876
246 136 5196
247 136 3728
248 136 3361
249 136 3836
250 136 1921
251 136 3387
252 136 2072
253 136 5465
254 136 2976
255 136 6937
256 136 3851
257 136 2995
258 136 4113
259 136 4666
260 136 2659
261 136 2295
262 136 3338
263 136 4504
264 136 3023
265 136 3134
266 136 1699
267 136 1605
268 136 4077
269 136 3285
270 136 3819
271 136 3843
272 136 2647
273 136 3000
274 136 2772
275 136 3281
276 136 5363
277 136 1726
278 136 3435
279 136 2959
280 136 3446
281 136 2231
282 136 3594
283 136 3336
284 136 3837
285 136 6499
286 136 1706
287 136 2902
288 136 2220
289 136 3335
290 136 2103
291 136 4662
292 136 3926
293 136 4478
294 136 3541
295 136 2609
296 136 3065
297 136 2368
298 136 2709
299 136 4458
300 136 2528
301 136 2900
302 136 4038
303 136 4200
304 136 5203
305 136 9026
306 136 1291
307 136 3274
308 136 2259
309 136 2760
310 136 2753
311 136 3465
312 136 2809
313 136 1956
314 136 4049
315 136 1143
316 136 5305
317 136 3874
318 136 6339
319 136 3946
320 136 2645
321 136 2410
322 136 3098
323 136 3952
324 136 2722
325 136 4951
326 136 4122
327 136 2555
328 136 3541
329 136 3785
330 136 3326
331 136 2207
332 136 3242
333 136 1578
334 136 4680
335 136 2850
336 136 5635
337 136 2520
338 136 3875
339 136 2274
340 136 2564
341 136 3746
342 136 3507
343 136 3862
344 136 3046
345 136 2970
346 136 2494
347 136 2756
348 136 2271
349 136 3972
350 136 2038
351 136 3120
352 136 2678
353 136 2795
354 136 4690
355 136 2978
356 136 3228
357 136 4471
358 136 3744
359 136 2330
360 136 3256
361 136 4687
362 136 2203
363 136 2600
364 136 3474
365 136 6558
366 136 3171
367 136 3121
368 136 2191
369 136 1662
370 136 2820
371 136 4333
372 136 3107
373 136 5470
374 136 5551
375 136 2891
376 136 1846
377 136 5673
378 136 3716
379 136 2897
380 136 3516
381 136 4726
382 136 2977
383 136 2163
384 136 3911
385 136 3236
386 136 3367
387 136 2538
388 136 1937
389 136 2418
390 136 4519
391 136 3793
392 136 1411
393 136 3443
394 136 4012
395 136 3426
396 136 2274
397 136 3708
398 136 3773
399 136 3358
400 136 2488
401 136 2451
402 136 2465
403 136 2339
404 136 3962
405 136 3652
406 136 2255
407 136 1948
408 136 2804
409 136 2133
410 136 2447
411 136 3424
412 136 2207
413 136 3436
414 136 6895
415 136 4481
416 136 2794
417 136 5257
418 136 3701
419 136 2476
420 136 4086
421 136 1316
422 136 1708
423 136 4556
424 136 1926
425 136 1787
426 136 3330
427 136 2665
428 136 1705
429 136 4031
430 136 2303
431 136 3986
432 136 2740
433 136 2604
434 136 3092
435 136 2991
436 136 3249
437 136 4310
438 136 1785
439 136 2395
440 136 4471
441 136 1667
442 136 1563
443 136 2194
444 136 3415
445 136 2481
446 136 3214
447 136 1883
448 136 2278
449 136 2522
450 136 2734
451 136 2536
452 136 4044
453 136 3567
454 136 6966
455 136 2998
456 136 3663
457 136 2526
458 136 1713
459 136 3244
460 136 2963
461 136 2392
462 136 4017
463 136 3770
464 136 6501
465 136 5620
466 136 5678
467 136 3230
468 136 1100
469 136 3348
470 136 1904
471 136 3528
472 136 2894
473 136 3214
474 136 3161
475 136 2725
476 136 2651
477 136 2927
478 136 2247
479 136 3549
480 136 3662
481 136 4313
482 136 3914
483 136 3477
484 136 2190
485 136 2173
486 136 2927
487 136 3583
488 136 3114
489 136 4598
490 136 1652
491 136 3157
492 136 4621
493 136 1655
494 136 4381
495 136 1427
496 136 3175
497 136 1637
498 136 5055
499 136 2291
500 136 3856
7 137 12
10 137 4
17 137 4
19 137 5
22 137 10
24 137 5
25 137 3
26 137 6
31 137 5
40 137 5
41 137 4
42 137 19
44 137 4
52 137 6
55 137 1
56 137 5
57 137 5
65 137 2
69 137 5
74 137 5
81 137 4
87 137 4
96 137 2
98 137 2
100 137 2
109 137 3
113 137 5
120 137 1
123 137 4
124 137 5
126 137 11
127 137 2
132 137 9
136 137 2
143 137 4
144 137 2
146 137 4
148 137 1
150 137 3
151 137 6
153 137 22
160 137 5
177 137 6
185 137 8
187 137 4
190 137 5
192 137 5
196 137 7
197 137 6
199 137 4
200 137 2
204 137 6
211 137 1
213 137 6
217 137 6
221 137 1
229 137 5
234 137 2
237 137 1
239 137 5
250 137 3
252 137 3
258 137 4
259 137 6
260 137 2
275 137 11
281 137 7
284 137 6
287 137 6
289 137 10
293 137 4
303 137 2
304 137 1
307 137 2
313 137 6
314 137 2
315 137 2
317 137 3
322 137 4
323 137 5
325 137 14
328 137 4
334 137 4
339 137 11
341 137 4
342 137 5
349 137 11
352 137 8
354 137 3
356 137 5
361 137 3
362 137 6
363 137 1
366 137 4
367 137 7
368 137 4
378 137 19
380 137 5
381 137 3
382 137 8
383 137 3
386 137 7
387 137 3
390 137 5
394 137 5
399 137 4
411 137 4
413 137 13
423 137 4
424 137 3
426 137 4
429 137 3
431 137 2
435 137 3
444 137 5
446 137 8
450 137 4
453 137 2
459 137 13
467 137 5
469 137 2
471 137 3
474 137 4
483 137 2
492 137 7
494 137 6
1 138 15498
2 138 9169
3 138 5792
4 138 5941
5 138 9623
6 138 11973
7 138 6011
8 138 8416
9 138 3796
10 138 5280
11 138 5942
12 138 7369
13 138 6384
14 138 10263
15 138 8199
16 138 12648
17 138 10896
18 138 6309
19 138 14887
20 138 6560
21 138 8672
22 138 9157
23 138 4551
24 138 10249
25 138 3425
26 138 5990
27 138 13902
28 138 6706
29 138 7719
30 138 8538
31 138 3670
32 138 3410
33 138 9559
34 138 10308
35 138 8007
36 138 9974
37 138 12362
38 138 8154
39 138 10141
40 138 7183
41 138 14768
42 138 6185
43 138 8497
44 138 5929
45 138 9465
46 138 10826
47 138 10882
48 138 10774
49 138 9449
50 138 11076
51 138 10991
52 138 12010
53 138 6993
54 138 3941
55 138 5378
56 138 7315
57 138 7680
58 138 6523
59 138 8681
60 138 7876
61 138 7766
62 138 9168
63 138 9325
64 138 14767
65 138 10930
66 138 5760
67 138 6130
68 138 13949
69 138 3569
70 138 9800
71 138 6846
72 138 5002
73 138 8972
74 138 4740
75 138 8671
76 138 4545
77 138 8896
78 138 11603
79 138 10694
80 138 6123
81 138 11071
82 138 4597
83 138 10211
84 138 7636
85 138 8456
86 138 5341
87 138 9869
88 138 10083
89 138 4840
90 138 10323
91 138 8607
92 138 11465
93 138 4537
94 138 7068
95 138 11840
96 138 12591
97 138 6239
98 138 10914
99 138 8124
100 138 3798
101 138 11399
102 138 9013
103 138 5300
104 138 8062
105 138 7941
106 138 8476
107 138 2893
108 138 6214
109 138 6233
110 138 4617
111 138 4834
112 138 4547
113 138 5539
114 138 9047
115 138 8829
116 138 3861
117 138 10260
118 138 8809
119 138 4336
120 138 5967
121 138 8621
122 138 5382
123 138 6344
124 138 9143
125 138 6454
126 138 5405
127 138 7100
128 138 7339
129 138 5062
130 138 4934
131 138 10539
132 138 4219
133 138 7271
134 138 11617
135 138 6482
136 138 10489
137 138 6115
138 138 5106
139 138 4912
140 138 6866
141 138 9412
142 138 4426
143 138 10372
144 138 6838
145 138 8068
146 138 15085
147 138 10216
148 138 4648
149 138 8656
150 138 6201
151 138 5181
152 138 9012
153 138 2899
154 138 6694
155 138 6678
156 138 7495
157 138 5701
158 138 6257
159 138 5156
160 138 5878
161 138 5371
162 138 6191
163 138 10010
164 138 7433
165 138 8381
166 138 6502
167 138 5438
168 138 8081
169 138 12883
170 138 11575
171 138 4067
172 138 4667
173 138 12407
174 138 7498
175 138 5125
176 138 7585
177 138 13529
178 138 4152
179 138 10403
180 138 8468
181 138 7935
182 138 7296
183 138 7377
184 138 5313
185 138 9419
186 138 6548
187 138 11073
188 138 8556
189 138 9228
190 138 4245
191 138 8844
192 138 9382
193 138 6064
194 138 6204
195 138 13985
196 138 6489
197 138 4795
198 138 4147
199 138 6456
200 138 4421
201 138 11048
202 138 11218
203 138 11424
204 138 8257
205 138 5193
206 138 5864
207 138 6929
208 138 6019
209 138 4847
210 138 8278
211 138 7350
212 138 3177
213 138 7269
214 138 20153
215 138 4511
216 138 14047
217 138 6923
218 138 5403
219 138 6050
220 138 10157
221 138 3792
222 138 5111
223 138 3307
224 138 6567
225 138 6229
226 138 6221
227 138 12971
228 138 6541
229 138 5285
230 138 2678
231 138 7380
232 138 9881
233 138 11681
234 138 5900
235 138 8361
236 138 2556
237 138 4828
238 138 8519
239 138 7839
240 138 6904
241 138 9586
242 138 6446
243 138 7427
244 138 6860
245 138 9140
246 138 11885
247 138 6428
248 138 3427
249 138 6106
250 138 6552
251 138 6705
252 138 8163
253 138 8721
254 138 13055
255 138 12983
256 138 10109
257 138 7181
258 138 7760
259 138 9483
260 138 5284
261 138 17598
262 138 11287
263 138 9275
264 138 7340
265 138 6334
266 138 4580
267 138 6356
268 138 3608
269 138 9479
270 138 5920
271 138 10751
272 138 8646
273 138 9581
274 138 5322
275 138 6199
276 138 4966
277 138 7644
278 138 4225
279 138 4870
280 138 7272
281 138 7076
282 138 9645
283 138 3791
284 138 8920
285 138 8790
286 138 5693
287 138 11904
288 138 7156
289 138 6028
290 138 6860
291 138 10141
292 138 8858
293 138 7963
294 138 6648
295 138 5420
296 138 6758
297 138 8558
298 138 7359
299 138 8078
300 138 8365
301 138 7069
302 138 8543
303 138 12997
304 138 9223
305 138 11230
306 138 7300
307 138 6740
308 138 12177
309 138 9099
310 138 5489
311 138 6392
312 138 10798
313 138 6843
314 138 7306
315 138 3796
316 138 6780
317 138 8357
318 138 11449
319 138 7191
320 138 8072
321 138 8511
322 138 10536
323 138 3779
324 138 13742
325 138 7441
326 138 6306
327 138 7631
328 138 10643
329 138 9594
330 138 5073
331 138 5408
332 138 6702
333 138 6124
334 138 8551
335 138 5737
336 138 13058
337 138 6629
338 138 12686
339 138 7128
340 138 15362
341 138 4636
342 138 10420
343 138 5702
344 138 4873
345 138 5401
346 138 9803
347 138 5721
348 138 9377
349 138 9148
350 138 6445
351 138 3954
352 138 5258
353 138 3925
354 138 9649
355 138 8632
356 138 6981
357 138 9736
358 138 6332
359 138 8176
360 138 9241
361 138 9696
362 138 4333
363 138 7038
364 138 4350
365 138 5126
366 138 6900
367 138 6787
368 138 6354
369 138 10203
370 138 8815
371 138 8773
372 138 9354
373 138 6883
374 138 8621
375 138 10271
376 138 4937
377 138 14087
378 138 8015
379 138 4391
380 138 5572
381 138 9362
382 138 8547
383 138 4950
384 138 4765
385 138 5042
386 138 13379
387 138 2981
388 138 11140
389 138 5340
390 138 8003
391 138 3194
392 138 5023
393 138 3846
394 138 3895
395 138 5839
396 138 6530
397 138 8125
398 138 6675
399 138 5006
400 138 5159
401 138 4970
402 138 8165
403 138 6921
404 138 7195
405 138 5991
406 138 5220
407 138 4109
408 138 4581
409 138 5127
410 138 4018
411 138 10344
412 138 10152
413 138 4780
414 138 6340
415 138 7221
416 138 8338
417 138 3939
418 138 8113
419 138 8316
420 138 6680
421 138 5683
422 138 5550
423 138 7892
424 138 4463
425 138 8004
426 138 12906
427 138 6882
428 138 10186
429 138 7422
430 138 4686
431 138 13023
432 138 5639
433 138 7572
434 138 5779
435 138 6242
436 138 5808
437 138 3617
438 138 5484
439 138 8800
440 138 8569
441 138 4510
442 138 8333
443 138 8118
444 138 13106
445 138 8500
446 138 6041
447 138 6747
448 138 9553
449 138 5077
450 138 5280
451 138 8342
452 138 5410
453 138 13909
454 138 10322
455 138 4831
456 138 6993
457 138 10157
458 138 4884
459 138 5978
460 138 4858
461 138 6460
462 138 8851
463 138 8752
464 138 11631
465 138 14027
466 138 14024
467 138 13842
468 138 7350
469 138 8677
470 138 6220
471 138 8849
472 138 5295
473 138 5151
474 138 6128
475 138 5832
476 138 10532
477 138 5264
478 138 6135
479 138 8670
480 138 7337
481 138 4217
482 138 8401
483 138 7676
484 138 4231
485 138 6193
486 138 8097
487 138 7936
488 138 5048
489 138 9250
490 138 8465
491 138 6515
492 138 12991
493 138 5344
494 138 8138
495 138 9959
496 138 5025
497 138 6294
498 138 7860
499 138 6673
500 138 9182
1 139 4557
2 139 5020
3 139 8068
4 139 9508
5 139 5056
6 139 4042
7 139 3767
8 139 5341
9 139 4690
10 139 8718
11 139 2193
12 139 3599
13 139 10221
14 139 9160
15 139 5620
16 139 9120
17 139 5148
18 139 8254
19 139 13930
20 139 4238
21 139 5185
22 139 10072
23 139 7451
24 139 8054
25 139 5029
26 139 3787
27 139 5611
28 139 3392
29 139 3696
30 139 7690
31 139 6241
32 139 3533
33 139 10719
34 139 4690
35 139 3058
36 139 6515
37 139 13877
38 139 12066
39 139 7249
40 139 6217
41 139 7106
42 139 6342
43 139 10385
44 139 4273
45 139 7861
46 139 9764
47 139 6981
48 139 5331
49 139 3726
50 139 4059
51 139 8585
52 139 7895
53 139 13089
54 139 4215
55 139 8082
56 139 6654
57 139 7896
58 139 8867
59 139 7686
60 139 8549
61 139 5349
62 139 3606
63 139 9923
64 139 3642
65 139 11665
66 139 9567
67 139 10701
68 139 5834
69 139 3448
70 139 7013
71 139 6173
72 139 5036
73 139 7978
74 139 3468
75 139 7743
76 139 14844
77 139 4178
78 139 7694
79 139 9763
80 139 3733
81 139 8371
82 139 8602
83 139 9669
84 139 6781
85 139 5200
86 139 5768
87 139 7637
88 139 7578
89 139 7414
90 139 6177
91 139 8265
92 139 4216
93 139 3120
94 139 8176
95 139 4412
96 139 9358
97 139 5786
98 139 11713
99 139 3637
100 139 6241
101 139 5381
102 139 4023
103 139 5833
104 139 7081
105 139 4125
106 139 7694
107 139 4310
108 139 7384
109 139 5183
110 139 6467
111 139 5422
112 139 2646
113 139 4508
114 139 8599
115 139 6446
116 139 4261
117 139 6682
118 139 5162
119 139 4752
120 139 8886
121 139 9992
122 139 5573
123 139 6391
124 139 4088
125 139 4733
126 139 5906
127 139 7246
128 139 9043
129 139 5422
130 139 5448
131 139 10990
132 139 6680
133 139 3781
134 139 7212
135 139 3105
136 139 6391
137 139 8957
138 139 5558
139 139 6148
140 139 6317
141 139 3425
142 139 7432
143 139 6048
144 139 5529
145 139 5191
146 139 13795
147 139 3577
148 139 3625
149 139 7082
150 139 3633
151 139 6453
152 139 12059
153 139 5943
154 139 4565
155 139 9155
156 139 9628
157 139 1750
158 139 9909
159 139 5033
160 139 4900
161 139 5779
162 139 7866
163 139 5778
164 139 7311
165 139 10969
166 139 6647
167 139 3469
168 139 6299
169 139 9144
170 139 7433
171 139 4329
172 139 2617
173 139 7063
174 139 5601
175 139 4899
176 139 9139
177 139 8648
178 139 5786
179 139 10885
180 139 6431
181 139 8123
182 139 5511
183 139 3935
184 139 4404
185 139 5784
186 139 6253
187 139 8350
188 139 11686
189 139 4726
190 139 6627
191 139 8703
192 139 4715
193 139 8943
194 139 6999
195 139 7475
196 139 13601
197 139 5752
198 139 2734
199 139 14075
200 139 4210
201 139 5546
202 139 4800
203 139 9616
204 139 6625
205 139 9817
206 139 5470
207 139 4169
208 139 8966
209 139 5385
210 139 9653
211 139 6695
212 139 10409
213 139 4878
214 139 6315
215 139 7467
216 139 9240
217 139 11762
218 139 4791
219 139 4198
220 139 9715
221 139 3225
222 139 5066
223 139 3640
224 139 8709
225 139 8103
226 139 6443
227 139 10473
228 139 3175
229 139 9778
230 139 8470
231 139 3473
232 139 11956
233 139 4647
234 139 10065
235 139 11929
236 139 6807
237 139 5407
238 139 5556
239 139 9993
240 139 7668
241 139 5663
242 139 8138
243 139 7631
244 139 3505
245 139 4185
246 139 5729
247 139 6182
248 139 6290
249 139 4122
250 139 4261
251 139 4116
252 139 13514
253 139 7675
254 139 9317
255 139 6528
256 139 9064
257 139 5717
258 139 6742
259 139 5678
260 139 5339
261 139 10403
262 139 3952
263 139 7697
264 139 5653
265 139 6232
266 139 2349
267 139 6699
268 139 7184
269 139 3481
270 139 5333
271 139 4776
272 139 6078
273 139 5360
274 139 5743
275 139 3820
276 139 4417
277 139 4409
278 139 6189
279 139 5447
280 139 11093
281 139 9724
282 139 4489
283 139 9102
284 139 4711
285 139 7911
286 139 4939
287 139 7836
288 139 9923
289 139 3886
290 139 5481
291 139 6997
292 139 6792
293 139 10050
294 139 5553
295 139 4988
296 139 6420
297 139 3758
298 139 5361
299 139 11081
300 139 7379
301 139 3497
302 139 8415
303 139 9772
304 139 6448
305 139 9337
306 139 7448
307 139 5597
308 139 5557
309 139 7327
310 139 7665
311 139 8007
312 139 6802
313 139 7722
314 139 7984
315 139 3254
316 139 8343
317 139 15931
318 139 7586
319 139 9569
320 139 8609
321 139 3682
322 139 4516
323 139 6412
324 139 5696
325 139 5004
326 139 8411
327 139 6085
328 139 6320
329 139 8914
330 139 6175
331 139 5829
332 139 8893
333 139 7078
334 139 4774
335 139 6254
336 139 10545
337 139 7687
338 139 5943
339 139 13932
340 139 5998
341 139 5504
342 139 6230
343 139 4890
344 139 5593
345 139 5662
346 139 6729
347 139 4833
348 139 5035
349 139 5168
350 139 8108
351 139 4449
352 139 5325
353 139 5503
354 139 5578
355 139 6258
356 139 6025
357 139 5923
358 139 4659
359 139 4921
360 139 8482
361 139 5695
362 139 5316
363 139 3934
364 139 9252
365 139 5588
366 139 6336
367 139 11488
368 139 7589
369 139 6059
370 139 3215
371 139 5618
372 139 8309
373 139 8155
374 139 7695
375 139 9291
376 139 5385
377 139 7818
378 139 5359
379 139 4647
380 139 4351
381 139 5664
382 139 8109
383 139 3377
384 139 5517
385 139 6329
386 139 7746
387 139 1982
388 139 4399
389 139 3388
390 139 10176
391 139 8215
392 139 6036
393 139 4231
394 139 6313
395 139 8141
396 139 5543
397 139 3137
398 139 5663
399 139 5379
400 139 8057
401 139 6643
402 139 5051
403 139 6014
404 139 13417
405 139 7345
406 139 7691
407 139 2799
408 139 6835
409 139 5730
410 139 9154
411 139 6496
412 139 9859
413 139 5197
414 139 7781
415 139 3919
416 139 9864
417 139 10869
418 139 6278
419 139 7589
420 139 6148
421 139 4125
422 139 5288
423 139 10176
424 139 2841
425 139 4611
426 139 9602
427 139 3704
428 139 6019
429 139 8157
430 139 3136
431 139 5900
432 139 4988
433 139 5251
434 139 13467
435 139 5457
436 139 13573
437 139 7191
438 139 11169
439 139 8588
440 139 6967
441 139 7540
442 139 6564
443 139 7562
444 139 9659
445 139 2784
446 139 3741
447 139 10938
448 139 5745
449 139 4503
450 139 5349
451 139 7297
452 139 5628
453 139 7553
454 139 7439
455 139 8473
456 139 3785
457 139 4349
458 139 4921
459 139 3915
460 139 5549
461 139 3274
462 139 4873
463 139 5394
464 139 6550
465 139 7848
466 139 8082
467 139 4248
468 139 3004
469 139 11298
470 139 6338
471 139 8115
472 139 5670
473 139 5049
474 139 11099
475 139 9529
476 139 4818
477 139 5756
478 139 7128
479 139 5985
480 139 3178
481 139 7016
482 139 8384
483 139 11744
484 139 1692
485 139 7138
486 139 8555
487 139 4139
488 139 5095
489 139 7616
490 139 6188
491 139 8968
492 139 9540
493 139 6343
494 139 9727
495 139 9463
496 139 4987
497 139 7302
498 139 7937
499 139 3831
500 139 5692
1 140 69
2 140 142
3 140 81
4 140 21
5 140 14
6 140 67
7 140 41
8 140 12
9 140 40
10 140 42
11 140 15
12 140 30
13 140 7
14 140 50
15 140 69
16 140 49
17 140 16
18 140 45
19 140 8
20 140 36
21 140 61
22 140 49
23 140 61
24 140 84
25 140 24
26 140 39
27 140 49
28 140 67
29 140 9
31 140 5
32 140 4
33 140 32
34 140 67
35 140 32
36 140 47
37 140 125
38 140 6
39 140 85
40 140 96
41 140 55
42 140 45
43 140 7
44 140 19
45 140 39
46 140 32
47 140 76
48 140 157
49 140 24
50 140 24
51 140 72
52 140 44
53 140 17
54 140 37
55 140 12
56 140 41
57 140 38
58 140 54
60 140 9
61 140 72
62 140 41
63 140 24
64 140 48
65 140 59
66 140 34
67 140 53
68 140 69
69 140 50
70 140 89
71 140 26
72 140 43
73 140 51
74 140 54
76 140 10
77 140 23
78 140 34
79 140 35
80 140 34
81 140 65
82 140 17
83 140 40
84 140 27
85 140 103
86 140 9
87 140 39
88 140 64
89 140 49
90 140 41
91 140 24
92 140 49
93 140 52
94 140 90
95 140 7
96 140 106
97 140 97
98 140 57
99 140 21
100 140 3
101 140 98
102 140 29
103 140 20
104 140 82
105 140 26
107 140 67
108 140 45
109 140 30
110 140 74
111 140 19
112 140 32
113 140 31
114 140 31
116 140 42
117 140 34
118 140 71
119 140 20
120 140 28
121 140 52
122 140 43
123 140 26
124 140 22
125 140 73
126 140 24
127 140 119
128 140 20
129 140 40
130 140 19
131 140 9
132 140 57
133 140 46
134 140 56
135 140 24
136 140 29
137 140 79
138 140 52
139 140 45
140 140 68
141 140 15
142 140 98
143 140 58
144 140 9
145 140 101
146 140 18
147 140 31
148 140 57
149 140 71
150 140 103
151 140 29
152 140 10
153 140 42
154 140 50
155 140 36
156 140 40
157 140 19
158 140 77
159 140 61
160 140 61
161 140 18
162 140 15
163 140 37
164 140 60
165 140 97
166 140 54
167 140 6
168 140 47
169 140 46
170 140 42
171 140 34
172 140 34
173 140 91
174 140 3
175 140 55
176 140 107
177 140 94
178 140 11
179 140 9
180 140 34
181 140 23
182 140 86
183 140 2
184 140 18
185 140 34
186 140 25
187 140 53
188 140 92
189 140 10
190 140 80
191 140 59
192 140 34
193 140 77
194 140 33
195 140 50
196 140 28
197 140 31
198 140 24
199 140 43
200 140 35
201 140 67
202 140 23
203 140 92
204 140 29
205 140 70
206 140 45
207 140 51
208 140 75
209 140 24
210 140 62
211 140 79
212 140 38
213 140 66
214 140 78
215 140 103
216 140 50
217 140 26
218 140 94
219 140 28
220 140 33
221 140 40
222 140 52
223 140 7
224 140 16
225 140 45
226 140 69
227 140 62
228 140 40
229 140 12
230 140 35
231 140 40
232 140 79
233 140 87
234 140 54
235 140 11
236 140 20
237 140 28
238 140 15
239 140 26
240 140 38
241 140 116
242 140 31
243 140 40
244 140 32
245 140 16
246 140 141
247 140 20
248 140 47
249 140 41
250 140 29
251 140 72
252 140 105
254 140 35
255 140 99
256 140 41
257 140 49
258 140 73
259 140 39
260 140 27
261 140 91
262 140 34
263 140 45
264 140 57
265 140 72
266 140 40
267 140 51
268 140 87
269 140 21
270 140 34
271 140 85
272 140 29
273 140 6
274 140 7
275 140 34
276 140 53
277 140 33
278 140 126
279 140 21
280 140 57
281 140 30
282 140 21
283 140 29
284 140 96
285 140 104
286 140 17
287 140 50
288 140 52
289 140 45
290 140 28
291 140 35
292 140 52
293 140 22
294 140 46
295 140 38
296 140 152
297 140 38
298 140 10
299 140 105
300 140 11
301 140 69
302 140 90
303 140 77
304 140 47
305 140 130
306 140 39
307 140 11
308 140 90
309 140 66
310 140 19
311 140 28
312 140 53
313 140 47
314 140 18
315 140 14
316 140 44
317 140 131
318 140 37
319 140 53
320 140 127
321 140 35
322 140 65
323 140 2
324 140 53
325 140 58
326 140 17
327 140 36
328 140 26
329 140 52
330 140 24
331 140 41
332 140 16
333 140 42
334 140 21
335 140 63
336 140 59
337 140 28
338 140 5
339 140 105
340 140 56
341 140 38
342 140 28
343 140 89
344 140 20
345 140 8
346 140 50
347 140 44
348 140 132
349 140 103
350 140 41
351 140 41
352 140 19
353 140 9
354 140 41
355 140 172
356 140 125
357 140 69
358 140 29
359 140 73
360 140 81
361 140 33
362 140 62
363 140 16
364 140 45
365 140 54
366 140 18
367 140 159
368 140 64
369 140 23
370 140 43
371 140 33
372 140 100
373 140 52
375 140 129
376 140 45
377 140 115
378 140 73
379 140 108
380 140 64
381 140 32
382 140 34
383 140 22
384 140 29
385 140 1
386 140 35
387 140 29
388 140 36
389 140 27
390 140 25
391 140 45
392 140 41
393 140 55
394 140 3
395 140 75
396 140 4
397 140 23
398 140 68
399 140 309
400 140 106
401 140 44
402 140 71
403 140 68
404 140 18
405 140 21
406 140 12
407 140 30
408 140 4
409 140 11
410 140 7
411 140 38
412 140 37
413 140 188
414 140 179
415 140 90
416 140 64
417 140 177
418 140 83
419 140 48
420 140 10
421 140 51
422 140 32
423 140 17
424 140 18
425 140 80
426 140 126
427 140 52
428 140 31
429 140 13
430 140 37
431 140 88
432 140 57
433 140 65
434 140 125
435 140 23
436 140 95
437 140 105
438 140 29
439 140 19
440 140 30
441 140 100
442 140 24
443 140 18
444 140 133
445 140 30
446 140 39
447 140 48
448 140 110
449 140 161
450 140 25
451 140 11
452 140 50
453 140 85
454 140 128
455 140 89
456 140 27
457 140 9
458 140 64
459 140 46
460 140 26
461 140 25
462 140 104
463 140 9
464 140 41
465 140 117
466 140 136
467 140 61
468 140 4
469 140 5
470 140 31
471 140 116
472 140 6
473 140 50
474 140 183
475 140 45
476 140 15
477 140 7
478 140 30
479 140 39
480 140 24
481 140 44
482 140 82
483 140 43
484 140 38
485 140 29
486 140 138
487 140 62
488 140 54
489 140 23
490 140 73
491 140 35
492 140 78
493 140 17
494 140 25
495 140 11
496 140 55
497 140 35
498 140 133
499 140 115
500 140 31
1 141 1240
2 141 1793
3 141 2107
4 141 2213
5 141 1914
6 141 2671
7 141 2829
8 141 3277
9 141 2628
10 141 5001
11 141 2509
12 141 3247
13 141 1745
14 141 1870
15 141 3143
16 141 2481
17 141 3069
18 141 3250
19 141 3582
20 141 1003
21 141 3247
22 141 2166
23 141 2051
24 141 2401
25 141 1448
26 141 2713
27 141 3195
28 141 1790
29 141 1570
30 141 2839
31 141 1184
32 141 2800
33 141 1728
34 141 2314
35 141 853
36 141 2100
37 141 2920
38 141 1824
39 141 1841
40 141 1877
41 141 1506
42 141 2525
43 141 1557
44 141 1486
45 141 3598
46 141 2336
47 141 2461
48 141 2576
49 141 2053
50 141 1703
51 141 2194
52 141 1773
53 141 2417
54 141 2071
55 141 1905
56 141 1332
57 141 1430
58 141 2328
59 141 2845
60 141 2138
61 141 2062
62 141 1730
63 141 3369
64 141 2305
65 141 2575
66 141 1757
67 141 3998
68 141 2264
69 141 2576
70 141 703
71 141 1497
72 141 2605
73 141 2022
74 141 1967
75 141 2795
76 141 3929
77 141 2853
78 141 1871
79 141 4086
80 141 1345
81 141 2150
82 141 2524
83 141 2643
84 141 3096
85 141 1567
86 141 2566
87 141 2747
88 141 2255
89 141 2797
90 141 2855
91 141 1805
92 141 2863
93 141 2154
94 141 3643
95 141 2019
96 141 7734
97 141 2093
98 141 2576
99 141 1834
100 141 1202
101 141 2735
102 141 2197
103 141 1232
104 141 3515
105 141 1359
106 141 2829
107 141 1125
108 141 2366
109 141 1860
110 141 1862
111 141 4179
112 141 1348
113 141 465
114 141 2525
115 141 971
116 141 3163
117 141 2636
118 141 2877
119 141 1486
120 141 1001
121 141 1805
122 141 2484
123 141 1570
124 141 1947
125 141 2697
126 141 2034
127 141 1607
128 141 3810
129 141 2416
130 141 4304
131 141 2605
132 141 2116
133 141 2771
134 141 2132
135 141 764
136 141 1818
137 141 1714
138 141 1424
139 141 2773
140 141 1620
141 141 1919
142 141 2405
143 141 2372
144 141 2306
145 141 2577
146 141 3701
147 141 3489
148 141 1913
149 141 2644
150 141 2503
151 141 2021
152 141 1255
153 141 2081
154 141 677
155 141 2199
156 141 2856
157 141 929
158 141 5054
159 141 2591
160 141 3323
161 141 2637
162 141 2174
163 141 1494
164 141 1293
165 141 2223
166 141 2976
167 141 1057
168 141 2393
169 141 2521
170 141 2163
171 141 2085
172 141 1822
173 141 4836
174 141 1479
175 141 2683
176 141 1979
177 141 4835
178 141 1308
179 141 2583
180 141 2439
181 141 1690
182 141 2464
183 141 1869
184 141 1551
185 141 3374
186 141 2533
187 141 2092
188 141 3148
189 141 3814
190 141 1440
191 141 3713
192 141 1342
193 141 1725
194 141 3164
195 141 2867
196 141 1217
197 141 1844
198 141 2323
199 141 1374
200 141 1722
201 141 636
202 141 3449
203 141 3119
204 141 1614
205 141 2616
206 141 1878
207 141 2451
208 141 1694
209 141 4168
210 141 2537
211 141 1658
212 141 1863
213 141 2161
214 141 3457
215 141 2367
216 141 1881
217 141 2519
218 141 1727
219 141 1630
220 141 2718
221 141 969
222 141 2736
223 141 2704
224 141 1056
225 141 3275
226 141 2789
227 141 2413
228 141 750
229 141 1763
230 141 1088
231 141 3254
232 141 4346
233 141 1158
234 141 2426
235 141 1846
236 141 1105
237 141 1713
238 141 1402
239 141 3665
240 141 3454
241 141 1485
242 141 1500
243 141 2373
244 141 1515
245 141 2837
246 141 3689
247 141 2008
248 141 1256
249 141 1593
250 141 1531
251 141 1808
252 141 686
253 141 2885
254 141 2018
255 141 4287
256 141 5977
257 141 2311
258 141 2194
259 141 3246
260 141 2675
261 141 3548
262 141 1782
263 141 2598
264 141 2306
265 141 2853
266 141 1797
267 141 2917
268 141 2102
269 141 1905
270 141 1127
271 141 3181
272 141 1892
273 141 2468
274 141 2656
275 141 2845
276 141 2737
277 141 2072
278 141 2882
279 141 4130
280 141 2026
281 141 2214
282 141 1181
283 141 1291
284 141 2061
285 141 2698
286 141 1030
287 141 1806
288 141 2199
289 141 2675
290 141 1195
291 141 1794
292 141 2633
293 141 3653
294 141 1533
295 141 2451
296 141 1998
297 141 2887
298 141 2990
299 141 1467
300 141 5023
301 141 1393
302 141 2118
303 141 2265
304 141 2303
305 141 5044
306 141 1606
307 141 2338
308 141 2147
309 141 1578
310 141 2551
311 141 1514
312 141 2364
313 141 2740
314 141 1926
315 141 1019
316 141 2706
317 141 3773
318 141 1834
319 141 2890
320 141 1762
321 141 2804
322 141 1253
323 141 1179
324 141 2167
325 141 2939
326 141 1895
327 141 1143
328 141 1891
329 141 1102
330 141 1222
331 141 2660
332 141 1020
333 141 2603
334 141 2805
335 141 987
336 141 2409
337 141 2330
338 141 2387
339 141 2943
340 141 2451
341 141 964
342 141 1920
343 141 1950
344 141 4245
345 141 2606
346 141 2656
347 141 1048
348 141 1734
349 141 5441
350 141 3320
351 141 2072
352 141 2689
353 141 2462
354 141 3359
355 141 1991
356 141 1886
357 141 2382
358 141 2734
359 141 2416
360 141 2320
361 141 3270
362 141 1871
363 141 1092
364 141 3984
365 141 1448
366 141 2291
367 141 2479
368 141 2495
369 141 2253
370 141 1587
371 141 2979
372 141 2341
373 141 2750
374 141 2788
375 141 2872
376 141 1066
377 141 3367
378 141 2629
379 141 2816
380 141 1482
381 141 3292
382 141 4047
383 141 1325
384 141 1565
385 141 1105
386 141 2268
387 141 1058
388 141 2620
389 141 1314
390 141 3546
391 141 2634
392 141 1955
393 141 3220
394 141 1280
395 141 2105
396 141 1056
397 141 2986
398 141 4269
399 141 1368
400 141 3552
401 141 4225
402 141 2322
403 141 1876
404 141 2128
405 141 2492
406 141 1501
407 141 2306
408 141 927
409 141 1203
410 141 1315
411 141 1903
412 141 2578
413 141 3470
414 141 3110
415 141 3443
416 141 2553
417 141 2664
418 141 2954
419 141 1962
420 141 2951
421 141 1860
422 141 2199
423 141 3524
424 141 1199
425 141 1551
426 141 7935
427 141 2775
428 141 2174
429 141 1901
430 141 2137
431 141 3001
432 141 1059
433 141 2104
434 141 1867
435 141 3206
436 141 1870
437 141 2088
438 141 1945
439 141 2590
440 141 2348
441 141 2348
442 141 2207
443 141 1897
444 141 8087
445 141 1060
446 141 2780
447 141 1030
448 141 1449
449 141 2977
450 141 2683
451 141 5006
452 141 2174
453 141 2014
454 141 3168
455 141 1321
456 141 2403
457 141 3724
458 141 1818
459 141 2752
460 141 4260
461 141 1697
462 141 2022
463 141 3303
464 141 3388
465 141 3277
466 141 3403
467 141 1825
468 141 1014
469 141 3859
470 141 2789
471 141 1315
472 141 2673
473 141 2709
474 141 3541
475 141 1785
476 141 3259
477 141 2653
478 141 3203
479 141 2956
480 141 2275
481 141 2201
482 141 2043
483 141 3473
484 141 1786
485 141 3125
486 141 2087
487 141 3355
488 141 2611
489 141 2427
490 141 2073
491 141 2247
492 141 2898
493 141 1092
494 141 2361
495 141 1752
496 141 2586
497 141 2631
498 141 2298
499 141 1437
500 141 1661
