%%MatrixMarket matrix coordinate integer general
500 141 45971
1 1 229
2 1 1092
3 1 441
4 1 91
5 1 903
6 1 942
7 1 141
8 1 658
9 1 347
10 1 1028
11 1 200
12 1 670
13 1 270
14 1 708
15 1 622
16 1 441
17 1 1270
18 1 176
19 1 544
20 1 373
21 1 423
22 1 152
23 1 221
24 1 363
25 1 359
26 1 135
27 1 123
28 1 360
29 1 507
30 1 1010
31 1 584
32 1 586
33 1 361
34 1 466
35 1 524
36 1 313
37 1 925
38 1 658
39 1 149
40 1 1372
41 1 193
42 1 340
43 1 548
44 1 509
45 1 881
46 1 233
47 1 922
48 1 717
49 1 252
50 1 153
51 1 1462
52 1 437
53 1 612
54 1 628
55 1 523
56 1 588
57 1 229
58 1 254
59 1 1117
60 1 819
61 1 431
62 1 334
63 1 502
64 1 413
65 1 463
66 1 257
67 1 562
68 1 612
69 1 368
70 1 225
71 1 189
72 1 193
73 1 495
74 1 1274
75 1 982
76 1 232
77 1 585
78 1 342
79 1 713
80 1 401
81 1 620
82 1 55
83 1 285
84 1 886
85 1 504
86 1 1144
87 1 288
88 1 122
89 1 465
90 1 214
91 1 289
92 1 945
93 1 1055
94 1 552
95 1 787
96 1 191
97 1 1013
98 1 474
99 1 467
100 1 548
101 1 942
102 1 102
103 1 602
104 1 467
105 1 86
106 1 1101
107 1 231
108 1 111
109 1 309
110 1 556
111 1 550
112 1 205
113 1 131
114 1 703
115 1 444
116 1 239
117 1 106
118 1 218
119 1 219
120 1 139
121 1 720
122 1 932
123 1 450
124 1 1005
125 1 544
126 1 288
127 1 542
128 1 1331
129 1 375
130 1 518
131 1 331
132 1 631
133 1 994
134 1 678
135 1 227
136 1 963
137 1 517
138 1 229
139 1 471
140 1 77
141 1 636
142 1 553
143 1 124
144 1 336
145 1 249
146 1 602
147 1 400
148 1 1235
149 1 397
150 1 222
151 1 268
152 1 375
153 1 104
154 1 345
155 1 421
156 1 569
157 1 378
158 1 1081
159 1 176
160 1 203
161 1 1128
162 1 420
163 1 362
164 1 488
165 1 316
166 1 990
167 1 133
168 1 124
169 1 399
170 1 739
171 1 634
172 1 273
173 1 742
174 1 820
175 1 198
176 1 1110
177 1 943
178 1 693
179 1 302
180 1 793
181 1 1120
182 1 111
183 1 256
184 1 145
185 1 777
186 1 824
187 1 634
188 1 340
189 1 204
190 1 911
191 1 401
192 1 531
193 1 490
194 1 698
195 1 120
196 1 710
197 1 955
198 1 280
199 1 794
200 1 442
201 1 402
202 1 466
203 1 376
204 1 396
205 1 877
206 1 466
207 1 607
208 1 489
209 1 536
210 1 254
211 1 907
212 1 87
213 1 84
214 1 550
215 1 568
216 1 140
217 1 966
218 1 433
219 1 370
220 1 278
221 1 384
222 1 180
223 1 567
224 1 947
225 1 208
226 1 405
227 1 407
228 1 251
229 1 222
230 1 640
231 1 619
232 1 203
233 1 332
234 1 207
235 1 628
236 1 281
237 1 322
238 1 274
239 1 356
240 1 290
241 1 494
242 1 726
243 1 237
244 1 92
245 1 645
246 1 663
247 1 295
248 1 765
249 1 419
250 1 115
251 1 375
252 1 774
253 1 1073
254 1 622
255 1 441
256 1 332
257 1 400
258 1 492
259 1 710
260 1 734
261 1 233
262 1 137
263 1 251
264 1 400
265 1 402
266 1 281
267 1 982
268 1 266
269 1 626
270 1 615
271 1 212
272 1 888
273 1 556
274 1 1108
275 1 162
276 1 467
277 1 652
278 1 606
279 1 543
280 1 229
281 1 305
282 1 506
283 1 744
284 1 1052
285 1 637
286 1 561
287 1 442
288 1 678
289 1 133
290 1 751
291 1 384
292 1 323
293 1 342
294 1 354
295 1 302
296 1 606
297 1 835
298 1 373
299 1 457
300 1 297
301 1 599
302 1 704
303 1 125
304 1 197
305 1 507
306 1 420
307 1 381
308 1 466
309 1 355
310 1 698
311 1 719
312 1 909
313 1 513
314 1 451
315 1 398
316 1 557
317 1 1112
318 1 343
319 1 586
320 1 203
321 1 825
322 1 264
323 1 550
324 1 607
325 1 577
326 1 191
327 1 240
328 1 905
329 1 505
330 1 248
331 1 184
332 1 920
333 1 584
334 1 607
335 1 352
336 1 368
337 1 718
338 1 402
339 1 387
340 1 542
341 1 402
342 1 1002
343 1 624
344 1 506
345 1 1022
346 1 160
347 1 249
348 1 1130
349 1 441
350 1 191
351 1 663
352 1 726
353 1 318
354 1 764
355 1 1337
356 1 1274
357 1 478
358 1 843
359 1 207
360 1 351
361 1 763
362 1 240
363 1 568
364 1 458
365 1 225
366 1 489
367 1 1099
368 1 195
369 1 446
370 1 220
371 1 518
372 1 323
373 1 541
374 1 1117
375 1 692
376 1 356
377 1 1215
378 1 725
379 1 974
380 1 995
381 1 712
382 1 766
383 1 415
384 1 236
385 1 73
386 1 560
387 1 173
388 1 203
389 1 299
390 1 334
391 1 514
392 1 556
393 1 205
394 1 576
395 1 424
396 1 353
397 1 1080
398 1 500
399 1 307
400 1 313
401 1 205
402 1 188
403 1 542
404 1 362
405 1 601
406 1 151
407 1 251
408 1 290
409 1 620
410 1 199
411 1 978
412 1 256
413 1 378
414 1 396
415 1 708
416 1 256
417 1 684
418 1 718
419 1 534
420 1 889
421 1 207
422 1 366
423 1 352
424 1 952
425 1 251
426 1 211
427 1 701
428 1 486
429 1 440
430 1 1022
431 1 675
432 1 237
433 1 487
434 1 683
435 1 1333
436 1 667
437 1 247
438 1 305
439 1 712
440 1 471
441 1 536
442 1 253
443 1 676
444 1 207
445 1 158
446 1 136
447 1 71
448 1 506
449 1 709
450 1 726
451 1 306
452 1 263
453 1 347
454 1 146
455 1 84
456 1 389
457 1 816
458 1 104
459 1 136
460 1 478
461 1 516
462 1 1086
463 1 591
464 1 1452
465 1 1173
466 1 1136
467 1 1119
468 1 367
469 1 739
470 1 310
471 1 452
472 1 1135
473 1 176
474 1 952
475 1 273
476 1 348
477 1 1145
478 1 696
479 1 187
480 1 573
481 1 983
482 1 696
483 1 261
484 1 608
485 1 694
486 1 771
487 1 370
488 1 180
489 1 314
490 1 790
491 1 241
492 1 457
493 1 130
494 1 877
495 1 98
496 1 196
497 1 614
498 1 375
499 1 844
500 1 281
1 2 1239
2 2 599
3 2 708
4 2 644
5 2 236
6 2 179
7 2 1591
8 2 1539
9 2 169
10 2 638
11 2 1084
12 2 1419
13 2 614
14 2 595
15 2 586
16 2 1444
17 2 901
18 2 609
19 2 466
20 2 284
21 2 142
22 2 390
23 2 436
24 2 1532
25 2 548
26 2 1547
27 2 812
28 2 1205
29 2 821
30 2 253
31 2 490
32 2 1211
33 2 874
34 2 152
35 2 277
36 2 1394
37 2 648
38 2 1016
39 2 961
40 2 718
41 2 770
42 2 1323
43 2 647
44 2 129
45 2 2285
46 2 524
47 2 1505
48 2 1218
49 2 700
50 2 499
51 2 793
52 2 690
53 2 1133
54 2 516
55 2 813
56 2 212
57 2 114
58 2 874
59 2 260
60 2 497
61 2 585
62 2 731
63 2 384
64 2 865
65 2 339
66 2 775
67 2 758
68 2 505
69 2 1553
70 2 497
71 2 598
72 2 914
73 2 169
74 2 458
75 2 282
76 2 836
77 2 359
78 2 717
79 2 848
80 2 392
81 2 318
82 2 339
83 2 1338
84 2 638
85 2 353
86 2 1531
87 2 241
88 2 284
89 2 954
90 2 326
91 2 219
92 2 271
93 2 633
94 2 1442
95 2 285
96 2 1912
97 2 1251
98 2 368
99 2 277
100 2 492
101 2 1987
102 2 571
103 2 148
104 2 557
105 2 788
106 2 261
107 2 249
108 2 909
109 2 214
110 2 970
111 2 497
112 2 736
113 2 409
114 2 633
115 2 570
116 2 430
117 2 515
118 2 958
119 2 77
120 2 211
121 2 273
122 2 726
123 2 356
124 2 288
125 2 257
126 2 1083
127 2 399
128 2 1618
129 2 395
130 2 535
131 2 607
132 2 1287
133 2 1195
134 2 1414
135 2 392
136 2 169
137 2 949
138 2 433
139 2 301
140 2 582
141 2 658
142 2 524
143 2 568
144 2 1369
145 2 834
146 2 432
147 2 982
148 2 411
149 2 1045
150 2 257
151 2 548
152 2 487
153 2 458
154 2 648
155 2 1329
156 2 683
157 2 207
158 2 965
159 2 924
160 2 1960
161 2 1562
162 2 497
163 2 2395
164 2 852
165 2 417
166 2 1007
167 2 347
168 2 313
169 2 1398
170 2 1528
171 2 510
172 2 376
173 2 1168
174 2 1268
175 2 890
176 2 698
177 2 664
178 2 751
179 2 637
180 2 349
181 2 367
182 2 1282
183 2 366
184 2 563
185 2 514
186 2 1006
187 2 321
188 2 405
189 2 275
190 2 863
191 2 477
192 2 243
193 2 834
194 2 197
195 2 329
196 2 829
197 2 525
198 2 516
199 2 1676
200 2 407
201 2 357
202 2 557
203 2 487
204 2 269
205 2 510
206 2 517
207 2 982
208 2 891
209 2 488
210 2 559
211 2 692
212 2 602
213 2 316
214 2 918
215 2 483
216 2 612
217 2 385
218 2 502
219 2 431
220 2 1339
221 2 394
222 2 909
223 2 1281
224 2 915
225 2 663
226 2 878
227 2 136
228 2 366
229 2 1350
230 2 264
231 2 1375
232 2 1308
233 2 366
234 2 556
235 2 1051
236 2 282
237 2 632
238 2 779
239 2 1429
240 2 153
241 2 1173
242 2 1441
243 2 894
244 2 605
245 2 342
246 2 1780
247 2 148
248 2 259
249 2 389
250 2 808
251 2 1574
252 2 458
253 2 242
254 2 751
255 2 832
256 2 509
257 2 381
258 2 1776
259 2 530
260 2 320
261 2 868
262 2 521
263 2 1257
264 2 393
265 2 987
266 2 375
267 2 1007
268 2 506
269 2 613
270 2 1174
271 2 2121
272 2 1035
273 2 312
274 2 1567
275 2 1567
276 2 1595
277 2 954
278 2 912
279 2 519
280 2 985
281 2 607
282 2 319
283 2 783
284 2 906
285 2 733
286 2 659
287 2 734
288 2 461
289 2 1571
290 2 776
291 2 898
292 2 1468
293 2 1480
294 2 395
295 2 1097
296 2 646
297 2 203
298 2 1070
299 2 992
300 2 970
301 2 1341
302 2 682
303 2 876
304 2 648
305 2 807
306 2 716
307 2 1398
308 2 365
309 2 631
310 2 157
311 2 1429
312 2 1503
313 2 1240
314 2 823
315 2 384
316 2 1240
317 2 2186
318 2 673
319 2 668
320 2 244
321 2 254
322 2 443
323 2 469
324 2 538
325 2 352
326 2 685
327 2 1217
328 2 159
329 2 561
330 2 1239
331 2 522
332 2 984
333 2 196
334 2 1331
335 2 143
336 2 148
337 2 735
338 2 1441
339 2 693
340 2 1029
341 2 787
342 2 180
343 2 982
344 2 551
345 2 1547
346 2 149
347 2 800
348 2 594
349 2 1112
350 2 608
351 2 502
352 2 329
353 2 530
354 2 559
355 2 961
356 2 826
357 2 1422
358 2 432
359 2 847
360 2 1502
361 2 567
362 2 1424
363 2 599
364 2 903
365 2 450
366 2 168
367 2 1328
368 2 1081
369 2 727
370 2 416
371 2 270
372 2 1468
373 2 1251
374 2 249
375 2 1074
376 2 628
377 2 736
378 2 253
379 2 1044
380 2 179
381 2 512
382 2 1093
383 2 305
384 2 866
385 2 1185
386 2 718
387 2 333
388 2 981
389 2 470
390 2 1547
391 2 513
392 2 591
393 2 396
394 2 482
395 2 729
396 2 365
397 2 444
398 2 286
399 2 956
400 2 1083
401 2 794
402 2 892
403 2 318
404 2 1030
405 2 877
406 2 275
407 2 544
408 2 613
409 2 169
410 2 478
411 2 183
412 2 1291
413 2 1411
414 2 676
415 2 921
416 2 556
417 2 666
418 2 456
419 2 1376
420 2 538
421 2 395
422 2 617
423 2 1445
424 2 985
425 2 430
426 2 2054
427 2 1078
428 2 767
429 2 741
430 2 621
431 2 924
432 2 821
433 2 583
434 2 822
435 2 566
436 2 807
437 2 579
438 2 307
439 2 692
440 2 387
441 2 511
442 2 373
443 2 971
444 2 2169
445 2 111
446 2 1634
447 2 261
448 2 1153
449 2 549
450 2 333
451 2 980
452 2 484
453 2 364
454 2 1538
455 2 193
456 2 957
457 2 780
458 2 599
459 2 1560
460 2 525
461 2 221
462 2 920
463 2 1624
464 2 2207
465 2 787
466 2 751
467 2 713
468 2 399
469 2 1339
470 2 535
471 2 906
472 2 1557
473 2 958
474 2 2460
475 2 762
476 2 1709
477 2 1537
478 2 187
479 2 1017
480 2 1371
481 2 1184
482 2 692
483 2 848
484 2 503
485 2 188
486 2 362
487 2 1130
488 2 906
489 2 796
490 2 554
491 2 936
492 2 780
493 2 312
494 2 761
495 2 584
496 2 893
497 2 196
498 2 825
499 2 461
500 2 1107
1 3 554
2 3 1098
3 3 1735
4 3 438
5 3 469
6 3 1340
7 3 419
8 3 535
9 3 421
10 3 564
11 3 568
12 3 952
13 3 199
14 3 220
15 3 257
16 3 870
17 3 355
18 3 640
19 3 291
20 3 529
21 3 554
22 3 386
23 3 170
24 3 814
25 3 153
26 3 439
27 3 161
28 3 465
29 3 364
30 3 638
31 3 985
32 3 787
33 3 649
34 3 857
35 3 173
36 3 411
37 3 441
38 3 397
39 3 1248
40 3 1310
41 3 561
42 3 753
43 3 538
44 3 353
45 3 618
46 3 839
47 3 146
48 3 372
49 3 315
50 3 213
51 3 1316
52 3 393
53 3 345
54 3 226
55 3 747
56 3 492
57 3 431
58 3 303
59 3 673
60 3 292
61 3 574
62 3 284
63 3 154
64 3 335
65 3 490
66 3 477
67 3 367
68 3 1060
69 3 782
70 3 715
71 3 130
72 3 107
73 3 561
74 3 624
75 3 672
76 3 720
77 3 1029
78 3 763
79 3 847
80 3 513
81 3 261
82 3 663
83 3 1123
84 3 845
85 3 249
86 3 146
87 3 277
88 3 410
89 3 1313
90 3 789
91 3 217
92 3 711
93 3 134
94 3 336
95 3 348
96 3 1656
97 3 729
98 3 496
99 3 85
100 3 977
101 3 444
102 3 1414
103 3 146
104 3 371
105 3 800
106 3 650
107 3 497
108 3 102
109 3 340
110 3 964
111 3 528
112 3 180
113 3 239
114 3 600
115 3 695
116 3 745
117 3 216
118 3 484
119 3 69
120 3 350
121 3 578
122 3 235
123 3 240
124 3 1507
125 3 263
126 3 1232
127 3 154
128 3 206
129 3 407
130 3 566
131 3 514
132 3 1309
133 3 468
134 3 698
135 3 192
136 3 467
137 3 503
138 3 333
139 3 383
140 3 460
141 3 235
142 3 285
143 3 592
144 3 558
145 3 613
146 3 340
147 3 835
148 3 617
149 3 993
150 3 893
151 3 941
152 3 412
153 3 188
154 3 489
155 3 260
156 3 314
157 3 262
158 3 309
159 3 115
160 3 1420
161 3 166
162 3 504
163 3 230
164 3 359
165 3 290
166 3 236
167 3 264
168 3 601
169 3 888
170 3 707
171 3 194
172 3 219
173 3 1044
174 3 475
175 3 116
176 3 464
177 3 527
178 3 108
179 3 528
180 3 513
181 3 430
182 3 478
183 3 85
184 3 125
185 3 456
186 3 240
187 3 275
188 3 676
189 3 499
190 3 516
191 3 821
192 3 364
193 3 531
194 3 275
195 3 378
196 3 241
197 3 873
198 3 267
199 3 364
200 3 259
201 3 184
202 3 837
203 3 714
204 3 111
205 3 656
206 3 704
207 3 322
208 3 500
209 3 506
210 3 565
211 3 308
212 3 433
213 3 403
214 3 132
215 3 258
216 3 1505
217 3 444
218 3 359
219 3 349
220 3 1078
221 3 316
222 3 110
223 3 813
224 3 562
225 3 640
226 3 690
227 3 324
228 3 202
229 3 568
230 3 153
231 3 899
232 3 481
233 3 1684
234 3 729
235 3 404
236 3 488
237 3 403
238 3 122
239 3 344
240 3 1315
241 3 861
242 3 510
243 3 1073
244 3 422
245 3 1037
246 3 672
247 3 370
248 3 644
249 3 341
250 3 720
251 3 195
252 3 603
253 3 734
254 3 589
255 3 274
256 3 162
257 3 960
258 3 1016
259 3 470
260 3 130
261 3 1077
262 3 224
263 3 248
264 3 980
265 3 751
266 3 208
267 3 235
268 3 1312
269 3 220
270 3 571
271 3 1145
272 3 757
273 3 1097
274 3 176
275 3 466
276 3 395
277 3 684
278 3 254
279 3 491
280 3 92
281 3 665
282 3 497
283 3 801
284 3 152
285 3 245
286 3 731
287 3 383
288 3 870
289 3 453
290 3 698
291 3 368
292 3 351
293 3 354
294 3 635
295 3 174
296 3 109
297 3 554
298 3 737
299 3 495
300 3 292
301 3 97
302 3 918
303 3 982
304 3 431
305 3 302
306 3 98
307 3 558
308 3 949
309 3 707
310 3 57
311 3 527
312 3 145
313 3 1147
314 3 645
315 3 377
316 3 852
317 3 667
318 3 778
319 3 296
320 3 820
321 3 587
322 3 352
323 3 969
324 3 1027
325 3 313
326 3 628
327 3 224
328 3 476
329 3 108
330 3 467
331 3 629
332 3 579
333 3 430
334 3 659
335 3 348
336 3 336
337 3 243
338 3 481
339 3 680
340 3 272
341 3 448
342 3 489
343 3 705
344 3 527
345 3 152
346 3 411
347 3 893
348 3 1097
349 3 922
350 3 688
351 3 215
352 3 121
353 3 804
354 3 498
355 3 237
356 3 1315
357 3 497
358 3 532
359 3 825
360 3 320
361 3 422
362 3 424
363 3 508
364 3 841
365 3 293
366 3 906
367 3 662
368 3 492
369 3 303
370 3 635
371 3 182
372 3 303
373 3 899
374 3 668
375 3 800
376 3 206
377 3 527
378 3 932
379 3 1319
380 3 220
381 3 404
382 3 262
383 3 329
384 3 1033
385 3 79
386 3 272
387 3 157
388 3 318
389 3 510
390 3 413
391 3 296
392 3 286
393 3 811
394 3 952
395 3 1749
396 3 505
397 3 504
398 3 838
399 3 535
400 3 487
401 3 377
402 3 809
403 3 591
404 3 567
405 3 569
406 3 586
407 3 247
408 3 201
409 3 149
410 3 266
411 3 476
412 3 1102
413 3 379
414 3 526
415 3 441
416 3 575
417 3 950
418 3 1291
419 3 845
420 3 1800
421 3 362
422 3 407
423 3 344
424 3 475
425 3 342
426 3 1750
427 3 748
428 3 278
429 3 648
430 3 138
431 3 556
432 3 946
433 3 517
434 3 441
435 3 890
436 3 457
437 3 1293
438 3 694
439 3 626
440 3 520
441 3 265
442 3 214
443 3 1045
444 3 1775
445 3 545
446 3 405
447 3 144
448 3 933
449 3 292
450 3 138
451 3 305
452 3 259
453 3 1146
454 3 162
455 3 266
456 3 427
457 3 184
458 3 212
459 3 488
460 3 506
461 3 315
462 3 158
463 3 485
464 3 590
465 3 539
466 3 551
467 3 494
468 3 437
469 3 950
470 3 440
471 3 995
472 3 168
473 3 112
474 3 346
475 3 415
476 3 469
477 3 172
478 3 231
479 3 536
480 3 382
481 3 496
482 3 940
483 3 950
484 3 292
485 3 269
486 3 558
487 3 195
488 3 91
489 3 455
490 3 805
491 3 315
492 3 355
493 3 171
494 3 416
495 3 407
496 3 106
497 3 427
498 3 1063
499 3 206
500 3 180
1 4 606
2 4 1017
3 4 634
4 4 236
5 4 271
6 4 308
7 4 575
8 4 1764
9 4 234
10 4 691
11 4 949
12 4 840
13 4 815
14 4 65
15 4 916
16 4 753
17 4 741
18 4 739
19 4 1814
20 4 397
21 4 2531
22 4 873
23 4 638
24 4 1460
25 4 1047
26 4 653
27 4 2025
28 4 1096
29 4 699
30 4 2362
31 4 624
32 4 538
33 4 528
34 4 1681
35 4 636
36 4 1100
37 4 387
38 4 1321
39 4 1367
40 4 981
41 4 408
42 4 398
43 4 414
44 4 124
45 4 1563
46 4 1218
47 4 182
48 4 617
49 4 1045
50 4 947
51 4 915
52 4 592
53 4 176
54 4 600
55 4 881
56 4 383
57 4 1298
58 4 927
59 4 2313
60 4 559
61 4 1362
62 4 382
63 4 293
64 4 631
65 4 1725
66 4 270
67 4 1493
68 4 870
69 4 1057
70 4 852
71 4 487
72 4 1852
73 4 521
74 4 1784
75 4 2332
76 4 495
77 4 805
78 4 775
79 4 427
80 4 618
81 4 967
82 4 750
83 4 698
84 4 1116
85 4 1293
86 4 384
87 4 492
88 4 703
89 4 1125
90 4 952
91 4 338
92 4 913
93 4 418
94 4 1123
95 4 1271
96 4 947
97 4 737
98 4 1745
99 4 796
100 4 661
101 4 231
102 4 1027
103 4 848
104 4 556
105 4 162
106 4 2304
107 4 533
108 4 1233
109 4 505
110 4 509
111 4 513
112 4 454
113 4 492
114 4 1253
115 4 603
116 4 1014
117 4 86
118 4 982
119 4 300
120 4 574
121 4 769
122 4 1501
123 4 669
124 4 181
125 4 864
126 4 332
127 4 717
128 4 1153
129 4 408
130 4 520
131 4 1334
132 4 678
133 4 1088
134 4 788
135 4 121
136 4 950
137 4 1255
138 4 1325
139 4 531
140 4 655
141 4 340
142 4 167
143 4 1389
144 4 926
145 4 1929
146 4 1960
147 4 863
148 4 1746
149 4 1377
150 4 1001
151 4 416
152 4 969
153 4 1265
154 4 662
155 4 1185
156 4 425
157 4 318
158 4 433
159 4 1730
160 4 743
161 4 419
162 4 728
163 4 100
164 4 623
165 4 880
166 4 838
167 4 104
168 4 331
169 4 729
170 4 784
171 4 609
172 4 137
173 4 3117
174 4 2132
175 4 1870
176 4 455
177 4 1249
178 4 532
179 4 1429
180 4 927
181 4 179
182 4 1000
183 4 589
184 4 406
185 4 904
186 4 209
187 4 927
188 4 812
189 4 1866
190 4 838
191 4 577
192 4 434
193 4 1225
194 4 875
195 4 699
196 4 889
197 4 429
198 4 683
199 4 1061
200 4 295
201 4 105
202 4 537
203 4 504
204 4 1266
205 4 2001
206 4 128
207 4 705
208 4 1296
209 4 518
210 4 701
211 4 663
212 4 878
213 4 1027
214 4 555
215 4 177
216 4 1018
217 4 415
218 4 324
219 4 1216
220 4 726
221 4 572
222 4 1858
223 4 520
224 4 1351
225 4 709
226 4 786
227 4 584
228 4 115
229 4 899
230 4 365
231 4 867
232 4 561
233 4 807
234 4 1045
235 4 1330
236 4 450
237 4 496
238 4 458
239 4 745
240 4 1386
241 4 628
242 4 1818
243 4 402
244 4 569
245 4 835
246 4 1294
247 4 364
248 4 891
249 4 1168
250 4 542
251 4 1174
252 4 955
253 4 2369
254 4 1216
255 4 539
256 4 1155
257 4 811
258 4 972
259 4 929
260 4 1241
261 4 1569
262 4 887
263 4 999
264 4 830
265 4 840
266 4 132
267 4 856
268 4 400
269 4 321
270 4 772
271 4 809
272 4 842
273 4 627
274 4 377
275 4 568
276 4 659
277 4 782
278 4 590
279 4 542
280 4 574
281 4 502
282 4 484
283 4 1022
284 4 1426
285 4 237
286 4 692
287 4 562
288 4 813
289 4 633
290 4 815
291 4 1015
292 4 1412
293 4 805
294 4 1078
295 4 1293
296 4 232
297 4 272
298 4 754
299 4 473
300 4 964
301 4 177
302 4 416
303 4 1077
304 4 613
305 4 529
306 4 745
307 4 949
308 4 1294
309 4 1119
310 4 466
311 4 1775
312 4 174
313 4 791
314 4 490
315 4 561
316 4 1741
317 4 1202
318 4 788
319 4 372
320 4 1368
321 4 258
322 4 304
323 4 660
324 4 851
325 4 1148
326 4 396
327 4 709
328 4 948
329 4 626
330 4 895
331 4 602
332 4 1307
333 4 565
334 4 1299
335 4 870
336 4 587
337 4 1270
338 4 717
339 4 1089
340 4 582
341 4 485
342 4 932
343 4 762
344 4 539
345 4 401
346 4 1317
347 4 1655
348 4 982
349 4 928
350 4 745
351 4 578
352 4 1282
353 4 1202
354 4 920
355 4 551
356 4 1000
357 4 1443
358 4 768
359 4 539
360 4 702
361 4 902
362 4 905
363 4 311
364 4 676
365 4 1361
366 4 1219
367 4 1234
368 4 1083
369 4 1501
370 4 1513
371 4 678
372 4 739
373 4 1792
374 4 2286
375 4 817
376 4 247
377 4 623
378 4 1591
379 4 1208
380 4 940
381 4 897
382 4 677
383 4 879
384 4 630
385 4 449
386 4 1064
387 4 612
388 4 335
389 4 387
390 4 767
391 4 783
392 4 836
393 4 956
394 4 702
395 4 616
396 4 451
397 4 696
398 4 664
399 4 738
400 4 1789
401 4 644
402 4 487
403 4 406
404 4 397
405 4 1102
406 4 428
407 4 679
408 4 531
409 4 839
410 4 528
411 4 915
412 4 745
413 4 684
414 4 696
415 4 1185
416 4 705
417 4 1188
418 4 955
419 4 341
420 4 1160
421 4 260
422 4 317
423 4 795
424 4 483
425 4 402
426 4 918
427 4 554
428 4 1461
429 4 509
430 4 380
431 4 589
432 4 1535
433 4 1405
434 4 498
435 4 569
436 4 532
437 4 346
438 4 796
439 4 1181
440 4 195
441 4 174
442 4 493
443 4 651
444 4 966
445 4 538
446 4 580
447 4 551
448 4 563
449 4 2542
450 4 1237
451 4 990
452 4 815
453 4 1078
454 4 577
455 4 1448
456 4 338
457 4 1750
458 4 871
459 4 626
460 4 514
461 4 925
462 4 1357
463 4 1781
464 4 687
465 4 621
466 4 725
467 4 1127
468 4 530
469 4 527
470 4 699
471 4 575
472 4 374
473 4 1739
474 4 994
475 4 259
476 4 434
477 4 393
478 4 878
479 4 2500
480 4 1406
481 4 466
482 4 408
483 4 1167
484 4 377
485 4 811
486 4 820
487 4 543
488 4 1866
489 4 449
490 4 1174
491 4 931
492 4 871
493 4 579
494 4 339
495 4 867
496 4 1741
497 4 558
498 4 1629
499 4 593
500 4 1962
1 5 327
2 5 84
3 5 72
4 5 57
5 5 93
6 5 393
7 5 38
8 5 119
9 5 871
10 5 42
11 5 70
12 5 190
13 5 175
14 5 311
15 5 378
16 5 107
17 5 68
18 5 121
19 5 200
20 5 43
21 5 98
22 5 66
23 5 420
24 5 272
25 5 216
26 5 40
27 5 105
28 5 93
29 5 31
30 5 104
31 5 152
32 5 44
33 5 170
34 5 146
35 5 43
36 5 138
37 5 77
38 5 393
39 5 120
40 5 60
41 5 243
42 5 109
43 5 62
44 5 119
45 5 158
46 5 264
47 5 135
48 5 214
49 5 124
50 5 89
51 5 302
52 5 118
53 5 479
54 5 96
55 5 129
56 5 156
57 5 296
58 5 421
59 5 107
60 5 147
61 5 492
62 5 34
63 5 138
64 5 317
65 5 230
66 5 280
67 5 194
68 5 220
69 5 226
70 5 76
71 5 157
72 5 137
73 5 102
74 5 218
75 5 112
76 5 105
77 5 578
78 5 235
79 5 158
80 5 180
81 5 213
82 5 66
83 5 121
84 5 221
85 5 364
86 5 130
87 5 158
88 5 82
89 5 217
90 5 103
91 5 23
92 5 257
93 5 621
94 5 469
95 5 58
96 5 89
97 5 79
98 5 196
99 5 223
100 5 175
101 5 414
102 5 547
103 5 110
104 5 101
105 5 84
106 5 125
107 5 143
108 5 316
109 5 61
110 5 174
111 5 789
112 5 212
113 5 199
114 5 106
115 5 144
116 5 97
117 5 125
118 5 463
119 5 51
120 5 39
121 5 354
122 5 376
123 5 79
124 5 175
125 5 16
126 5 277
127 5 213
128 5 275
129 5 32
130 5 821
131 5 223
132 5 136
133 5 72
134 5 214
135 5 336
136 5 77
137 5 159
138 5 28
139 5 125
140 5 69
141 5 409
142 5 61
143 5 72
144 5 301
145 5 490
146 5 205
147 5 152
148 5 209
149 5 223
150 5 308
151 5 55
152 5 229
153 5 257
154 5 36
155 5 273
156 5 236
157 5 185
158 5 127
159 5 109
160 5 182
161 5 126
162 5 122
163 5 248
164 5 119
165 5 192
166 5 120
167 5 171
168 5 37
169 5 109
170 5 218
171 5 100
172 5 187
173 5 314
174 5 216
175 5 107
176 5 296
177 5 226
178 5 120
179 5 184
180 5 362
181 5 371
182 5 238
183 5 120
184 5 20
185 5 219
186 5 199
187 5 198
188 5 789
189 5 234
190 5 309
191 5 98
192 5 119
193 5 203
194 5 360
195 5 109
196 5 196
197 5 339
198 5 52
199 5 118
200 5 161
201 5 132
202 5 198
203 5 186
204 5 186
205 5 478
206 5 26
207 5 72
208 5 178
209 5 805
210 5 562
211 5 101
212 5 130
213 5 69
214 5 168
215 5 70
216 5 322
217 5 54
218 5 506
219 5 474
220 5 119
221 5 16
222 5 131
223 5 43
224 5 477
225 5 140
226 5 346
227 5 79
228 5 399
229 5 215
230 5 155
231 5 187
232 5 292
233 5 274
234 5 47
235 5 386
236 5 54
237 5 74
238 5 133
239 5 158
240 5 89
241 5 198
242 5 86
243 5 73
244 5 257
245 5 561
246 5 573
247 5 189
248 5 52
249 5 457
250 5 25
251 5 138
252 5 130
253 5 108
254 5 529
255 5 127
256 5 102
257 5 566
258 5 509
259 5 186
260 5 264
261 5 612
262 5 66
263 5 90
264 5 563
265 5 372
266 5 155
267 5 137
268 5 197
269 5 394
270 5 330
271 5 160
272 5 246
273 5 121
274 5 109
275 5 29
276 5 97
277 5 162
278 5 79
279 5 827
280 5 164
281 5 206
282 5 54
283 5 148
284 5 117
285 5 216
286 5 319
287 5 119
288 5 225
289 5 43
290 5 272
291 5 225
292 5 132
293 5 161
294 5 70
295 5 176
296 5 143
297 5 114
298 5 143
299 5 80
300 5 209
301 5 86
302 5 103
303 5 103
304 5 134
305 5 285
306 5 61
307 5 317
308 5 93
309 5 345
310 5 50
311 5 93
312 5 110
313 5 136
314 5 138
315 5 22
316 5 164
317 5 342
318 5 243
319 5 197
320 5 254
321 5 116
322 5 87
323 5 188
324 5 225
325 5 240
326 5 131
327 5 453
328 5 83
329 5 244
330 5 90
331 5 76
332 5 477
333 5 99
334 5 143
335 5 169
336 5 71
337 5 112
338 5 133
339 5 67
340 5 373
341 5 107
342 5 110
343 5 266
344 5 780
345 5 132
346 5 353
347 5 83
348 5 98
349 5 108
350 5 122
351 5 116
352 5 304
353 5 37
354 5 180
355 5 133
356 5 76
357 5 385
358 5 181
359 5 136
360 5 393
361 5 197
362 5 243
363 5 80
364 5 359
365 5 52
366 5 90
367 5 445
368 5 128
369 5 186
370 5 473
371 5 54
372 5 418
373 5 176
374 5 118
375 5 354
376 5 95
377 5 217
378 5 91
379 5 129
380 5 98
381 5 178
382 5 325
383 5 131
384 5 432
385 5 105
386 5 77
387 5 108
388 5 196
389 5 98
390 5 173
391 5 487
392 5 110
393 5 78
394 5 156
395 5 77
396 5 89
397 5 234
398 5 51
399 5 110
400 5 156
401 5 560
402 5 143
403 5 307
404 5 72
405 5 126
406 5 62
407 5 51
408 5 25
409 5 115
410 5 247
411 5 103
412 5 117
413 5 265
414 5 253
415 5 330
416 5 524
417 5 221
418 5 187
419 5 272
420 5 108
421 5 81
422 5 138
423 5 150
424 5 128
425 5 107
426 5 101
427 5 130
428 5 152
429 5 115
430 5 590
431 5 250
432 5 93
433 5 488
434 5 156
435 5 151
436 5 133
437 5 173
438 5 260
439 5 79
440 5 151
441 5 74
442 5 373
443 5 156
444 5 86
445 5 119
446 5 45
447 5 69
448 5 181
449 5 398
450 5 267
451 5 188
452 5 544
453 5 52
454 5 147
455 5 204
456 5 70
457 5 129
458 5 90
459 5 35
460 5 720
461 5 525
462 5 131
463 5 129
464 5 138
465 5 202
466 5 233
467 5 179
468 5 63
469 5 32
470 5 236
471 5 321
472 5 117
473 5 118
474 5 321
475 5 247
476 5 204
477 5 100
478 5 378
479 5 199
480 5 86
481 5 384
482 5 112
483 5 143
484 5 122
485 5 365
486 5 127
487 5 384
488 5 117
489 5 77
490 5 285
491 5 436
492 5 404
493 5 47
494 5 132
495 5 315
496 5 124
497 5 108
498 5 419
499 5 461
500 5 163
1 6 358
2 6 212
3 6 927
4 6 73
5 6 244
6 6 388
7 6 631
8 6 369
9 6 812
10 6 414
11 6 742
12 6 809
13 6 207
14 6 549
15 6 187
16 6 210
17 6 860
18 6 1451
19 6 2097
20 6 420
21 6 674
22 6 695
23 6 583
24 6 380
25 6 83
26 6 558
27 6 1088
28 6 944
29 6 298
30 6 1211
31 6 690
32 6 102
33 6 913
34 6 729
35 6 225
36 6 165
37 6 1766
38 6 553
39 6 884
40 6 490
41 6 1486
42 6 697
43 6 772
44 6 264
45 6 1354
46 6 1381
47 6 1248
48 6 530
49 6 1104
50 6 578
51 6 719
52 6 893
53 6 1583
54 6 62
55 6 895
56 6 1015
57 6 131
58 6 724
59 6 1310
60 6 232
61 6 353
62 6 1209
63 6 801
64 6 126
65 6 1699
66 6 588
67 6 223
68 6 692
69 6 596
70 6 247
71 6 607
72 6 411
73 6 968
74 6 676
75 6 1194
76 6 439
77 6 1264
78 6 281
79 6 197
80 6 221
81 6 432
82 6 417
83 6 1060
84 6 676
85 6 323
86 6 792
87 6 1256
88 6 128
89 6 584
90 6 475
91 6 402
92 6 719
93 6 468
94 6 1391
95 6 723
96 6 969
97 6 1934
98 6 1743
99 6 914
100 6 647
101 6 468
102 6 980
103 6 407
104 6 142
105 6 1116
106 6 1232
107 6 307
108 6 112
109 6 315
110 6 748
111 6 1160
112 6 451
113 6 812
114 6 638
115 6 234
116 6 1396
117 6 968
118 6 491
119 6 644
120 6 363
121 6 512
122 6 829
123 6 744
124 6 473
125 6 482
126 6 708
127 6 115
128 6 429
129 6 662
130 6 1251
131 6 271
132 6 228
133 6 486
134 6 114
135 6 672
136 6 486
137 6 421
138 6 296
139 6 1292
140 6 132
141 6 709
142 6 629
143 6 121
144 6 529
145 6 1546
146 6 2028
147 6 472
148 6 651
149 6 798
150 6 1889
151 6 260
152 6 500
153 6 592
154 6 695
155 6 756
156 6 889
157 6 1199
158 6 1120
159 6 388
160 6 233
161 6 820
162 6 801
163 6 53
164 6 912
165 6 1142
166 6 449
167 6 218
168 6 473
169 6 195
170 6 147
171 6 77
172 6 344
173 6 635
174 6 343
175 6 388
176 6 960
177 6 691
178 6 606
179 6 259
180 6 825
181 6 1139
182 6 257
183 6 356
184 6 248
185 6 1610
186 6 725
187 6 457
188 6 130
189 6 308
190 6 269
191 6 981
192 6 615
193 6 429
194 6 532
195 6 910
196 6 1127
197 6 595
198 6 162
199 6 704
200 6 513
201 6 517
202 6 504
203 6 1735
204 6 709
205 6 201
206 6 745
207 6 562
208 6 430
209 6 1189
210 6 556
211 6 312
212 6 436
213 6 906
214 6 831
215 6 678
216 6 876
217 6 2277
218 6 583
219 6 338
220 6 1092
221 6 353
222 6 364
223 6 96
224 6 456
225 6 1397
226 6 777
227 6 1009
228 6 676
229 6 631
230 6 297
231 6 957
232 6 866
233 6 283
234 6 1020
235 6 543
236 6 572
237 6 315
238 6 335
239 6 556
240 6 639
241 6 140
242 6 415
243 6 476
244 6 524
245 6 1282
246 6 1134
247 6 685
248 6 690
249 6 369
250 6 381
251 6 398
252 6 612
253 6 1291
254 6 283
255 6 550
256 6 336
257 6 1161
258 6 2291
259 6 1721
260 6 1410
261 6 757
262 6 593
263 6 1211
264 6 1115
265 6 680
266 6 367
267 6 437
268 6 598
269 6 714
270 6 332
271 6 1286
272 6 896
273 6 333
274 6 813
275 6 624
276 6 507
277 6 820
278 6 538
279 6 1243
280 6 581
281 6 1241
282 6 245
283 6 235
284 6 673
285 6 270
286 6 267
287 6 910
288 6 320
289 6 633
290 6 914
291 6 472
292 6 209
293 6 559
294 6 275
295 6 754
296 6 714
297 6 579
298 6 234
299 6 663
300 6 1071
301 6 865
302 6 296
303 6 1458
304 6 997
305 6 812
306 6 329
307 6 558
308 6 140
309 6 1663
310 6 1192
311 6 457
312 6 1246
313 6 563
314 6 1190
315 6 344
316 6 763
317 6 476
318 6 268
319 6 923
320 6 459
321 6 571
322 6 241
323 6 629
324 6 736
325 6 384
326 6 1615
327 6 382
328 6 470
329 6 314
330 6 922
331 6 178
332 6 454
333 6 165
334 6 1180
335 6 361
336 6 991
337 6 1300
338 6 1041
339 6 523
340 6 561
341 6 531
342 6 491
343 6 955
344 6 1186
345 6 827
346 6 703
347 6 122
348 6 220
349 6 1376
350 6 1382
351 6 98
352 6 1464
353 6 286
354 6 1804
355 6 126
356 6 510
357 6 221
358 6 270
359 6 708
360 6 1233
361 6 1723
362 6 302
363 6 554
364 6 155
365 6 282
366 6 1458
367 6 663
368 6 460
369 6 246
370 6 309
371 6 151
372 6 1273
373 6 806
374 6 1319
375 6 314
376 6 215
377 6 1015
378 6 834
379 6 323
380 6 176
381 6 1770
382 6 446
383 6 311
384 6 828
385 6 254
386 6 748
387 6 234
388 6 445
389 6 638
390 6 565
391 6 65
392 6 665
393 6 1454
394 6 620
395 6 877
396 6 211
397 6 311
398 6 1226
399 6 1329
400 6 1196
401 6 1251
402 6 744
403 6 740
404 6 583
405 6 643
406 6 520
407 6 148
408 6 231
409 6 371
410 6 1340
411 6 475
412 6 1125
413 6 628
414 6 800
415 6 527
416 6 531
417 6 241
418 6 843
419 6 745
420 6 908
421 6 260
422 6 557
423 6 559
424 6 401
425 6 436
426 6 959
427 6 610
428 6 273
429 6 1249
430 6 478
431 6 764
432 6 98
433 6 345
434 6 487
435 6 390
436 6 560
437 6 615
438 6 358
439 6 594
440 6 276
441 6 724
442 6 975
443 6 934
444 6 960
445 6 482
446 6 630
447 6 808
448 6 125
449 6 759
450 6 1384
451 6 1097
452 6 528
453 6 809
454 6 459
455 6 1463
456 6 420
457 6 1043
458 6 396
459 6 637
460 6 1192
461 6 466
462 6 637
463 6 383
464 6 751
465 6 983
466 6 1033
467 6 1189
468 6 584
469 6 802
470 6 608
471 6 544
472 6 852
473 6 374
474 6 1541
475 6 636
476 6 690
477 6 910
478 6 491
479 6 2039
480 6 407
481 6 93
482 6 301
483 6 408
484 6 202
485 6 533
486 6 1698
487 6 878
488 6 361
489 6 316
490 6 1046
491 6 729
492 6 720
493 6 127
494 6 483
495 6 756
496 6 371
497 6 156
498 6 474
499 6 1253
500 6 1106
1 7 394
2 7 433
3 7 1715
4 7 719
5 7 443
6 7 696
7 7 383
8 7 754
9 7 442
10 7 329
11 7 1760
12 7 322
13 7 500
14 7 762
15 7 745
16 7 914
17 7 492
18 7 577
19 7 453
21 7 1132
22 7 621
23 7 726
24 7 459
25 7 506
26 7 406
27 7 336
28 7 622
29 7 237
30 7 1013
31 7 285
32 7 560
33 7 873
34 7 560
35 7 164
36 7 203
37 7 803
38 7 1073
39 7 115
40 7 426
41 7 2227
42 7 892
43 7 1067
44 7 1221
45 7 272
46 7 488
47 7 758
48 7 625
49 7 1628
50 7 369
51 7 1687
52 7 1049
53 7 840
54 7 311
55 7 1160
56 7 525
57 7 843
58 7 1401
59 7 1045
60 7 166
61 7 1683
62 7 338
63 7 585
64 7 259
65 7 790
66 7 92
67 7 902
68 7 523
69 7 959
70 7 278
71 7 927
72 7 1687
73 7 762
74 7 941
75 7 1070
76 7 606
77 7 540
78 7 235
79 7 1131
81 7 1429
82 7 685
83 7 181
84 7 1207
85 7 220
86 7 1346
87 7 347
88 7 342
89 7 1529
90 7 725
91 7 151
92 7 580
93 7 194
94 7 931
95 7 478
96 7 345
97 7 632
98 7 773
99 7 785
100 7 270
101 7 1069
102 7 679
103 7 727
104 7 131
105 7 461
106 7 1062
107 7 602
108 7 898
109 7 378
110 7 777
111 7 1014
112 7 187
113 7 665
114 7 464
115 7 891
116 7 576
117 7 509
118 7 721
119 7 263
120 7 298
121 7 368
122 7 464
123 7 715
124 7 1448
125 7 1506
126 7 1106
127 7 716
128 7 2222
129 7 299
130 7 997
131 7 1307
132 7 313
133 7 30
134 7 1121
135 7 373
136 7 557
137 7 436
138 7 873
139 7 922
140 7 723
141 7 706
142 7 401
143 7 344
144 7 889
145 7 711
146 7 450
147 7 198
148 7 927
149 7 1117
150 7 1905
151 7 786
152 7 756
153 7 1474
154 7 866
155 7 1224
156 7 1133
157 7 486
158 7 289
159 7 1702
160 7 632
161 7 1497
162 7 358
163 7 1006
164 7 526
165 7 732
166 7 1503
167 7 588
168 7 1058
169 7 939
170 7 1052
171 7 262
172 7 835
173 7 1019
174 7 1049
175 7 1599
176 7 667
177 7 292
178 7 850
179 7 1321
180 7 1000
181 7 665
182 7 1336
183 7 386
184 7 63
185 7 461
186 7 1085
187 7 1445
188 7 771
189 7 1225
190 7 1403
191 7 408
192 7 658
193 7 430
194 7 464
195 7 716
196 7 507
197 7 79
198 7 226
199 7 358
200 7 505
201 7 980
202 7 377
203 7 1005
204 7 754
205 7 879
206 7 990
207 7 436
208 7 446
209 7 1047
210 7 193
211 7 2169
212 7 531
213 7 1430
214 7 468
215 7 375
216 7 1215
217 7 659
218 7 84
219 7 892
220 7 198
222 7 1569
223 7 547
224 7 486
225 7 540
226 7 74
227 7 674
228 7 415
229 7 1174
230 7 338
231 7 345
232 7 200
233 7 649
234 7 535
235 7 1013
236 7 273
237 7 932
238 7 467
239 7 1380
240 7 766
241 7 701
242 7 218
243 7 104
244 7 206
245 7 568
246 7 1283
247 7 953
248 7 150
249 7 973
250 7 913
251 7 603
252 7 734
253 7 1034
254 7 703
255 7 823
256 7 539
257 7 1317
258 7 1249
259 7 460
260 7 518
261 7 382
262 7 383
263 7 622
264 7 1305
265 7 72
266 7 911
267 7 1482
268 7 301
269 7 689
270 7 1137
271 7 412
272 7 663
273 7 137
274 7 1380
275 7 377
276 7 205
277 7 816
278 7 292
279 7 1000
280 7 842
281 7 607
282 7 572
283 7 627
284 7 773
285 7 271
286 7 359
287 7 1059
288 7 958
289 7 394
290 7 152
291 7 534
292 7 659
293 7 1359
294 7 622
295 7 232
296 7 259
297 7 903
298 7 891
299 7 323
300 7 1258
301 7 366
302 7 929
303 7 1671
304 7 1351
305 7 324
306 7 332
307 7 833
308 7 562
309 7 155
310 7 598
311 7 215
312 7 707
313 7 394
314 7 186
316 7 847
317 7 1193
318 7 273
319 7 1113
320 7 656
321 7 939
322 7 1025
323 7 260
324 7 505
325 7 910
326 7 857
327 7 837
328 7 571
329 7 96
330 7 182
331 7 467
332 7 473
333 7 528
334 7 716
335 7 143
336 7 679
337 7 572
338 7 893
339 7 1043
340 7 954
341 7 567
342 7 537
343 7 940
344 7 1024
345 7 1398
346 7 255
347 7 785
348 7 457
349 7 1145
350 7 573
351 7 319
352 7 537
353 7 1124
354 7 450
355 7 558
356 7 448
357 7 924
358 7 248
359 7 302
360 7 320
361 7 420
362 7 530
363 7 711
364 7 850
365 7 886
366 7 1710
367 7 513
368 7 325
369 7 596
370 7 690
371 7 398
372 7 331
373 7 864
374 7 1072
375 7 996
376 7 345
377 7 1013
378 7 2109
379 7 414
380 7 753
381 7 435
382 7 1266
383 7 396
384 7 3236
385 7 655
386 7 625
387 7 63
388 7 606
389 7 269
390 7 1385
391 7 530
392 7 768
393 7 653
394 7 273
395 7 1688
396 7 415
397 7 276
398 7 731
399 7 1061
400 7 1967
401 7 1339
402 7 298
403 7 1619
404 7 943
405 7 1627
406 7 401
407 7 245
408 7 730
409 7 749
410 7 578
411 7 558
412 7 199
413 7 308
414 7 517
415 7 928
416 7 178
417 7 1041
418 7 1192
419 7 1514
420 7 297
422 7 954
423 7 1396
424 7 474
425 7 735
426 7 344
427 7 1121
428 7 614
429 7 221
430 7 213
431 7 789
432 7 755
433 7 1778
434 7 47
435 7 769
436 7 60
437 7 290
438 7 545
439 7 472
440 7 1063
441 7 360
442 7 951
443 7 178
444 7 356
445 7 570
446 7 401
447 7 211
448 7 644
449 7 1132
450 7 555
451 7 1271
452 7 1421
453 7 1505
454 7 971
455 7 1205
456 7 739
457 7 1084
458 7 232
459 7 369
460 7 1024
461 7 214
462 7 705
463 7 807
464 7 1293
465 7 1017
466 7 1042
467 7 493
468 7 678
469 7 700
470 7 724
471 7 503
472 7 1372
473 7 1588
474 7 1700
475 7 98
476 7 447
477 7 1422
478 7 428
479 7 918
480 7 148
481 7 206
482 7 890
483 7 600
484 7 151
485 7 468
486 7 854
487 7 868
488 7 1619
489 7 408
490 7 443
491 7 1471
492 7 1748
493 7 230
494 7 415
495 7 686
496 7 1577
497 7 496
498 7 693
499 7 485
500 7 1147
1 8 18
2 8 25
3 8 7
4 8 2
5 8 15
6 8 40
7 8 13
8 8 13
9 8 19
10 8 43
11 8 7
12 8 4
13 8 39
14 8 18
16 8 4
18 8 31
19 8 34
20 8 580
23 8 10
24 8 2
25 8 7
26 8 16
27 8 9
28 8 4
29 8 6
31 8 3
33 8 25
34 8 6
35 8 8
36 8 7
38 8 5
39 8 5
40 8 15
41 8 4
42 8 39
44 8 5
45 8 7
46 8 6
47 8 38
48 8 27
50 8 23
51 8 4
52 8 84
53 8 21
54 8 1
55 8 11
57 8 2
58 8 14
60 8 13
61 8 4
62 8 12
64 8 5
65 8 3
66 8 13
67 8 3
68 8 61
69 8 4
70 8 1
71 8 14
72 8 12
73 8 11
74 8 5
77 8 17
78 8 6
79 8 6
80 8 708
82 8 1
83 8 9
86 8 22
87 8 25
88 8 10
89 8 27
91 8 1
93 8 11
95 8 10
96 8 56
97 8 31
98 8 6
100 8 7
102 8 10
103 8 10
104 8 10
105 8 4
107 8 7
109 8 13
110 8 4
111 8 9
113 8 3
114 8 30
115 8 32
116 8 24
117 8 3
118 8 10
119 8 52
120 8 3
121 8 10
122 8 3
123 8 10
124 8 21
125 8 1
126 8 9
128 8 23
130 8 6
132 8 31
133 8 11
135 8 1
136 8 6
137 8 6
138 8 5
139 8 12
140 8 32
142 8 13
143 8 11
144 8 4
145 8 23
146 8 29
147 8 3
148 8 10
149 8 14
150 8 5
151 8 2
152 8 14
153 8 7
154 8 10
155 8 12
156 8 4
158 8 8
159 8 7
161 8 20
162 8 27
163 8 4
164 8 6
165 8 41
166 8 6
167 8 6
168 8 22
169 8 1
171 8 2
173 8 24
175 8 11
176 8 9
177 8 24
178 8 1
181 8 30
182 8 3
183 8 9
185 8 53
186 8 1
188 8 8
190 8 33
191 8 4
192 8 27
193 8 10
196 8 10
197 8 9
199 8 73
201 8 18
202 8 6
203 8 12
204 8 37
205 8 12
206 8 2
207 8 4
208 8 11
209 8 7
210 8 8
211 8 3
213 8 5
215 8 16
216 8 17
217 8 20
218 8 20
219 8 6
220 8 6
221 8 560
222 8 5
224 8 4
225 8 36
226 8 7
227 8 21
228 8 2
229 8 37
230 8 37
231 8 5
232 8 7
233 8 17
234 8 10
235 8 3
236 8 24
237 8 1
238 8 5
239 8 16
240 8 7
242 8 17
243 8 10
244 8 344
245 8 19
247 8 6
248 8 18
249 8 13
250 8 14
251 8 74
252 8 17
254 8 12
255 8 14
256 8 10
257 8 10
258 8 11
259 8 50
260 8 11
261 8 6
262 8 18
263 8 7
264 8 5
265 8 7
267 8 8
268 8 13
270 8 7
271 8 10
272 8 2
273 8 24
274 8 13
275 8 17
276 8 28
278 8 24
279 8 8
280 8 24
281 8 23
282 8 12
283 8 14
284 8 6
285 8 7
286 8 7
287 8 69
288 8 37
289 8 14
290 8 5
293 8 10
294 8 36
295 8 18
296 8 9
297 8 6
299 8 76
300 8 15
301 8 5
302 8 33
303 8 8
304 8 38
305 8 13
306 8 3
309 8 39
310 8 40
311 8 16
312 8 36
313 8 6
314 8 13
315 8 590
316 8 13
317 8 4
318 8 3
319 8 2
320 8 10
321 8 5
322 8 5
323 8 1
324 8 54
325 8 16
326 8 9
327 8 11
328 8 5
329 8 27
330 8 31
332 8 5
333 8 18
334 8 6
335 8 351
336 8 17
337 8 9
338 8 15
341 8 6
342 8 3
343 8 5
344 8 9
345 8 25
346 8 5
347 8 5
348 8 17
349 8 34
350 8 34
351 8 3
352 8 7
353 8 9
354 8 56
355 8 1
356 8 22
357 8 3
358 8 7
359 8 3
360 8 18
361 8 48
362 8 6
363 8 23
364 8 7
365 8 5
366 8 7
368 8 2
369 8 8
372 8 20
373 8 14
375 8 6
376 8 11
378 8 20
379 8 6
380 8 33
381 8 59
382 8 3
383 8 8
384 8 34
386 8 5
387 8 3
389 8 17
390 8 8
391 8 2
392 8 3
393 8 24
394 8 3
395 8 8
398 8 16
399 8 5
401 8 9
402 8 3
403 8 23
404 8 4
405 8 8
406 8 17
408 8 14
409 8 9
412 8 11
414 8 14
415 8 7
416 8 26
417 8 34
418 8 8
419 8 3
420 8 3
421 8 579
422 8 8
423 8 11
424 8 11
426 8 46
427 8 8
428 8 10
429 8 10
430 8 7
431 8 2
432 8 3
433 8 4
434 8 3
435 8 31
436 8 3
437 8 10
438 8 62
439 8 36
440 8 6
441 8 17
442 8 7
443 8 10
444 8 56
445 8 187
446 8 22
449 8 33
450 8 6
451 8 8
453 8 40
454 8 6
456 8 18
457 8 6
458 8 5
459 8 15
460 8 8
461 8 6
462 8 4
463 8 11
467 8 5
468 8 2
469 8 3
470 8 1
471 8 46
472 8 21
473 8 6
474 8 8
475 8 19
476 8 11
477 8 11
479 8 8
480 8 19
481 8 16
482 8 27
483 8 12
484 8 19
486 8 6
487 8 49
488 8 10
489 8 21
490 8 1
491 8 20
492 8 26
493 8 12
494 8 9
495 8 9
496 8 12
497 8 20
498 8 30
499 8 11
1 9 1069
2 9 216
3 9 302
4 9 17
5 9 147
6 9 435
7 9 147
8 9 483
9 9 800
10 9 197
11 9 316
12 9 151
13 9 169
14 9 67
15 9 217
16 9 351
17 9 133
18 9 249
19 9 1119
20 9 6
21 9 371
22 9 584
23 9 1036
24 9 720
25 9 135
26 9 145
27 9 166
28 9 144
29 9 213
30 9 705
31 9 585
32 9 125
33 9 150
34 9 526
35 9 42
36 9 801
37 9 547
38 9 441
39 9 1317
40 9 427
41 9 1554
42 9 53
43 9 451
44 9 844
45 9 435
46 9 368
47 9 589
48 9 218
49 9 436
50 9 291
51 9 187
52 9 171
53 9 1255
54 9 419
55 9 364
56 9 309
57 9 249
58 9 100
59 9 661
60 9 693
61 9 249
62 9 278
63 9 729
64 9 690
65 9 1074
66 9 173
67 9 297
68 9 271
69 9 302
70 9 371
71 9 229
72 9 479
73 9 486
74 9 477
75 9 715
76 9 197
77 9 474
78 9 347
79 9 221
81 9 363
82 9 41
83 9 396
84 9 1060
85 9 311
86 9 377
87 9 939
88 9 169
89 9 431
90 9 1824
91 9 130
92 9 336
93 9 593
94 9 297
95 9 603
96 9 207
97 9 673
98 9 1105
99 9 767
100 9 595
101 9 917
102 9 980
103 9 5
104 9 1905
105 9 1067
106 9 677
107 9 111
108 9 867
109 9 800
110 9 472
111 9 160
112 9 223
113 9 123
114 9 319
115 9 313
116 9 1045
117 9 229
118 9 335
120 9 33
121 9 706
122 9 324
123 9 79
124 9 514
125 9 988
126 9 377
127 9 516
128 9 588
129 9 522
130 9 184
131 9 355
132 9 398
133 9 170
134 9 837
135 9 248
136 9 672
137 9 630
138 9 938
139 9 267
140 9 896
141 9 932
142 9 559
143 9 115
144 9 260
145 9 767
146 9 1071
147 9 306
148 9 489
149 9 96
150 9 1191
151 9 260
152 9 255
153 9 124
154 9 760
155 9 811
156 9 125
157 9 9
158 9 366
159 9 431
160 9 414
161 9 405
162 9 268
163 9 303
164 9 212
165 9 415
166 9 233
167 9 122
168 9 295
169 9 378
170 9 839
171 9 385
172 9 26
173 9 210
174 9 487
175 9 464
176 9 479
177 9 188
178 9 286
179 9 403
180 9 168
181 9 185
182 9 631
183 9 7
184 9 105
185 9 341
186 9 273
187 9 356
188 9 663
189 9 479
190 9 701
191 9 603
192 9 5
193 9 699
194 9 279
195 9 619
196 9 110
197 9 298
198 9 418
199 9 642
200 9 552
201 9 298
202 9 397
203 9 1338
204 9 331
205 9 365
206 9 129
207 9 1045
208 9 672
209 9 186
210 9 408
211 9 54
212 9 248
213 9 376
214 9 298
215 9 587
216 9 158
217 9 623
218 9 225
219 9 590
220 9 376
222 9 464
223 9 125
224 9 1037
225 9 240
226 9 60
227 9 697
228 9 265
229 9 274
230 9 12
231 9 171
232 9 954
233 9 321
234 9 972
235 9 435
236 9 165
237 9 745
238 9 499
239 9 723
240 9 337
241 9 734
242 9 522
243 9 963
245 9 480
246 9 387
247 9 182
248 9 215
249 9 670
250 9 922
251 9 743
252 9 288
253 9 677
254 9 780
255 9 385
256 9 442
257 9 264
258 9 235
259 9 349
260 9 137
261 9 1007
262 9 286
263 9 310
264 9 235
265 9 51
266 9 28
267 9 252
268 9 564
269 9 910
270 9 209
271 9 314
272 9 347
273 9 1029
274 9 374
275 9 158
276 9 791
277 9 373
278 9 282
279 9 161
280 9 406
281 9 792
282 9 51
283 9 90
284 9 654
285 9 199
286 9 142
287 9 188
288 9 314
289 9 141
290 9 379
291 9 406
292 9 411
293 9 825
294 9 449
295 9 412
296 9 259
297 9 748
298 9 1209
299 9 773
300 9 630
301 9 191
302 9 277
303 9 253
304 9 1143
305 9 449
306 9 97
307 9 279
308 9 67
309 9 823
310 9 863
311 9 532
312 9 523
313 9 472
314 9 198
316 9 564
317 9 328
318 9 363
319 9 110
320 9 476
321 9 783
322 9 294
323 9 563
324 9 266
325 9 112
326 9 269
327 9 338
328 9 737
329 9 179
330 9 69
331 9 287
332 9 1013
333 9 15
334 9 558
335 9 1
336 9 680
337 9 207
338 9 260
339 9 92
340 9 944
341 9 5
342 9 685
343 9 255
344 9 170
345 9 359
346 9 410
347 9 875
348 9 231
349 9 122
350 9 259
351 9 419
352 9 144
353 9 313
354 9 325
355 9 337
356 9 410
357 9 110
358 9 625
359 9 318
360 9 151
361 9 313
362 9 651
363 9 79
364 9 148
365 9 907
366 9 798
367 9 332
368 9 419
369 9 213
370 9 613
371 9 435
372 9 141
373 9 556
374 9 673
375 9 265
376 9 89
377 9 641
378 9 77
379 9 480
380 9 76
381 9 317
382 9 357
383 9 155
384 9 567
385 9 445
386 9 305
387 9 51
388 9 388
389 9 343
390 9 773
391 9 289
392 9 85
393 9 1095
394 9 550
395 9 283
396 9 74
397 9 350
398 9 451
399 9 583
400 9 411
401 9 537
402 9 292
403 9 462
404 9 1211
405 9 856
406 9 49
407 9 436
408 9 73
409 9 8
410 9 237
411 9 689
412 9 396
413 9 237
414 9 264
415 9 186
416 9 386
417 9 946
418 9 601
419 9 213
420 9 1260
421 9 1
422 9 182
423 9 753
424 9 544
425 9 106
426 9 220
427 9 307
428 9 211
429 9 208
430 9 592
431 9 362
432 9 824
433 9 208
434 9 195
435 9 299
436 9 191
437 9 578
439 9 313
440 9 498
441 9 553
442 9 441
443 9 111
444 9 243
446 9 154
447 9 167
448 9 718
449 9 293
450 9 146
451 9 622
452 9 853
453 9 300
454 9 588
455 9 203
456 9 357
457 9 364
458 9 9
459 9 130
460 9 208
462 9 633
463 9 484
464 9 440
465 9 672
466 9 652
467 9 222
468 9 44
469 9 312
470 9 629
471 9 1195
472 9 407
473 9 480
474 9 1258
475 9 158
476 9 189
477 9 410
478 9 252
479 9 787
480 9 63
481 9 439
482 9 280
483 9 378
484 9 16
485 9 255
486 9 279
487 9 259
488 9 441
489 9 839
490 9 638
491 9 112
492 9 1129
493 9 3
494 9 306
495 9 216
496 9 443
497 9 12
498 9 100
499 9 77
500 9 868
1 10 6
3 10 2
4 10 450
5 10 8
7 10 11
9 10 4
10 10 2
11 10 3
12 10 4
13 10 698
16 10 5
19 10 14
20 10 373
22 10 1
24 10 16
25 10 17
26 10 10
28 10 10
29 10 4
30 10 10
32 10 17
33 10 3
35 10 3
37 10 16
38 10 25
39 10 13
40 10 1
43 10 14
44 10 5
45 10 8
48 10 15
50 10 2
51 10 3
52 10 21
53 10 5
54 10 6
57 10 13
58 10 15
59 10 11
60 10 2
62 10 2
63 10 39
64 10 20
65 10 2
66 10 10
69 10 5
70 10 7
72 10 5
74 10 5
75 10 8
76 10 1
77 10 4
78 10 14
80 10 665
81 10 3
82 10 1
83 10 4
84 10 11
86 10 8
87 10 4
88 10 17
90 10 4
91 10 5
92 10 9
94 10 20
96 10 19
97 10 14
98 10 4
99 10 2
103 10 988
105 10 10
106 10 5
107 10 7
112 10 16
113 10 7
115 10 5
119 10 1096
120 10 448
122 10 3
123 10 249
125 10 12
127 10 5
128 10 9
129 10 34
131 10 24
132 10 5
133 10 1
134 10 2
136 10 26
138 10 4
141 10 3
144 10 4
145 10 4
146 10 14
147 10 2
148 10 3
149 10 6
150 10 5
153 10 5
154 10 9
155 10 6
156 10 6
157 10 1521
159 10 6
160 10 19
161 10 2
162 10 5
163 10 2
164 10 10
167 10 17
169 10 2
170 10 3
171 10 7
172 10 159
173 10 11
175 10 7
176 10 26
177 10 7
178 10 6
179 10 26
180 10 4
181 10 1
183 10 702
184 10 58
186 10 9
187 10 5
189 10 5
191 10 2
192 10 553
194 10 23
195 10 3
196 10 8
197 10 11
198 10 2
200 10 5
201 10 11
203 10 6
204 10 12
205 10 12
206 10 3
207 10 5
210 10 13
214 10 5
216 10 4
217 10 12
218 10 26
220 10 5
221 10 710
222 10 4
223 10 11
224 10 10
227 10 4
229 10 4
230 10 1117
231 10 8
235 10 16
236 10 1
237 10 2
238 10 28
239 10 22
240 10 8
241 10 11
242 10 21
244 10 733
245 10 4
248 10 18
251 10 11
253 10 5
254 10 17
257 10 6
261 10 7
262 10 4
263 10 3
264 10 4
266 10 138
268 10 28
269 10 3
271 10 4
272 10 6
273 10 25
274 10 3
275 10 11
276 10 4
278 10 5
280 10 6
281 10 9
283 10 19
284 10 3
285 10 2
286 10 4
287 10 22
288 10 18
289 10 11
290 10 1
292 10 17
293 10 22
294 10 4
295 10 5
296 10 58
297 10 6
299 10 14
300 10 35
305 10 5
306 10 4
307 10 5
309 10 10
310 10 1
311 10 20
313 10 5
314 10 5
315 10 651
316 10 13
318 10 25
319 10 5
320 10 32
321 10 3
322 10 7
325 10 14
326 10 14
328 10 17
329 10 5
330 10 11
331 10 3
332 10 9
333 10 773
335 10 719
336 10 15
337 10 11
338 10 11
341 10 536
342 10 22
343 10 4
345 10 4
346 10 2
348 10 3
351 10 11
353 10 4
355 10 23
356 10 4
357 10 53
359 10 1
362 10 4
363 10 11
365 10 5
368 10 13
370 10 6
371 10 3
373 10 14
374 10 10
375 10 3
379 10 43
380 10 2
382 10 8
383 10 2
384 10 20
385 10 6
386 10 4
387 10 36
389 10 20
390 10 23
392 10 4
395 10 3
396 10 11
397 10 3
400 10 2
401 10 10
402 10 4
403 10 10
404 10 25
405 10 3
406 10 3
408 10 26
409 10 981
410 10 7
411 10 19
412 10 7
413 10 11
414 10 2
416 10 12
420 10 3
421 10 821
422 10 7
423 10 20
424 10 3
425 10 11
426 10 8
427 10 2
429 10 7
431 10 7
434 10 8
435 10 5
436 10 11
437 10 25
438 10 1168
440 10 11
442 10 3
444 10 18
445 10 491
446 10 9
447 10 3
448 10 3
449 10 7
451 10 38
452 10 7
453 10 5
454 10 20
455 10 3
456 10 1
458 10 238
459 10 9
461 10 1099
462 10 3
467 10 5
468 10 23
470 10 4
471 10 3
472 10 5
473 10 3
475 10 5
476 10 38
477 10 8
478 10 32
479 10 5
480 10 18
481 10 4
483 10 4
484 10 806
485 10 32
487 10 44
488 10 3
491 10 21
492 10 3
494 10 8
495 10 143
496 10 4
497 10 782
498 10 41
499 10 4
1 11 1423
2 11 1345
3 11 1124
4 11 1
5 11 1672
6 11 1615
7 11 1052
8 11 1813
9 11 2392
10 11 2535
11 11 696
12 11 1445
13 11 10
14 11 1389
15 11 1795
16 11 1494
17 11 1551
18 11 547
19 11 1154
20 11 4
21 11 2345
22 11 1548
23 11 1612
24 11 355
25 11 22
26 11 1062
27 11 2202
28 11 2010
29 11 1208
30 11 1861
31 11 1748
32 11 739
33 11 2292
34 11 858
35 11 48
36 11 468
37 11 1939
38 11 2461
39 11 2227
40 11 2874
41 11 1620
42 11 535
43 11 1590
44 11 1584
45 11 2349
46 11 1378
47 11 1612
48 11 1543
49 11 1196
50 11 1211
51 11 2133
52 11 1684
53 11 869
54 11 792
55 11 463
56 11 866
57 11 1263
58 11 1774
59 11 1787
60 11 2101
61 11 840
62 11 692
63 11 1534
64 11 192
65 11 1761
66 11 1296
67 11 3057
68 11 2574
69 11 1231
70 11 2067
71 11 20
72 11 1373
73 11 1609
74 11 1151
75 11 1910
76 11 1383
77 11 1579
78 11 895
79 11 2407
80 11 3
81 11 1132
82 11 1201
83 11 2203
84 11 1915
85 11 1542
86 11 2106
87 11 1878
88 11 502
89 11 2105
90 11 1107
91 11 527
92 11 305
93 11 1090
94 11 3070
95 11 952
96 11 2532
97 11 1921
98 11 1773
99 11 580
100 11 1749
101 11 2288
102 11 2317
104 11 1479
105 11 1615
106 11 1888
107 11 43
108 11 2437
109 11 918
110 11 1626
111 11 2201
112 11 13
113 11 693
114 11 1952
115 11 1026
116 11 2041
117 11 1622
118 11 629
121 11 757
122 11 1399
123 11 2
124 11 1386
125 11 1940
126 11 2168
127 11 1983
128 11 1176
129 11 1458
130 11 2141
131 11 1755
132 11 674
133 11 1373
134 11 1828
135 11 782
136 11 1428
137 11 2254
138 11 940
139 11 1849
140 11 91
141 11 2044
142 11 1493
143 11 574
144 11 2361
145 11 1990
146 11 1084
147 11 1721
148 11 1166
149 11 1660
150 11 2293
151 11 1296
152 11 1692
153 11 1707
154 11 1105
155 11 2340
156 11 2745
157 11 1
158 11 2524
159 11 1325
160 11 660
161 11 2061
162 11 1219
163 11 1540
164 11 566
165 11 1855
166 11 1330
167 11 20
168 11 1210
169 11 1589
170 11 1740
171 11 832
173 11 2577
174 11 1094
175 11 1443
176 11 583
177 11 1885
178 11 1014
179 11 1692
180 11 697
181 11 678
182 11 982
184 11 5
185 11 1905
186 11 646
187 11 1126
188 11 2613
189 11 1325
190 11 1874
191 11 503
193 11 2339
194 11 2242
195 11 1600
196 11 882
197 11 494
198 11 75
199 11 1567
200 11 454
201 11 756
202 11 1466
203 11 1438
204 11 2416
205 11 1143
206 11 1901
207 11 2149
208 11 2282
209 11 2240
210 11 1598
211 11 1585
212 11 1110
213 11 1131
214 11 778
215 11 1484
216 11 1708
217 11 2462
218 11 890
219 11 771
220 11 2131
222 11 1466
223 11 825
224 11 1841
225 11 590
226 11 1058
227 11 915
228 11 789
229 11 1387
230 11 1
231 11 1422
232 11 1382
233 11 1659
234 11 1887
235 11 2496
236 11 12
237 11 798
238 11 1367
239 11 2088
240 11 1198
241 11 1195
242 11 1993
243 11 3425
245 11 1564
246 11 1473
247 11 1439
248 11 210
249 11 820
250 11 865
251 11 1240
252 11 1383
253 11 1889
254 11 1705
255 11 1428
256 11 2834
257 11 2808
258 11 1495
259 11 1943
260 11 2040
261 11 3036
262 11 1186
263 11 3388
264 11 2734
265 11 1077
267 11 1394
268 11 1928
269 11 1974
270 11 1258
271 11 1455
272 11 624
273 11 1389
274 11 2012
275 11 1090
276 11 1204
277 11 494
278 11 3077
279 11 2135
280 11 1111
281 11 1495
282 11 75
283 11 798
284 11 2069
285 11 855
286 11 1070
287 11 1697
288 11 2339
289 11 1066
290 11 1151
291 11 1990
292 11 1916
293 11 2099
294 11 1640
295 11 1862
296 11 1365
297 11 1557
298 11 1934
299 11 2175
300 11 2348
301 11 585
302 11 1636
303 11 1510
304 11 1537
305 11 1127
306 11 21
307 11 2352
308 11 1587
309 11 1704
310 11 2159
311 11 2034
312 11 1588
313 11 1376
314 11 778
316 11 406
317 11 1229
318 11 904
319 11 2781
320 11 471
321 11 1509
322 11 668
323 11 1752
324 11 2514
325 11 698
326 11 1595
327 11 1057
328 11 1474
329 11 383
330 11 1693
331 11 1287
332 11 1879
334 11 744
336 11 912
337 11 1438
338 11 1704
339 11 1875
340 11 1372
342 11 1432
343 11 461
344 11 2234
345 11 2143
346 11 848
347 11 1854
348 11 1379
349 11 1498
350 11 551
351 11 836
352 11 1991
353 11 430
354 11 1974
355 11 1702
356 11 2830
357 11 1870
358 11 1671
359 11 1067
360 11 1091
361 11 1856
362 11 2207
363 11 811
364 11 1335
365 11 910
366 11 1489
367 11 1905
368 11 1411
369 11 2880
370 11 949
371 11 1185
372 11 1164
373 11 362
374 11 1911
375 11 1128
376 11 28
377 11 2766
378 11 1023
379 11 1295
380 11 1058
381 11 2016
382 11 1574
383 11 907
384 11 3446
385 11 1042
386 11 1325
387 11 3
388 11 1612
389 11 972
390 11 2168
391 11 2287
392 11 1147
393 11 2117
394 11 1771
395 11 1223
396 11 829
397 11 1620
398 11 1183
399 11 1696
400 11 1371
401 11 2604
402 11 1045
403 11 2522
404 11 767
405 11 1078
406 11 748
407 11 73
408 11 2
410 11 209
411 11 1397
412 11 2058
413 11 2298
414 11 1755
415 11 1135
416 11 1547
417 11 1321
418 11 2034
419 11 1133
420 11 3179
422 11 738
423 11 2036
424 11 44
425 11 1075
426 11 2548
427 11 1667
428 11 2719
429 11 732
430 11 1066
431 11 2205
432 11 1807
433 11 820
434 11 1196
435 11 1008
436 11 1135
437 11 1843
438 11 5
439 11 1920
440 11 1002
441 11 1450
442 11 1252
443 11 879
444 11 2677
446 11 1042
447 11 1091
448 11 1242
449 11 1305
450 11 2013
451 11 2384
452 11 1929
453 11 2279
454 11 2392
455 11 2506
456 11 1455
457 11 1694
459 11 991
460 11 2166
461 11 5
462 11 2079
463 11 1758
464 11 1048
465 11 2716
466 11 2897
467 11 1860
469 11 2118
470 11 890
471 11 560
472 11 2079
473 11 1445
474 11 2849
475 11 1235
476 11 1703
477 11 2071
478 11 2431
479 11 1265
480 11 487
481 11 1843
482 11 1618
483 11 436
484 11 2
485 11 2293
486 11 2113
487 11 862
488 11 1368
489 11 967
490 11 1813
491 11 1864
492 11 1191
493 11 2
494 11 320
496 11 1414
498 11 2367
499 11 556
500 11 1284
1 12 339
2 12 670
3 12 343
5 12 282
6 12 266
7 12 185
8 12 1129
9 12 201
10 12 361
11 12 47
12 12 329
14 12 232
15 12 731
16 12 64
17 12 131
18 12 969
19 12 178
21 12 274
22 12 333
23 12 184
24 12 186
26 12 179
27 12 805
28 12 114
29 12 565
30 12 452
31 12 405
32 12 328
33 12 367
34 12 699
36 12 304
37 12 174
38 12 127
39 12 196
40 12 114
41 12 220
42 12 422
43 12 55
44 12 738
45 12 308
46 12 302
47 12 706
48 12 352
49 12 120
50 12 175
51 12 189
52 12 128
53 12 274
54 12 203
55 12 256
56 12 465
57 12 816
58 12 586
59 12 459
60 12 102
61 12 751
62 12 457
63 12 773
65 12 68
66 12 262
67 12 769
68 12 245
69 12 167
70 12 73
71 12 2
72 12 510
73 12 380
74 12 306
75 12 462
76 12 359
77 12 74
78 12 146
79 12 296
81 12 267
82 12 176
83 12 258
84 12 853
85 12 77
86 12 76
87 12 404
88 12 191
89 12 351
90 12 526
91 12 30
92 12 37
93 12 564
94 12 626
95 12 340
96 12 343
97 12 313
98 12 74
99 12 108
100 12 361
101 12 601
102 12 176
104 12 436
105 12 308
106 12 481
107 12 5
108 12 297
109 12 128
110 12 256
111 12 175
113 12 28
114 12 141
115 12 197
116 12 307
117 12 216
118 12 850
121 12 981
122 12 802
124 12 352
125 12 288
126 12 200
127 12 166
128 12 269
129 12 279
130 12 171
131 12 129
132 12 340
133 12 516
134 12 252
135 12 38
136 12 646
137 12 313
138 12 568
139 12 611
140 12 87
141 12 551
142 12 520
143 12 160
144 12 550
145 12 1165
146 12 206
147 12 403
148 12 309
149 12 98
150 12 242
151 12 71
152 12 378
153 12 140
154 12 861
155 12 473
156 12 164
158 12 529
159 12 574
160 12 811
161 12 65
162 12 187
163 12 539
164 12 440
165 12 191
166 12 243
167 12 4
168 12 73
169 12 79
170 12 272
171 12 203
173 12 565
174 12 188
175 12 543
176 12 258
177 12 523
178 12 180
179 12 146
180 12 32
181 12 262
182 12 492
185 12 720
186 12 432
187 12 265
188 12 299
189 12 492
190 12 140
191 12 1151
193 12 292
194 12 228
195 12 171
196 12 170
197 12 168
198 12 49
199 12 243
200 12 462
201 12 87
202 12 228
203 12 163
204 12 800
205 12 895
206 12 208
207 12 395
208 12 306
209 12 160
210 12 344
211 12 586
212 12 223
213 12 372
214 12 443
215 12 456
216 12 309
217 12 437
218 12 195
219 12 279
220 12 276
222 12 527
223 12 346
224 12 1162
225 12 995
226 12 212
227 12 123
228 12 44
229 12 781
231 12 313
232 12 663
233 12 449
234 12 317
235 12 137
237 12 227
238 12 110
239 12 214
240 12 291
241 12 228
242 12 141
243 12 853
245 12 91
246 12 790
247 12 609
248 12 31
249 12 298
250 12 85
251 12 511
252 12 233
253 12 460
254 12 511
255 12 1229
256 12 324
257 12 856
258 12 495
259 12 692
260 12 715
261 12 1815
262 12 200
263 12 469
264 12 849
265 12 193
267 12 216
268 12 387
269 12 505
270 12 438
271 12 188
272 12 232
273 12 209
274 12 70
275 12 180
276 12 378
277 12 30
278 12 674
279 12 146
280 12 383
281 12 174
283 12 410
284 12 454
285 12 754
286 12 228
287 12 113
288 12 137
289 12 150
290 12 76
291 12 109
292 12 607
293 12 268
294 12 203
295 12 330
296 12 146
297 12 560
298 12 392
299 12 176
300 12 67
301 12 271
302 12 438
303 12 622
304 12 261
305 12 554
307 12 526
308 12 226
309 12 281
310 12 765
311 12 135
312 12 703
313 12 137
314 12 77
316 12 181
317 12 220
318 12 148
319 12 154
320 12 364
321 12 536
322 12 134
323 12 397
324 12 243
325 12 622
326 12 219
327 12 289
328 12 600
329 12 24
330 12 344
331 12 324
332 12 1142
334 12 181
336 12 101
337 12 94
338 12 184
339 12 140
340 12 355
342 12 613
343 12 397
344 12 155
345 12 70
346 12 308
347 12 166
348 12 713
349 12 261
350 12 949
351 12 218
352 12 726
353 12 66
354 12 734
355 12 83
356 12 111
357 12 153
358 12 438
359 12 300
360 12 132
361 12 733
362 12 251
363 12 423
364 12 652
365 12 610
366 12 489
367 12 367
368 12 316
369 12 222
370 12 109
371 12 320
372 12 172
373 12 205
374 12 467
375 12 505
376 12 8
377 12 254
378 12 392
379 12 1014
380 12 230
381 12 710
382 12 666
383 12 78
384 12 265
385 12 160
386 12 848
388 12 120
389 12 300
390 12 267
391 12 111
392 12 354
393 12 302
394 12 420
395 12 363
396 12 252
397 12 189
398 12 169
399 12 688
400 12 184
401 12 542
402 12 314
403 12 88
404 12 709
405 12 796
406 12 33
407 12 33
410 12 43
411 12 613
412 12 266
413 12 379
414 12 508
415 12 247
416 12 336
417 12 271
418 12 458
419 12 411
420 12 674
422 12 103
423 12 240
425 12 421
426 12 371
427 12 231
428 12 188
429 12 74
430 12 575
431 12 1947
432 12 145
433 12 737
434 12 339
435 12 273
436 12 310
437 12 411
439 12 123
440 12 234
441 12 514
442 12 203
443 12 367
444 12 327
446 12 161
447 12 62
448 12 205
449 12 862
450 12 716
451 12 64
452 12 468
453 12 97
454 12 322
455 12 567
456 12 145
457 12 177
459 12 151
460 12 152
462 12 492
463 12 1149
464 12 619
465 12 284
466 12 269
467 12 253
469 12 1276
470 12 47
471 12 113
472 12 67
473 12 581
474 12 483
475 12 265
476 12 384
477 12 72
478 12 191
479 12 111
480 12 531
481 12 79
482 12 407
483 12 494
485 12 216
486 12 279
487 12 98
488 12 539
489 12 427
490 12 542
491 12 600
492 12 321
494 12 685
496 12 521
498 12 342
499 12 586
500 12 282
1 13 1356
2 13 977
3 13 1342
5 13 862
6 13 1404
7 13 425
8 13 1046
9 13 1002
10 13 645
11 13 319
12 13 1237
14 13 532
15 13 399
16 13 817
17 13 732
18 13 835
19 13 1169
21 13 969
22 13 263
23 13 1131
24 13 462
26 13 475
27 13 959
28 13 738
29 13 315
30 13 757
31 13 1091
32 13 243
33 13 1202
34 13 877
36 13 1034
37 13 627
38 13 552
39 13 1047
40 13 957
41 13 1223
42 13 790
43 13 655
44 13 790
45 13 1525
46 13 2696
47 13 1601
48 13 778
49 13 214
50 13 27
51 13 1157
52 13 292
53 13 1959
54 13 522
55 13 1071
56 13 248
57 13 178
58 13 1071
59 13 764
60 13 952
61 13 962
62 13 55
63 13 251
65 13 827
66 13 1049
67 13 1709
68 13 497
69 13 2034
70 13 771
72 13 223
73 13 115
74 13 878
75 13 757
76 13 406
77 13 377
78 13 561
79 13 917
81 13 661
82 13 89
83 13 716
84 13 669
85 13 949
86 13 735
87 13 753
88 13 152
89 13 667
90 13 335
93 13 1409
94 13 1173
95 13 1000
96 13 1064
97 13 1149
98 13 882
99 13 366
100 13 1056
101 13 1463
102 13 1225
104 13 595
105 13 1307
106 13 777
108 13 1489
109 13 90
110 13 833
111 13 1751
113 13 12
114 13 1067
115 13 1273
116 13 514
117 13 563
118 13 1243
121 13 620
122 13 379
124 13 267
125 13 489
126 13 1298
127 13 931
128 13 1314
129 13 1091
130 13 1732
131 13 693
132 13 460
133 13 1400
134 13 585
136 13 946
137 13 1737
138 13 348
139 13 1292
140 13 807
141 13 1489
142 13 494
143 13 429
144 13 814
145 13 214
146 13 1146
147 13 2196
148 13 893
149 13 1244
150 13 989
151 13 205
152 13 926
153 13 482
154 13 1220
155 13 1074
156 13 535
158 13 1675
159 13 230
160 13 658
161 13 699
162 13 1067
163 13 400
164 13 304
165 13 1229
166 13 911
168 13 119
169 13 794
170 13 609
171 13 588
173 13 1612
174 13 1957
175 13 205
176 13 452
177 13 340
178 13 151
179 13 739
181 13 999
182 13 576
185 13 1165
186 13 582
187 13 624
188 13 2345
189 13 452
190 13 892
191 13 257
193 13 1755
194 13 1052
195 13 574
196 13 456
197 13 504
198 13 2
199 13 285
200 13 480
201 13 51
202 13 202
203 13 1768
204 13 1122
205 13 601
206 13 1080
207 13 497
208 13 1721
209 13 1797
210 13 1284
211 13 1603
212 13 1050
213 13 278
214 13 267
215 13 519
216 13 1771
217 13 757
218 13 720
219 13 113
220 13 760
222 13 224
223 13 252
224 13 144
225 13 791
226 13 822
227 13 1058
229 13 896
231 13 1320
232 13 192
233 13 1066
234 13 1876
235 13 597
237 13 388
238 13 824
239 13 968
240 13 1170
241 13 83
242 13 494
243 13 967
245 13 343
246 13 1683
247 13 682
248 13 48
249 13 119
250 13 12
251 13 331
252 13 1136
253 13 752
254 13 448
255 13 2514
256 13 2024
257 13 1294
258 13 1621
259 13 1107
260 13 1462
261 13 1689
262 13 32
263 13 856
264 13 1283
265 13 872
267 13 954
268 13 852
269 13 1535
270 13 1351
271 13 847
272 13 1020
273 13 978
274 13 722
275 13 464
276 13 304
278 13 1989
279 13 1716
280 13 1246
281 13 1443
283 13 25
284 13 254
285 13 282
286 13 131
287 13 256
288 13 557
289 13 458
290 13 366
291 13 1786
292 13 801
293 13 959
294 13 1092
295 13 1614
296 13 604
297 13 653
298 13 1104
299 13 355
300 13 402
301 13 497
302 13 808
303 13 319
304 13 1058
305 13 1669
307 13 842
308 13 799
309 13 577
310 13 989
311 13 507
312 13 1592
313 13 811
314 13 1502
316 13 1241
317 13 244
318 13 559
319 13 483
320 13 435
321 13 616
322 13 315
323 13 1136
324 13 484
325 13 1152
326 13 257
327 13 339
328 13 991
329 13 2
330 13 732
331 13 1065
332 13 166
334 13 764
336 13 1085
337 13 671
338 13 479
339 13 821
340 13 1172
342 13 949
343 13 361
344 13 1758
345 13 728
346 13 1606
347 13 593
348 13 960
349 13 1033
350 13 785
351 13 568
352 13 1387
353 13 5
354 13 1115
355 13 1670
356 13 962
357 13 429
358 13 388
359 13 714
360 13 381
361 13 1103
362 13 824
363 13 37
364 13 229
365 13 351
366 13 1239
367 13 1753
368 13 1311
369 13 964
370 13 801
371 13 1041
372 13 375
373 13 1211
374 13 784
375 13 494
377 13 1089
378 13 1385
379 13 557
380 13 1175
381 13 1085
382 13 151
383 13 123
384 13 1451
385 13 1316
386 13 902
388 13 875
389 13 362
390 13 1006
391 13 1067
392 13 377
393 13 528
394 13 1059
395 13 1346
396 13 383
397 13 1086
398 13 1147
399 13 1223
400 13 2372
401 13 1962
402 13 748
403 13 740
404 13 632
405 13 988
406 13 4
410 13 5
411 13 918
412 13 730
413 13 1245
414 13 1045
415 13 1164
416 13 1204
417 13 644
418 13 319
419 13 476
420 13 484
422 13 12
423 13 1026
425 13 626
426 13 1028
427 13 596
428 13 1032
429 13 1591
430 13 1440
431 13 1218
432 13 641
433 13 960
434 13 697
435 13 650
436 13 685
437 13 865
439 13 1054
440 13 1491
441 13 521
442 13 905
443 13 687
444 13 1028
446 13 450
447 13 33
448 13 73
449 13 1604
450 13 1496
451 13 399
452 13 670
453 13 476
454 13 978
455 13 1499
456 13 481
457 13 1089
459 13 429
460 13 1777
462 13 234
463 13 1023
464 13 295
465 13 1113
466 13 1219
467 13 1130
469 13 745
470 13 2
471 13 1074
472 13 768
473 13 240
474 13 835
475 13 1015
476 13 475
477 13 731
478 13 1033
479 13 878
480 13 283
481 13 567
482 13 807
483 13 864
485 13 1005
486 13 1175
487 13 852
488 13 226
489 13 764
490 13 643
491 13 1162
492 13 511
494 13 620
496 13 216
498 13 1159
499 13 851
500 13 1497
1 14 40
2 14 92
3 14 44
5 14 27
6 14 76
7 14 55
8 14 87
9 14 51
10 14 62
11 14 62
12 14 59
14 14 42
15 14 154
16 14 71
17 14 65
18 14 104
19 14 87
21 14 79
22 14 73
23 14 71
24 14 84
26 14 59
27 14 167
28 14 30
29 14 54
30 14 63
31 14 25
32 14 41
33 14 102
34 14 60
36 14 77
37 14 13
38 14 75
39 14 99
40 14 7
41 14 172
42 14 94
43 14 53
44 14 82
45 14 102
46 14 63
47 14 194
48 14 14
49 14 57
51 14 96
52 14 16
53 14 85
54 14 56
55 14 48
56 14 67
57 14 49
58 14 115
59 14 63
60 14 57
61 14 54
62 14 34
63 14 53
65 14 66
66 14 66
67 14 73
68 14 222
69 14 53
70 14 31
72 14 168
73 14 90
74 14 138
75 14 71
76 14 57
77 14 14
78 14 36
79 14 69
81 14 79
82 14 51
83 14 128
84 14 87
85 14 90
86 14 127
87 14 80
88 14 101
89 14 60
90 14 67
93 14 51
94 14 99
95 14 59
96 14 27
97 14 67
98 14 61
99 14 356
100 14 34
101 14 93
102 14 68
104 14 113
105 14 98
106 14 69
108 14 5
109 14 95
110 14 72
111 14 38
113 14 36
114 14 55
115 14 44
116 14 88
117 14 40
118 14 248
121 14 168
122 14 63
124 14 94
125 14 93
126 14 33
127 14 73
128 14 76
129 14 59
130 14 26
131 14 146
132 14 83
133 14 103
134 14 95
136 14 88
137 14 46
138 14 101
139 14 60
140 14 86
141 14 180
142 14 64
143 14 134
144 14 31
145 14 128
146 14 100
147 14 108
148 14 127
149 14 64
150 14 52
151 14 69
152 14 59
153 14 49
154 14 60
155 14 49
156 14 120
158 14 34
159 14 204
160 14 41
161 14 148
162 14 105
163 14 44
164 14 32
165 14 67
166 14 141
168 14 258
169 14 58
170 14 75
171 14 58
173 14 222
174 14 106
175 14 181
176 14 49
177 14 61
178 14 217
179 14 148
180 14 1
181 14 81
182 14 78
185 14 33
186 14 49
187 14 94
188 14 57
189 14 104
190 14 21
191 14 8
193 14 55
194 14 25
195 14 69
196 14 38
197 14 32
199 14 56
200 14 56
201 14 58
202 14 374
203 14 153
204 14 84
205 14 165
206 14 24
207 14 34
208 14 49
209 14 33
210 14 100
211 14 126
212 14 112
213 14 54
214 14 89
215 14 73
216 14 125
217 14 47
218 14 62
219 14 69
220 14 126
222 14 161
223 14 44
224 14 96
225 14 110
226 14 57
227 14 74
229 14 158
231 14 46
232 14 119
233 14 13
234 14 49
235 14 64
237 14 50
238 14 51
239 14 200
240 14 8
241 14 55
242 14 60
243 14 163
245 14 20
246 14 62
247 14 37
248 14 44
249 14 59
250 14 2
251 14 56
252 14 119
253 14 91
254 14 44
255 14 180
256 14 48
257 14 79
258 14 107
259 14 37
260 14 16
261 14 20
263 14 277
264 14 86
265 14 43
267 14 147
268 14 31
269 14 205
270 14 83
271 14 55
272 14 71
273 14 68
274 14 126
275 14 58
276 14 72
278 14 98
279 14 35
280 14 84
281 14 117
283 14 47
284 14 122
285 14 117
286 14 353
287 14 23
288 14 39
289 14 70
290 14 313
291 14 46
292 14 105
293 14 180
294 14 23
295 14 95
296 14 114
297 14 48
298 14 42
299 14 62
300 14 98
301 14 130
302 14 126
303 14 90
304 14 116
305 14 207
307 14 33
308 14 242
309 14 77
310 14 47
311 14 69
312 14 192
313 14 186
314 14 86
316 14 42
317 14 221
318 14 37
319 14 118
320 14 55
321 14 56
322 14 354
323 14 25
324 14 237
325 14 19
326 14 173
327 14 110
328 14 98
329 14 3
330 14 101
331 14 94
332 14 99
334 14 96
336 14 82
337 14 39
338 14 558
339 14 71
340 14 65
342 14 77
343 14 58
344 14 41
345 14 134
346 14 54
347 14 24
348 14 89
349 14 4
350 14 122
351 14 42
352 14 24
353 14 8
354 14 49
355 14 78
356 14 7
357 14 133
358 14 78
359 14 76
360 14 43
361 14 40
362 14 60
363 14 71
364 14 104
365 14 110
366 14 123
367 14 80
368 14 41
369 14 33
370 14 44
371 14 259
372 14 64
373 14 40
374 14 78
375 14 66
377 14 56
378 14 43
379 14 96
380 14 60
381 14 47
382 14 133
383 14 59
384 14 76
385 14 35
386 14 127
388 14 62
389 14 44
390 14 191
391 14 81
392 14 261
393 14 81
394 14 18
395 14 53
396 14 35
397 14 38
398 14 78
399 14 89
400 14 91
401 14 78
402 14 96
403 14 161
404 14 24
405 14 74
410 14 4
411 14 98
412 14 110
413 14 150
414 14 143
415 14 46
416 14 91
417 14 108
418 14 112
419 14 94
420 14 70
423 14 191
425 14 46
426 14 33
427 14 136
428 14 42
429 14 78
430 14 61
431 14 123
432 14 25
433 14 52
434 14 29
435 14 32
436 14 28
437 14 36
439 14 53
440 14 65
441 14 85
442 14 42
443 14 94
444 14 31
446 14 69
447 14 30
448 14 59
449 14 148
450 14 24
451 14 87
452 14 105
453 14 61
454 14 308
455 14 76
456 14 386
457 14 49
459 14 55
460 14 46
462 14 143
463 14 72
464 14 84
465 14 60
466 14 64
467 14 177
469 14 34
470 14 5
471 14 36
472 14 120
473 14 167
474 14 105
475 14 66
476 14 84
477 14 136
478 14 26
479 14 107
480 14 76
481 14 92
482 14 141
483 14 74
485 14 13
486 14 30
487 14 55
488 14 204
489 14 53
490 14 42
491 14 126
492 14 55
494 14 112
496 14 190
498 14 64
499 14 54
500 14 144
1 15 802
2 15 515
3 15 199
5 15 296
6 15 1134
7 15 341
8 15 192
9 15 233
10 15 530
11 15 206
12 15 131
14 15 234
15 15 456
16 15 201
17 15 474
18 15 118
19 15 376
21 15 350
22 15 236
23 15 122
24 15 143
26 15 340
27 15 485
28 15 644
29 15 38
30 15 422
31 15 232
33 15 464
34 15 817
36 15 427
37 15 433
38 15 448
39 15 263
40 15 705
41 15 731
42 15 309
43 15 56
44 15 162
45 15 227
46 15 135
47 15 204
48 15 674
49 15 594
51 15 482
52 15 788
53 15 275
54 15 165
55 15 515
56 15 70
57 15 318
58 15 396
59 15 466
60 15 1268
61 15 338
62 15 3
63 15 339
65 15 687
66 15 959
67 15 513
68 15 212
69 15 176
70 15 201
72 15 1313
73 15 370
74 15 637
75 15 445
76 15 497
77 15 703
78 15 208
79 15 500
81 15 1073
83 15 102
84 15 645
85 15 358
86 15 537
87 15 1181
88 15 304
89 15 780
90 15 198
93 15 357
94 15 656
95 15 540
96 15 347
97 15 384
98 15 650
99 15 9
100 15 237
101 15 590
102 15 170
104 15 133
105 15 122
106 15 446
108 15 303
110 15 177
111 15 234
114 15 607
115 15 312
116 15 563
117 15 149
118 15 833
121 15 83
122 15 459
124 15 104
125 15 190
126 15 171
127 15 265
128 15 748
129 15 243
130 15 234
131 15 541
132 15 204
133 15 368
134 15 980
136 15 99
137 15 200
138 15 118
139 15 311
140 15 77
141 15 721
142 15 825
143 15 650
144 15 879
145 15 932
146 15 377
147 15 178
148 15 665
149 15 197
150 15 1082
151 15 295
152 15 555
153 15 251
154 15 220
155 15 305
156 15 85
158 15 702
159 15 1267
160 15 113
161 15 549
162 15 164
163 15 882
164 15 153
165 15 659
166 15 375
168 15 58
169 15 227
170 15 993
171 15 170
173 15 236
174 15 195
175 15 1327
176 15 1015
177 15 1058
178 15 101
179 15 541
181 15 656
182 15 703
185 15 945
186 15 1052
187 15 1008
188 15 194
189 15 1321
190 15 398
191 15 770
193 15 200
194 15 477
195 15 427
196 15 375
197 15 104
199 15 444
200 15 468
202 15 297
203 15 605
204 15 381
205 15 218
206 15 330
207 15 167
208 15 203
209 15 209
210 15 605
211 15 559
212 15 416
213 15 105
214 15 76
215 15 807
216 15 137
217 15 412
218 15 243
219 15 7
220 15 113
222 15 1290
224 15 481
225 15 144
226 15 1168
227 15 100
229 15 562
231 15 135
232 15 589
233 15 270
234 15 498
235 15 462
237 15 425
238 15 571
239 15 275
240 15 554
241 15 1467
242 15 313
243 15 352
245 15 715
246 15 988
247 15 1028
248 15 31
249 15 9
251 15 241
252 15 223
253 15 451
254 15 429
255 15 723
256 15 721
257 15 281
258 15 398
259 15 895
260 15 714
261 15 361
263 15 682
264 15 320
265 15 1142
267 15 386
268 15 945
269 15 708
270 15 653
271 15 213
272 15 179
273 15 165
274 15 577
275 15 310
276 15 335
278 15 269
279 15 220
280 15 561
281 15 176
284 15 640
285 15 826
286 15 2
287 15 762
288 15 1081
289 15 299
290 15 61
291 15 273
292 15 163
293 15 241
294 15 562
295 15 350
296 15 756
297 15 233
298 15 1016
299 15 608
300 15 921
301 15 707
302 15 598
303 15 519
304 15 140
305 15 1057
307 15 967
308 15 198
309 15 78
310 15 306
311 15 331
312 15 193
313 15 338
314 15 440
316 15 374
317 15 155
318 15 193
319 15 77
320 15 161
321 15 253
322 15 23
323 15 236
324 15 228
325 15 172
326 15 494
327 15 70
328 15 90
330 15 452
331 15 129
332 15 449
334 15 1013
336 15 110
337 15 201
338 15 321
339 15 306
340 15 368
342 15 88
343 15 664
344 15 214
345 15 554
346 15 127
347 15 486
348 15 489
349 15 682
350 15 118
351 15 144
352 15 754
354 15 916
355 15 740
356 15 687
357 15 300
358 15 43
359 15 393
360 15 734
361 15 949
362 15 446
363 15 4
364 15 874
365 15 129
366 15 317
367 15 414
368 15 353
369 15 369
370 15 105
371 15 453
372 15 736
373 15 401
374 15 444
375 15 374
377 15 177
378 15 540
379 15 711
380 15 463
381 15 862
382 15 434
383 15 41
384 15 662
385 15 201
386 15 135
388 15 527
389 15 62
390 15 244
391 15 301
392 15 28
393 15 492
394 15 227
395 15 185
396 15 294
397 15 255
398 15 235
399 15 275
400 15 737
401 15 269
402 15 376
403 15 602
404 15 648
405 15 573
411 15 90
412 15 124
413 15 114
414 15 293
415 15 1934
416 15 644
417 15 500
418 15 757
419 15 331
420 15 398
423 15 240
425 15 456
426 15 374
427 15 700
428 15 372
429 15 406
430 15 346
431 15 167
432 15 484
433 15 344
434 15 446
435 15 171
436 15 441
437 15 969
439 15 531
440 15 946
441 15 832
442 15 283
443 15 131
444 15 376
446 15 284
448 15 1427
449 15 559
450 15 734
451 15 973
452 15 146
453 15 872
454 15 305
455 15 1349
456 15 75
457 15 164
459 15 330
460 15 231
462 15 664
463 15 190
464 15 542
465 15 162
466 15 169
467 15 424
469 15 1902
471 15 1128
472 15 527
473 15 1336
474 15 749
475 15 930
476 15 835
477 15 594
478 15 474
479 15 296
480 15 47
481 15 352
482 15 559
483 15 735
485 15 448
486 15 712
487 15 680
488 15 1361
489 15 334
490 15 421
491 15 326
492 15 144
494 15 384
496 15 1326
498 15 849
499 15 243
500 15 469
1 16 403
2 16 198
3 16 550
5 16 478
6 16 442
7 16 251
8 16 256
9 16 460
10 16 275
11 16 232
12 16 540
14 16 999
15 16 591
16 16 482
17 16 58
18 16 433
19 16 199
21 16 681
22 16 1103
23 16 69
24 16 435
26 16 242
27 16 868
28 16 832
29 16 22
30 16 109
31 16 233
33 16 229
34 16 423
36 16 154
37 16 753
38 16 816
39 16 179
40 16 804
41 16 343
42 16 504
43 16 570
44 16 105
45 16 448
46 16 350
47 16 517
48 16 132
49 16 657
51 16 314
52 16 697
53 16 738
55 16 62
56 16 263
57 16 713
58 16 336
59 16 98
60 16 1084
61 16 137
63 16 372
65 16 162
66 16 257
67 16 303
68 16 79
69 16 56
70 16 439
72 16 636
73 16 430
74 16 1149
75 16 110
76 16 374
77 16 231
78 16 277
79 16 952
81 16 799
83 16 207
84 16 570
85 16 576
86 16 395
87 16 215
88 16 1200
89 16 330
90 16 929
93 16 169
94 16 363
95 16 299
96 16 133
97 16 404
98 16 158
99 16 34
100 16 236
101 16 337
102 16 365
104 16 528
105 16 149
106 16 89
108 16 393
110 16 261
111 16 235
114 16 196
115 16 145
116 16 236
117 16 872
118 16 484
121 16 377
122 16 306
124 16 852
125 16 103
126 16 635
127 16 351
128 16 520
129 16 361
130 16 232
131 16 254
132 16 705
133 16 140
134 16 217
136 16 415
137 16 278
138 16 278
139 16 431
141 16 1012
142 16 253
143 16 155
144 16 259
145 16 312
146 16 234
147 16 154
148 16 1119
149 16 303
150 16 1545
151 16 724
152 16 294
153 16 344
154 16 261
155 16 247
156 16 129
158 16 133
159 16 582
160 16 241
161 16 409
162 16 387
163 16 292
164 16 908
165 16 594
166 16 401
169 16 516
170 16 204
173 16 1009
174 16 338
175 16 639
176 16 162
177 16 722
179 16 240
181 16 487
182 16 480
185 16 661
186 16 607
187 16 757
188 16 165
189 16 879
190 16 342
191 16 599
193 16 298
194 16 747
195 16 481
196 16 234
197 16 73
199 16 235
200 16 172
202 16 275
203 16 306
204 16 317
205 16 344
206 16 348
207 16 448
208 16 321
209 16 235
210 16 90
211 16 512
212 16 183
213 16 137
214 16 629
215 16 246
216 16 486
217 16 829
218 16 69
220 16 255
222 16 646
224 16 663
225 16 442
226 16 1153
227 16 408
229 16 376
231 16 615
232 16 153
233 16 384
234 16 85
235 16 833
237 16 332
238 16 54
239 16 92
240 16 331
241 16 208
242 16 1068
243 16 167
245 16 279
246 16 1055
247 16 593
251 16 375
252 16 384
253 16 118
254 16 134
255 16 703
256 16 274
257 16 393
258 16 208
259 16 584
260 16 1047
261 16 200
263 16 639
264 16 396
265 16 1136
267 16 409
268 16 1308
269 16 1012
270 16 327
271 16 606
272 16 303
273 16 348
274 16 404
275 16 253
276 16 374
278 16 987
279 16 213
280 16 344
281 16 694
284 16 216
285 16 428
287 16 671
288 16 214
289 16 264
290 16 3
291 16 337
292 16 172
293 16 109
294 16 292
295 16 1603
296 16 708
297 16 594
298 16 464
299 16 104
300 16 195
301 16 48
302 16 398
303 16 269
304 16 626
305 16 290
307 16 252
308 16 265
309 16 635
310 16 343
311 16 1019
312 16 524
313 16 233
314 16 359
316 16 738
317 16 421
318 16 316
319 16 149
320 16 164
321 16 639
323 16 227
324 16 85
325 16 224
326 16 304
327 16 280
328 16 397
330 16 148
331 16 332
332 16 595
334 16 276
336 16 368
337 16 146
338 16 96
339 16 541
340 16 367
342 16 426
343 16 518
344 16 218
345 16 379
346 16 456
347 16 458
348 16 206
349 16 379
350 16 395
352 16 1045
354 16 613
355 16 692
356 16 810
357 16 1133
358 16 5
359 16 937
360 16 766
361 16 650
362 16 67
364 16 672
365 16 290
366 16 693
367 16 177
368 16 135
369 16 375
370 16 321
371 16 691
372 16 750
373 16 771
374 16 124
375 16 171
377 16 330
378 16 242
379 16 370
380 16 93
381 16 626
382 16 979
384 16 191
385 16 732
386 16 342
388 16 153
389 16 1
390 16 98
391 16 202
393 16 200
394 16 272
395 16 572
396 16 291
397 16 492
398 16 142
399 16 189
400 16 645
401 16 526
402 16 911
403 16 149
404 16 323
405 16 331
411 16 425
412 16 220
413 16 172
414 16 514
415 16 500
416 16 85
417 16 138
418 16 118
419 16 922
420 16 199
423 16 93
425 16 369
426 16 148
427 16 328
428 16 392
429 16 369
430 16 160
431 16 599
432 16 475
433 16 142
434 16 898
435 16 932
436 16 927
437 16 1345
439 16 206
440 16 436
441 16 254
442 16 260
443 16 284
444 16 162
446 16 277
448 16 217
449 16 265
450 16 1054
451 16 209
452 16 145
453 16 1100
454 16 765
455 16 777
456 16 51
457 16 1254
459 16 250
460 16 219
462 16 224
463 16 263
464 16 1282
465 16 323
466 16 334
467 16 300
469 16 173
471 16 266
472 16 376
473 16 635
474 16 214
475 16 256
476 16 1340
477 16 382
478 16 762
479 16 391
480 16 16
481 16 607
482 16 415
483 16 556
485 16 759
486 16 706
487 16 705
488 16 612
489 16 339
490 16 629
491 16 311
492 16 950
494 16 847
496 16 634
498 16 245
499 16 79
500 16 125
1 17 740
2 17 295
3 17 305
5 17 77
6 17 337
7 17 319
8 17 554
9 17 134
10 17 846
11 17 710
12 17 142
14 17 22
15 17 413
16 17 170
17 17 148
18 17 565
19 17 554
21 17 527
22 17 747
23 17 6
24 17 605
26 17 317
27 17 500
28 17 280
30 17 154
31 17 197
33 17 260
34 17 401
36 17 325
37 17 218
38 17 393
39 17 296
40 17 587
41 17 1129
42 17 148
43 17 24
44 17 125
45 17 258
46 17 408
47 17 209
48 17 267
49 17 683
51 17 153
52 17 29
53 17 168
55 17 50
56 17 407
57 17 936
58 17 88
59 17 160
60 17 615
61 17 307
63 17 686
65 17 62
66 17 373
67 17 802
68 17 463
69 17 80
70 17 256
72 17 619
73 17 79
74 17 114
75 17 161
76 17 651
77 17 428
78 17 198
79 17 199
81 17 103
83 17 674
84 17 356
85 17 273
86 17 624
87 17 380
88 17 130
89 17 579
90 17 329
93 17 128
94 17 232
95 17 224
96 17 414
97 17 261
98 17 81
100 17 208
101 17 191
102 17 157
104 17 80
105 17 324
106 17 152
108 17 647
110 17 434
111 17 338
114 17 382
115 17 79
116 17 301
117 17 286
118 17 102
121 17 31
122 17 662
124 17 826
125 17 129
126 17 261
127 17 200
128 17 489
129 17 331
130 17 321
131 17 578
132 17 502
133 17 295
134 17 262
136 17 266
137 17 268
138 17 448
139 17 229
141 17 128
142 17 119
143 17 213
144 17 318
145 17 319
146 17 538
147 17 286
148 17 100
149 17 594
150 17 569
151 17 299
152 17 87
153 17 204
154 17 272
155 17 86
156 17 165
158 17 644
159 17 594
160 17 185
161 17 616
162 17 163
163 17 20
164 17 110
165 17 1452
166 17 134
169 17 173
170 17 275
173 17 497
174 17 688
175 17 615
176 17 582
177 17 1439
179 17 539
181 17 389
182 17 495
185 17 154
186 17 168
187 17 109
188 17 496
189 17 653
190 17 222
191 17 534
193 17 245
194 17 39
195 17 595
196 17 341
197 17 20
199 17 582
200 17 26
202 17 272
203 17 514
204 17 148
205 17 181
206 17 226
207 17 420
208 17 269
209 17 309
210 17 730
211 17 82
212 17 66
213 17 97
214 17 382
215 17 99
216 17 137
217 17 75
218 17 78
220 17 709
222 17 607
224 17 685
225 17 517
226 17 517
227 17 165
229 17 372
231 17 126
232 17 254
233 17 138
234 17 222
235 17 417
237 17 309
238 17 4
239 17 739
240 17 774
241 17 277
242 17 509
243 17 86
245 17 417
246 17 899
247 17 152
251 17 687
252 17 426
253 17 143
254 17 524
255 17 265
256 17 139
257 17 121
258 17 114
259 17 174
260 17 147
261 17 522
263 17 185
264 17 121
265 17 549
267 17 119
268 17 539
269 17 124
270 17 95
271 17 181
272 17 235
273 17 231
274 17 692
275 17 300
276 17 365
278 17 769
279 17 321
280 17 329
281 17 185
284 17 549
285 17 528
287 17 32
288 17 244
289 17 310
291 17 548
292 17 359
293 17 798
294 17 824
295 17 247
296 17 228
297 17 87
298 17 154
299 17 92
300 17 286
301 17 3
302 17 322
303 17 244
304 17 370
305 17 615
307 17 323
308 17 26
309 17 401
310 17 665
311 17 540
312 17 232
313 17 69
314 17 73
316 17 514
317 17 206
318 17 199
319 17 159
320 17 109
321 17 112
323 17 193
324 17 455
325 17 31
326 17 278
328 17 224
330 17 106
331 17 528
332 17 648
334 17 169
336 17 169
337 17 79
338 17 397
339 17 501
340 17 503
342 17 226
343 17 581
344 17 347
345 17 615
346 17 257
347 17 134
348 17 318
349 17 511
350 17 564
352 17 162
354 17 160
355 17 610
356 17 572
357 17 601
358 17 4
359 17 912
360 17 224
361 17 174
362 17 91
364 17 177
365 17 473
366 17 535
367 17 494
368 17 678
369 17 399
370 17 220
371 17 121
372 17 242
373 17 577
374 17 164
375 17 739
377 17 542
378 17 199
379 17 531
380 17 87
381 17 152
382 17 483
384 17 834
385 17 381
386 17 439
388 17 432
390 17 762
391 17 794
393 17 345
394 17 218
395 17 363
396 17 660
397 17 215
398 17 100
399 17 207
400 17 112
401 17 308
402 17 882
403 17 466
404 17 234
405 17 420
411 17 254
412 17 699
413 17 107
414 17 933
415 17 187
416 17 693
417 17 246
418 17 677
419 17 115
420 17 679
423 17 762
425 17 287
426 17 476
427 17 88
428 17 374
429 17 73
430 17 90
431 17 977
432 17 126
433 17 333
434 17 1111
435 17 430
436 17 1134
437 17 535
439 17 305
440 17 181
441 17 99
442 17 143
443 17 29
444 17 406
446 17 304
448 17 247
449 17 267
450 17 140
451 17 280
452 17 366
453 17 1250
454 17 542
455 17 552
457 17 512
459 17 304
460 17 308
462 17 541
463 17 539
464 17 212
465 17 569
466 17 571
467 17 471
469 17 181
471 17 1236
472 17 601
473 17 644
474 17 122
475 17 401
476 17 259
477 17 682
478 17 40
479 17 202
481 17 235
482 17 284
483 17 304
485 17 38
486 17 314
487 17 255
488 17 658
489 17 625
490 17 183
491 17 89
492 17 118
494 17 648
496 17 659
498 17 184
499 17 177
500 17 197
3 18 4
5 18 124
6 18 450
9 18 57
10 18 777
11 18 167
12 18 115
14 18 50
15 18 118
16 18 1
21 18 361
28 18 270
33 18 3
37 18 140
38 18 447
40 18 1163
42 18 6
44 18 19
46 18 1126
48 18 130
49 18 53
51 18 254
52 18 331
56 18 3
58 18 2
60 18 244
61 18 1544
65 18 14
68 18 22
73 18 6
74 18 66
76 18 4
77 18 10
78 18 39
81 18 666
84 18 195
85 18 193
88 18 154
93 18 16
97 18 846
98 18 10
108 18 83
110 18 602
114 18 4
117 18 4
122 18 509
124 18 856
125 18 314
126 18 314
127 18 4
129 18 115
132 18 308
136 18 11
138 18 3
139 18 520
141 18 28
148 18 63
149 18 196
150 18 453
151 18 16
152 18 57
153 18 3
154 18 10
160 18 318
162 18 85
164 18 64
165 18 349
166 18 7
169 18 1
174 18 225
176 18 143
177 18 705
182 18 38
186 18 280
187 18 658
188 18 375
190 18 727
191 18 384
196 18 3
199 18 938
200 18 9
202 18 417
204 18 215
205 18 6
206 18 13
207 18 589
210 18 74
211 18 535
212 18 771
213 18 240
214 18 164
216 18 590
217 18 1497
224 18 638
227 18 8
231 18 97
234 18 287
235 18 478
237 18 97
239 18 5
240 18 4
243 18 1381
245 18 16
251 18 2
252 18 5
254 18 260
256 18 474
257 18 187
258 18 185
264 18 230
267 18 9
269 18 28
270 18 259
271 18 74
272 18 36
273 18 216
276 18 312
278 18 222
284 18 328
285 18 290
287 18 332
288 18 216
291 18 258
293 18 3
296 18 175
298 18 239
299 18 271
303 18 178
304 18 332
310 18 78
313 18 384
316 18 11
318 18 26
320 18 49
324 18 22
325 18 203
326 18 375
328 18 7
330 18 8
332 18 650
334 18 1141
336 18 17
339 18 9
340 18 14
342 18 16
343 18 590
349 18 40
355 18 2
356 18 1243
359 18 3
362 18 274
364 18 6
365 18 4
366 18 510
368 18 68
369 18 26
370 18 33
371 18 142
373 18 11
378 18 414
379 18 68
380 18 395
382 18 313
385 18 40
386 18 288
390 18 3
391 18 86
395 18 8
396 18 13
397 18 53
399 18 611
400 18 179
402 18 9
403 18 1337
411 18 14
415 18 213
416 18 64
418 18 595
419 18 205
420 18 6
423 18 6
425 18 225
427 18 425
428 18 24
430 18 13
431 18 5
433 18 1448
434 18 19
435 18 36
436 18 21
439 18 5
452 18 34
453 18 484
457 18 192
462 18 348
467 18 583
469 18 5
471 18 483
476 18 267
481 18 935
487 18 898
489 18 4
490 18 53
491 18 4
498 18 385
1 19 322
2 19 1075
3 19 48
5 19 12
8 19 328
9 19 72
11 19 17
12 19 2
14 19 74
21 19 7
22 19 1363
27 19 284
33 19 1
34 19 1278
36 19 1151
37 19 5
39 19 2
41 19 1493
42 19 12
44 19 94
45 19 1090
47 19 938
49 19 55
56 19 156
57 19 591
58 19 11
60 19 6
63 19 1887
65 19 48
66 19 814
67 19 1060
68 19 12
70 19 2019
74 19 5
76 19 451
77 19 54
78 19 58
83 19 1749
87 19 850
88 19 5
89 19 1200
90 19 1777
93 19 55
94 19 528
95 19 1716
97 19 6
98 19 28
101 19 1288
102 19 621
104 19 550
105 19 817
114 19 6
116 19 1364
117 19 1337
118 19 2083
121 19 751
126 19 4
127 19 631
128 19 1356
129 19 12
133 19 1217
136 19 80
138 19 35
139 19 2
141 19 10
143 19 1881
144 19 1
145 19 1163
147 19 2894
148 19 8
149 19 3
151 19 35
152 19 56
154 19 1
155 19 1846
158 19 199
164 19 43
165 19 5
166 19 5
173 19 1447
174 19 5
181 19 2212
182 19 30
188 19 7
189 19 1158
193 19 3
195 19 1068
196 19 81
200 19 83
203 19 1033
206 19 63
208 19 2
210 19 143
211 19 15
214 19 13
216 19 6
218 19 1
220 19 1703
227 19 29
229 19 2203
231 19 5
232 19 1799
233 19 936
237 19 4
240 19 1638
241 19 401
242 19 711
245 19 54
246 19 3524
247 19 662
251 19 1106
252 19 43
255 19 1563
261 19 1015
267 19 4
268 19 782
269 19 6
271 19 29
272 19 23
276 19 2
280 19 929
281 19 1149
288 19 2
292 19 2005
294 19 1922
295 19 358
297 19 689
300 19 989
302 19 2088
303 19 1
305 19 2101
307 19 2
310 19 6
311 19 720
312 19 904
313 19 6
317 19 1101
318 19 47
320 19 32
321 19 725
324 19 16
325 19 24
328 19 70
330 19 7
331 19 1429
334 19 3
336 19 30
338 19 594
339 19 33
340 19 128
342 19 69
346 19 328
347 19 1634
348 19 1083
349 19 36
355 19 44
359 19 20
360 19 1796
362 19 10
364 19 2649
365 19 25
367 19 1966
368 19 40
369 19 29
370 19 25
372 19 1789
375 19 1539
379 19 102
384 19 606
385 19 77
388 19 1915
393 19 1376
395 19 38
396 19 208
397 19 33
398 19 1801
401 19 1639
402 19 23
404 19 751
405 19 1205
411 19 63
412 19 1787
414 19 1939
416 19 162
417 19 1398
420 19 1083
425 19 4
428 19 30
430 19 48
431 19 756
432 19 1538
434 19 5
435 19 50
436 19 2
437 19 893
439 19 4
440 19 1329
448 19 451
449 19 185
451 19 958
452 19 74
455 19 975
457 19 3
463 19 321
464 19 1148
469 19 1416
474 19 846
475 19 885
476 19 1
479 19 267
482 19 2161
483 19 731
486 19 1784
487 19 3
490 19 54
491 19 9
494 19 741
500 19 1221
1 20 6
3 20 58
5 20 39
7 20 699
9 20 100
11 20 8
14 20 22
15 20 4
16 20 270
18 20 475
19 20 1813
24 20 3360
26 20 685
27 20 4
30 20 1485
31 20 1092
33 20 1327
38 20 4
39 20 521
44 20 69
45 20 3
49 20 72
53 20 1308
56 20 87
58 20 2
59 20 1454
61 20 7
65 20 25
66 20 4
68 20 17
69 20 4
72 20 1716
74 20 17
75 20 1389
77 20 31
78 20 75
79 20 1743
86 20 1736
93 20 88
95 20 8
96 20 3493
97 20 15
98 20 24
100 20 1066
101 20 3
105 20 4
106 20 1445
111 20 1025
129 20 3
130 20 1042
131 20 2176
136 20 35
137 20 663
138 20 515
141 20 93
146 20 1873
148 20 19
149 20 14
151 20 215
152 20 46
153 20 5
154 20 32
156 20 1224
158 20 5
159 20 1796
161 20 1703
162 20 10
164 20 19
166 20 48
169 20 241
175 20 1661
179 20 2236
182 20 65
185 20 475
193 20 733
196 20 59
200 20 13
205 20 2104
206 20 89
207 20 2
208 20 662
209 20 975
210 20 139
214 20 5
216 20 5
222 20 1671
225 20 498
226 20 898
227 20 14
235 20 1
237 20 6
239 20 1141
241 20 10
242 20 10
243 20 1
245 20 46
252 20 20
253 20 1423
259 20 446
260 20 934
261 20 5
263 20 637
265 20 906
267 20 39
268 20 5
269 20 114
270 20 10
271 20 32
272 20 13
274 20 1644
275 20 665
276 20 22
279 20 978
288 20 9
289 20 719
292 20 2
293 20 1107
298 20 8
300 20 4
309 20 1961
311 20 8
316 20 741
317 20 2
318 20 66
319 20 1279
320 20 93
323 20 1126
324 20 14
328 20 44
330 20 4
336 20 21
339 20 39
340 20 42
342 20 29
344 20 984
345 20 1608
349 20 25
350 20 490
352 20 916
354 20 466
355 20 68
357 20 2315
359 20 11
361 20 490
362 20 5
365 20 484
366 20 3
368 20 8
369 20 56
370 20 45
373 20 738
374 20 1432
377 20 1848
379 20 89
381 20 443
385 20 7
390 20 1143
394 20 1080
395 20 49
396 20 53
397 20 18
398 20 3
402 20 20
411 20 32
416 20 136
417 20 2
423 20 1159
425 20 10
426 20 3448
428 20 39
430 20 109
433 20 8
434 20 46
435 20 84
436 20 48
437 20 5
444 20 3536
446 20 687
448 20 11
450 20 906
451 20 4
452 20 233
454 20 1279
455 20 5
459 20 705
460 20 1009
465 20 1865
466 20 1755
469 20 5
472 20 1665
473 20 1806
475 20 8
477 20 1605
481 20 8
488 20 1760
489 20 7
490 20 41
491 20 4
492 20 7
494 20 5
496 20 1784
1 21 572
2 21 720
3 21 895
4 21 195
5 21 4
7 21 587
8 21 716
9 21 112
11 21 1
13 21 171
16 21 670
17 21 738
18 21 505
19 21 1810
20 21 331
22 21 889
23 21 564
24 21 1255
25 21 380
26 21 598
27 21 650
29 21 229
30 21 453
31 21 117
32 21 435
33 21 924
34 21 182
35 21 347
36 21 221
37 21 3
39 21 759
41 21 1847
42 21 750
43 21 917
44 21 41
45 21 131
47 21 373
49 21 149
50 21 1156
53 21 335
54 21 250
55 21 1102
56 21 292
57 21 549
58 21 342
59 21 464
60 21 2
62 21 398
63 21 753
64 21 550
65 21 449
66 21 323
67 21 306
68 21 881
69 21 1035
70 21 938
71 21 369
72 21 1456
73 21 107
74 21 27
75 21 433
76 21 269
77 21 70
78 21 570
79 21 925
80 21 375
82 21 520
83 21 636
86 21 708
87 21 715
89 21 476
90 21 637
91 21 196
92 21 489
93 21 287
94 21 460
95 21 526
96 21 295
98 21 377
99 21 1075
100 21 130
101 21 1777
102 21 265
103 21 524
104 21 157
105 21 444
106 21 431
107 21 315
109 21 141
111 21 170
112 21 379
113 21 252
114 21 660
115 21 681
116 21 506
117 21 411
118 21 286
119 21 423
120 21 114
121 21 1609
123 21 219
127 21 1415
128 21 418
130 21 204
131 21 843
133 21 876
134 21 524
135 21 87
136 21 1042
137 21 415
138 21 128
139 21 2
140 21 301
141 21 1216
142 21 302
143 21 319
144 21 690
145 21 339
146 21 1808
147 21 890
148 21 33
151 21 135
152 21 86
153 21 1166
154 21 13
155 21 513
156 21 611
157 21 499
158 21 719
159 21 1393
161 21 723
163 21 69
164 21 430
166 21 595
167 21 560
168 21 258
169 21 654
170 21 497
171 21 229
172 21 89
173 21 1148
175 21 1393
176 21 5
178 21 350
179 21 832
180 21 362
181 21 432
182 21 6
183 21 690
184 21 74
185 21 1006
189 21 416
191 21 4
192 21 778
193 21 435
194 21 379
195 21 983
196 21 101
197 21 147
198 21 455
200 21 30
201 21 192
203 21 917
205 21 294
206 21 51
208 21 419
209 21 206
210 21 449
215 21 295
218 21 790
219 21 1006
220 21 626
221 21 310
222 21 1420
223 21 407
225 21 478
226 21 646
227 21 550
228 21 97
229 21 645
230 21 402
232 21 149
233 21 415
236 21 418
238 21 383
239 21 1620
240 21 818
241 21 683
242 21 521
243 21 7
244 21 265
245 21 74
246 21 672
247 21 784
248 21 592
249 21 936
250 21 1487
251 21 1582
252 21 394
253 21 404
254 21 4
255 21 467
259 21 981
260 21 578
261 21 1209
262 21 1216
263 21 2011
265 21 680
266 21 89
267 21 536
268 21 562
269 21 1131
271 21 39
272 21 247
274 21 749
275 21 667
277 21 514
279 21 179
280 21 649
281 21 459
282 21 453
283 21 81
286 21 182
289 21 609
290 21 521
292 21 517
293 21 1592
294 21 1515
295 21 259
297 21 86
300 21 191
301 21 586
302 21 432
305 21 1114
306 21 293
307 21 702
308 21 641
309 21 894
311 21 529
312 21 362
314 21 465
315 21 291
316 21 940
317 21 600
318 21 553
319 21 619
320 21 428
321 21 95
322 21 397
323 21 125
324 21 831
327 21 574
328 21 1012
329 21 119
330 21 671
331 21 447
333 21 546
335 21 208
336 21 547
337 21 289
338 21 562
339 21 209
340 21 643
341 21 356
342 21 1102
344 21 167
345 21 730
346 21 585
347 21 379
348 21 688
349 21 807
350 21 490
351 21 255
352 21 558
353 21 752
354 21 1130
355 21 426
357 21 799
358 21 714
359 21 320
360 21 1266
361 21 1019
363 21 671
364 21 477
365 21 101
367 21 157
368 21 5
369 21 41
370 21 8
372 21 1245
373 21 999
374 21 436
375 21 828
376 21 528
377 21 886
379 21 256
381 21 984
383 21 584
384 21 479
385 21 3
387 21 46
388 21 373
389 21 526
390 21 1621
392 21 159
393 21 510
394 21 119
395 21 977
396 21 73
397 21 36
398 21 316
399 21 3
401 21 528
402 21 350
404 21 143
405 21 843
406 21 198
407 21 475
408 21 272
409 21 471
410 21 398
411 21 1024
412 21 646
413 21 559
414 21 254
416 21 450
417 21 357
420 21 741
421 21 181
422 21 808
423 21 1660
424 21 408
426 21 324
428 21 28
429 21 502
430 21 282
431 21 237
432 21 314
434 21 27
435 21 24
436 21 28
437 21 591
438 21 652
439 21 674
440 21 553
441 21 299
442 21 701
443 21 309
444 21 283
445 21 383
446 21 606
447 21 315
448 21 686
449 21 228
450 21 538
451 21 182
452 21 146
454 21 862
455 21 240
456 21 691
458 21 221
459 21 600
460 21 198
461 21 771
463 21 691
464 21 695
465 21 849
466 21 960
468 21 161
469 21 1358
470 21 343
472 21 714
473 21 1380
474 21 624
475 21 311
477 21 746
478 21 352
479 21 2029
480 21 748
482 21 443
483 21 393
484 21 369
485 21 368
486 21 1128
488 21 1431
489 21 297
490 21 1
491 21 369
492 21 993
493 21 558
494 21 179
495 21 504
496 21 1400
497 21 591
499 21 253
500 21 1090
3 22 1367
4 22 521
5 22 12
6 22 1053
7 22 2974
9 22 149
10 22 2281
11 22 42
12 22 2182
13 22 1312
14 22 37
15 22 948
16 22 168
17 22 680
18 22 1098
19 22 1409
20 22 611
21 22 3633
23 22 2251
24 22 1906
25 22 551
26 22 3008
28 22 1302
29 22 1302
30 22 1027
31 22 1853
32 22 421
33 22 373
35 22 909
37 22 1584
38 22 471
39 22 942
40 22 712
42 22 2294
43 22 1273
44 22 42
46 22 881
48 22 792
49 22 66
50 22 560
51 22 1697
52 22 1417
53 22 477
54 22 413
55 22 1277
56 22 10
58 22 1734
59 22 942
60 22 2103
61 22 1091
62 22 1038
64 22 322
65 22 1077
68 22 1031
69 22 1530
71 22 862
72 22 205
73 22 1278
74 22 65
75 22 990
77 22 38
78 22 807
79 22 480
80 22 332
81 22 870
82 22 1036
83 22 2
84 22 1902
85 22 1140
86 22 1876
88 22 25
91 22 1705
92 22 347
93 22 18
96 22 1810
97 22 1752
98 22 1134
99 22 754
100 22 1793
103 22 506
106 22 949
107 22 632
108 22 2273
109 22 806
110 22 1732
111 22 1682
112 22 255
113 22 1031
114 22 1120
115 22 243
119 22 988
120 22 987
122 22 1886
123 22 1040
124 22 1611
125 22 1486
126 22 747
129 22 871
130 22 1769
131 22 1619
132 22 1250
134 22 765
135 22 496
136 22 1201
137 22 433
138 22 94
139 22 1385
140 22 596
141 22 1506
142 22 1520
144 22 349
146 22 1455
148 22 102
149 22 1796
150 22 767
151 22 133
152 22 67
153 22 719
154 22 129
156 22 1800
157 22 772
159 22 228
160 22 1513
161 22 1797
162 22 309
163 22 1161
164 22 9
165 22 1369
166 22 426
167 22 418
168 22 1186
169 22 167
170 22 747
171 22 477
172 22 785
174 22 282
175 22 233
176 22 1636
177 22 259
178 22 644
179 22 1589
180 22 951
182 22 77
183 22 1055
184 22 999
185 22 1616
186 22 2609
187 22 911
188 22 1426
190 22 1726
191 22 762
192 22 367
193 22 459
194 22 1518
196 22 3
197 22 1244
198 22 574
199 22 795
200 22 15
201 22 826
202 22 479
204 22 1540
205 22 636
206 22 66
207 22 558
208 22 445
209 22 1763
210 22 324
211 22 1442
212 22 835
213 22 722
214 22 1240
215 22 1516
216 22 1248
217 22 1287
218 22 1171
219 22 850
220 22 3
221 22 658
222 22 208
223 22 430
224 22 2820
225 22 1100
226 22 1275
227 22 1790
228 22 455
230 22 874
231 22 2131
234 22 1354
235 22 492
236 22 574
237 22 717
238 22 1468
239 22 512
240 22 6
243 22 1008
244 22 817
245 22 26
248 22 508
249 22 837
250 22 649
252 22 342
253 22 945
254 22 1515
256 22 1239
257 22 1188
258 22 1922
259 22 1629
260 22 1310
262 22 591
263 22 750
264 22 1176
265 22 1197
266 22 867
267 22 407
269 22 1576
270 22 909
271 22 79
272 22 593
273 22 983
274 22 1799
275 22 2942
276 22 578
277 22 1421
278 22 2475
279 22 1819
282 22 832
283 22 765
284 22 2304
285 22 631
286 22 679
287 22 1450
288 22 1082
289 22 2982
290 22 1227
291 22 1492
292 22 7
293 22 511
296 22 562
298 22 1635
299 22 1438
301 22 1259
303 22 790
304 22 877
306 22 490
307 22 336
308 22 972
309 22 2267
310 22 2389
313 22 1433
314 22 1522
315 22 617
316 22 2075
318 22 787
319 22 1749
320 22 1694
322 22 681
323 22 1943
324 22 1057
325 22 1542
326 22 1870
327 22 694
328 22 1254
329 22 668
330 22 846
332 22 2924
333 22 750
334 22 1226
335 22 467
336 22 1892
337 22 1660
339 22 26
340 22 1266
341 22 765
342 22 1230
343 22 1692
344 22 1745
345 22 1819
349 22 1323
350 22 1079
351 22 449
352 22 1390
353 22 936
354 22 1610
355 22 1447
356 22 757
357 22 1539
358 22 976
359 22 993
361 22 1655
362 22 784
363 22 697
365 22 88
366 22 527
368 22 139
369 22 28
370 22 31
371 22 1969
373 22 2101
374 22 951
376 22 1123
377 22 1859
378 22 1170
379 22 196
380 22 1270
381 22 1637
382 22 1772
383 22 1401
385 22 53
386 22 859
387 22 756
389 22 189
390 22 507
391 22 1322
392 22 527
394 22 1882
395 22 1399
399 22 1792
400 22 1278
402 22 998
403 22 1111
406 22 244
407 22 615
408 22 445
409 22 491
410 22 1219
411 22 1222
412 22 8
413 22 745
415 22 772
416 22 331
418 22 1786
419 22 1091
421 22 691
422 22 854
423 22 525
424 22 819
425 22 976
426 22 1818
427 22 1155
428 22 18
429 22 1444
430 22 34
433 22 1042
434 22 549
435 22 4
436 22 537
438 22 555
439 22 1108
441 22 1580
442 22 1389
443 22 1530
444 22 1913
445 22 853
446 22 3016
447 22 1174
450 22 1361
452 22 812
453 22 1552
454 22 1533
456 22 1525
457 22 2066
458 22 659
459 22 3049
460 22 1794
461 22 718
462 22 2324
465 22 1895
466 22 1900
467 22 1311
468 22 368
470 22 931
471 22 222
472 22 1878
473 22 224
476 22 1674
477 22 1835
478 22 1617
480 22 1299
481 22 1408
484 22 701
485 22 1641
486 22 2
487 22 1327
488 22 215
489 22 1652
490 22 38
491 22 1746
492 22 1077
493 22 816
495 22 991
496 22 240
497 22 792
498 22 522
499 22 1231
1 23 175
2 23 890
3 23 1105
4 23 655
5 23 76
6 23 1145
8 23 868
9 23 430
10 23 1344
11 23 62
12 23 341
13 23 832
14 23 46
15 23 537
17 23 1369
20 23 595
21 23 482
22 23 766
23 23 1080
25 23 381
27 23 961
28 23 713
29 23 636
32 23 252
34 23 642
35 23 955
36 23 955
37 23 1136
38 23 444
40 23 2173
41 23 748
42 23 851
43 23 598
44 23 127
45 23 287
46 23 536
47 23 343
48 23 338
49 23 213
50 23 1125
51 23 2030
52 23 775
54 23 145
55 23 696
56 23 22
57 23 1249
58 23 738
60 23 287
61 23 1080
62 23 502
63 23 1185
64 23 25
65 23 486
66 23 450
67 23 900
68 23 1047
69 23 436
70 23 1035
71 23 707
73 23 670
74 23 151
76 23 494
77 23 243
78 23 302
80 23 826
81 23 529
82 23 470
83 23 612
84 23 738
85 23 422
87 23 1106
88 23 334
89 23 882
90 23 874
91 23 357
92 23 919
93 23 88
94 23 434
95 23 1268
97 23 969
98 23 494
99 23 1011
101 23 405
102 23 177
103 23 521
104 23 900
105 23 753
107 23 492
108 23 171
109 23 254
110 23 456
112 23 409
113 23 809
114 23 243
115 23 301
116 23 1076
117 23 740
118 23 287
119 23 377
120 23 678
121 23 2039
122 23 1020
123 23 673
124 23 1100
125 23 270
126 23 702
127 23 2255
128 23 1669
129 23 322
132 23 632
133 23 366
134 23 1410
135 23 408
136 23 694
138 23 1
139 23 339
140 23 338
141 23 997
142 23 428
143 23 624
144 23 679
145 23 175
147 23 1069
148 23 151
149 23 498
150 23 1472
151 23 12
152 23 267
153 23 344
154 23 2
155 23 1441
157 23 349
158 23 2554
160 23 624
162 23 1288
163 23 1211
164 23 290
165 23 471
166 23 553
167 23 427
168 23 1079
170 23 1412
171 23 146
172 23 643
173 23 1549
174 23 502
176 23 523
177 23 228
178 23 614
180 23 638
181 23 1704
182 23 13
183 23 225
184 23 394
186 23 510
187 23 578
188 23 959
189 23 1167
190 23 965
191 23 540
192 23 740
194 23 988
195 23 511
196 23 17
197 23 851
198 23 484
199 23 709
200 23 173
201 23 299
202 23 854
203 23 1004
204 23 709
206 23 37
207 23 472
210 23 1420
211 23 483
212 23 564
213 23 892
214 23 1692
215 23 452
216 23 887
217 23 412
218 23 970
219 23 579
220 23 615
221 23 748
223 23 235
224 23 574
226 23 2
227 23 676
228 23 430
229 23 711
230 23 544
231 23 355
232 23 638
233 23 754
234 23 458
235 23 470
236 23 759
237 23 404
238 23 765
240 23 1368
241 23 1270
242 23 1428
243 23 928
244 23 334
245 23 239
246 23 2392
247 23 1224
248 23 524
249 23 601
250 23 824
251 23 1103
252 23 17
254 23 1050
255 23 714
256 23 191
257 23 1092
258 23 1406
261 23 1754
262 23 1053
264 23 1074
265 23 3
266 23 603
267 23 537
268 23 841
269 23 1043
270 23 774
271 23 88
272 23 659
273 23 475
276 23 300
277 23 879
278 23 822
280 23 1228
281 23 763
282 23 526
283 23 414
284 23 1315
285 23 711
286 23 794
287 23 758
288 23 135
290 23 696
291 23 857
292 23 1735
294 23 1455
295 23 822
296 23 405
297 23 801
298 23 949
299 23 995
300 23 416
301 23 958
302 23 678
303 23 1193
304 23 1055
305 23 647
306 23 872
307 23 755
308 23 178
310 23 1207
311 23 1491
312 23 344
313 23 1043
314 23 369
315 23 745
317 23 329
318 23 293
320 23 498
321 23 721
322 23 79
324 23 1067
325 23 764
326 23 467
327 23 1148
328 23 751
329 23 833
330 23 647
331 23 819
332 23 541
333 23 559
334 23 651
335 23 291
336 23 666
337 23 1297
338 23 1131
339 23 246
340 23 802
341 23 309
342 23 725
343 23 990
346 23 1197
347 23 583
348 23 940
349 23 982
351 23 161
353 23 369
355 23 1105
356 23 2143
358 23 1115
359 23 1144
360 23 1151
362 23 661
363 23 755
364 23 1542
365 23 3
366 23 365
367 23 382
368 23 1072
369 23 20
370 23 86
371 23 367
372 23 1171
375 23 304
376 23 424
378 23 458
379 23 379
380 23 1228
382 23 1483
383 23 762
384 23 1398
385 23 174
386 23 1099
387 23 305
388 23 943
389 23 521
391 23 886
392 23 92
393 23 1025
395 23 1180
396 23 51
397 23 104
398 23 1234
399 23 1122
400 23 390
401 23 485
402 23 1161
403 23 560
404 23 273
405 23 559
406 23 766
407 23 469
408 23 613
409 23 538
410 23 968
411 23 677
412 23 606
413 23 1182
414 23 495
415 23 1466
416 23 1509
417 23 559
418 23 446
419 23 150
420 23 687
421 23 749
422 23 579
424 23 446
425 23 688
427 23 1141
428 23 20
429 23 364
430 23 89
431 23 1243
432 23 624
433 23 1037
434 23 578
435 23 32
436 23 587
437 23 825
438 23 306
439 23 249
440 23 842
441 23 456
442 23 1196
443 23 850
445 23 608
447 23 847
448 23 1324
449 23 1055
451 23 433
452 23 488
453 23 1593
455 23 591
456 23 1043
457 23 1355
458 23 352
461 23 634
462 23 1303
463 23 900
464 23 679
467 23 1315
468 23 567
469 23 1607
470 23 447
471 23 810
474 23 2257
475 23 453
476 23 817
478 23 992
479 23 1624
480 23 695
481 23 1006
482 23 669
483 23 1591
484 23 693
485 23 1017
486 23 1354
487 23 343
489 23 1095
490 23 63
491 23 761
492 23 1527
493 23 613
494 23 1447
495 23 767
497 23 528
498 23 896
499 23 347
500 23 766
5 24 6
6 24 289
10 24 177
12 24 306
15 24 176
21 24 498
28 24 105
37 24 219
38 24 212
40 24 887
46 24 411
48 24 308
51 24 694
52 24 629
60 24 138
61 24 180
81 24 914
84 24 168
85 24 461
88 24 10
97 24 52
108 24 450
110 24 45
122 24 96
124 24 356
125 24 808
126 24 203
129 24 86
132 24 108
139 24 294
149 24 70
150 24 449
160 24 400
162 24 123
165 24 368
174 24 804
176 24 349
177 24 119
186 24 642
187 24 939
188 24 95
190 24 686
191 24 763
199 24 733
202 24 403
204 24 306
207 24 115
211 24 604
212 24 856
213 24 107
214 24 371
216 24 127
217 24 165
224 24 335
231 24 280
234 24 287
235 24 211
237 24 2
243 24 568
254 24 66
256 24 633
257 24 418
258 24 180
264 24 422
270 24 286
273 24 823
276 24 54
278 24 350
284 24 374
285 24 132
287 24 620
288 24 45
291 24 213
296 24 892
298 24 517
299 24 118
303 24 210
304 24 220
310 24 440
313 24 214
325 24 392
326 24 1371
332 24 325
334 24 480
343 24 218
356 24 810
362 24 36
366 24 252
368 24 20
369 24 8
371 24 207
378 24 287
380 24 197
382 24 738
386 24 151
391 24 468
397 24 2
399 24 291
400 24 390
403 24 107
415 24 133
418 24 318
419 24 162
425 24 21
427 24 734
428 24 3
433 24 174
434 24 1
436 24 3
453 24 1059
457 24 403
462 24 423
467 24 604
471 24 888
476 24 465
481 24 246
487 24 409
490 24 13
498 24 118
1 25 64
2 25 702
8 25 991
22 25 711
27 25 746
34 25 471
36 25 884
41 25 1116
45 25 1384
47 25 422
49 25 4
57 25 366
63 25 407
66 25 874
67 25 885
70 25 849
76 25 794
77 25 5
83 25 1439
87 25 887
89 25 850
90 25 664
93 25 5
94 25 589
95 25 293
101 25 607
102 25 793
104 25 555
105 25 488
116 25 711
117 25 185
118 25 484
121 25 307
127 25 893
128 25 1184
133 25 945
143 25 918
145 25 380
147 25 487
155 25 517
158 25 910
173 25 825
181 25 898
189 25 774
195 25 769
200 25 14
203 25 1046
220 25 1383
229 25 892
232 25 403
233 25 563
240 25 441
241 25 248
242 25 1541
245 25 3
246 25 2380
247 25 149
251 25 1428
255 25 1208
261 25 2131
268 25 594
271 25 6
280 25 564
281 25 364
292 25 471
294 25 906
295 25 605
297 25 1604
300 25 1370
302 25 583
305 25 916
311 25 1550
312 25 479
317 25 335
321 25 1653
331 25 528
338 25 1004
346 25 619
347 25 485
348 25 695
360 25 257
364 25 966
367 25 431
372 25 279
375 25 1343
384 25 1543
388 25 217
393 25 722
397 25 4
398 25 568
401 25 546
404 25 4
405 25 1067
412 25 1399
414 25 1435
417 25 871
420 25 692
430 25 3
431 25 491
432 25 421
435 25 8
437 25 554
440 25 813
448 25 238
449 25 342
451 25 1273
455 25 126
463 25 939
464 25 943
469 25 367
474 25 252
475 25 864
479 25 279
482 25 592
483 25 1518
486 25 1137
494 25 1358
500 25 1112
7 26 951
9 26 4
16 26 8
18 26 437
19 26 2621
24 26 2289
26 26 896
30 26 1334
31 26 2763
33 26 946
39 26 80
53 26 887
59 26 1313
72 26 2122
75 26 1331
79 26 3664
86 26 1277
96 26 1638
100 26 2909
106 26 1377
111 26 767
130 26 760
131 26 1288
137 26 945
138 26 8
146 26 2595
156 26 1691
159 26 2073
161 26 1349
169 26 5
175 26 2052
179 26 1345
185 26 1645
193 26 925
205 26 1443
208 26 955
209 26 766
222 26 2053
225 26 390
226 26 554
239 26 2401
253 26 1372
259 26 1657
260 26 2814
263 26 2763
265 26 548
274 26 1352
275 26 965
279 26 760
289 26 899
293 26 2510
309 26 1924
316 26 1336
319 26 1677
323 26 2873
344 26 829
345 26 1379
350 26 446
352 26 2787
354 26 1580
357 26 1698
361 26 1646
365 26 5
369 26 38
373 26 1356
374 26 1254
377 26 3244
381 26 1600
390 26 2520
394 26 2861
397 26 7
423 26 2443
426 26 1778
428 26 40
435 26 1
444 26 1766
446 26 956
450 26 2794
454 26 2535
459 26 943
460 26 756
465 26 3365
466 26 3358
472 26 1299
473 26 2152
477 26 1379
488 26 2121
490 26 7
496 26 2134
2 27 1824
6 27 1373
7 27 53
8 27 1868
10 27 1434
12 27 769
15 27 2050
18 27 10
19 27 2425
21 27 2381
22 27 983
24 27 2495
26 27 52
27 27 2291
28 27 513
30 27 904
31 27 1471
33 27 210
34 27 947
36 27 428
37 27 1375
38 27 690
40 27 2054
41 27 1536
45 27 720
46 27 1276
47 27 1937
48 27 1748
51 27 2287
52 27 1084
53 27 1264
57 27 857
59 27 893
60 27 174
61 27 1140
63 27 1172
66 27 895
67 27 1201
70 27 1152
72 27 537
75 27 888
76 27 249
79 27 2878
81 27 1810
83 27 1325
84 27 731
85 27 2154
86 27 938
87 27 1102
89 27 2482
90 27 903
94 27 1429
95 27 640
96 27 1959
97 27 1324
100 27 1441
101 27 2200
102 27 2083
104 27 640
105 27 157
106 27 870
108 27 1178
111 27 1054
116 27 1221
117 27 12
118 27 1226
121 27 944
122 27 880
124 27 1194
125 27 236
126 27 2405
127 27 1714
128 27 1194
130 27 1136
131 27 2100
132 27 1534
133 27 1601
137 27 169
139 27 2131
143 27 322
145 27 2235
146 27 2472
147 27 665
149 27 157
150 27 2036
155 27 949
156 27 1430
158 27 1156
159 27 517
160 27 909
161 27 1003
162 27 27
165 27 771
173 27 2068
174 27 1081
175 27 571
176 27 821
177 27 1477
179 27 2188
181 27 1489
185 27 1027
186 27 1586
187 27 1846
188 27 3225
189 27 332
190 27 1824
191 27 509
193 27 173
195 27 1989
199 27 1960
202 27 1023
203 27 1538
204 27 362
205 27 1415
207 27 208
208 27 186
209 27 1032
211 27 2280
212 27 273
213 27 4
214 27 1212
216 27 37
217 27 574
220 27 1384
222 27 533
224 27 933
225 27 6
226 27 948
229 27 1867
231 27 755
232 27 1580
233 27 1440
234 27 404
235 27 732
239 27 1834
240 27 424
241 27 1751
242 27 1435
243 27 1564
246 27 1720
247 27 1059
251 27 1223
253 27 912
254 27 1306
255 27 1613
256 27 1719
257 27 1385
258 27 734
259 27 1077
260 27 1287
261 27 2662
263 27 1050
264 27 1429
265 27 997
268 27 1116
270 27 1627
273 27 958
274 27 923
275 27 42
278 27 845
279 27 1026
280 27 2029
281 27 1000
284 27 1493
285 27 856
287 27 1221
288 27 10
289 27 59
291 27 1363
292 27 1667
293 27 1886
294 27 1230
295 27 990
296 27 1586
297 27 222
298 27 1357
299 27 801
300 27 1629
302 27 1887
303 27 513
304 27 829
305 27 1632
309 27 1193
310 27 1194
311 27 1404
312 27 1893
313 27 392
316 27 1088
317 27 1107
319 27 1367
321 27 206
323 27 1455
325 27 454
326 27 1060
331 27 983
332 27 925
334 27 1242
338 27 1399
343 27 62
344 27 1021
345 27 946
346 27 1147
347 27 43
348 27 1814
350 27 2
352 27 1277
354 27 979
356 27 2118
357 27 1974
360 27 1765
361 27 1031
364 27 2472
366 27 1103
367 27 423
371 27 877
372 27 1829
373 27 1013
374 27 805
375 27 936
377 27 2502
378 27 635
380 27 253
381 27 1047
382 27 1938
384 27 1285
386 27 958
388 27 1163
390 27 1817
391 27 98
393 27 1260
394 27 1437
398 27 2791
399 27 506
400 27 157
401 27 830
403 27 608
405 27 1430
412 27 1292
414 27 932
415 27 717
417 27 2490
418 27 1288
419 27 14
420 27 2470
423 27 1874
426 27 2071
427 27 779
431 27 2355
432 27 47
433 27 1226
437 27 1018
440 27 1163
444 27 2053
446 27 59
448 27 1749
449 27 1857
450 27 1247
451 27 1671
453 27 2152
454 27 414
455 27 2564
457 27 1934
459 27 70
460 27 1068
462 27 1478
463 27 1949
464 27 1155
465 27 2455
466 27 2469
467 27 708
469 27 2039
471 27 55
472 27 876
473 27 549
474 27 2967
475 27 866
476 27 1986
477 27 919
479 27 1860
481 27 107
482 27 1918
483 27 1054
486 27 1131
487 27 390
488 27 499
494 27 1760
496 27 558
498 27 2093
500 27 1874
6 28 47
10 28 852
12 28 478
15 28 494
21 28 555
28 28 193
37 28 61
38 28 159
40 28 201
46 28 133
48 28 379
51 28 521
52 28 425
61 28 219
81 28 378
84 28 474
85 28 278
97 28 163
108 28 1679
122 28 729
124 28 270
125 28 4
126 28 784
132 28 380
139 28 145
149 28 75
150 28 518
160 28 140
162 28 7
165 28 590
174 28 118
176 28 173
177 28 755
186 28 1490
187 28 390
188 28 89
190 28 38
191 28 166
199 28 147
202 28 100
204 28 8
207 28 142
211 28 400
212 28 28
214 28 181
217 28 49
224 28 357
231 28 494
234 28 44
235 28 141
243 28 272
254 28 11
256 28 532
257 28 580
258 28 398
264 28 558
270 28 122
273 28 74
278 28 123
284 28 743
285 28 422
287 28 458
291 28 54
296 28 570
298 28 488
299 28 282
303 28 97
304 28 197
310 28 23
325 28 95
326 28 99
332 28 351
334 28 168
356 28 177
366 28 39
371 28 322
378 28 108
382 28 304
386 28 105
399 28 402
400 28 236
415 28 517
427 28 542
433 28 242
453 28 1150
457 28 230
462 28 754
467 28 984
476 28 647
481 28 3
487 28 28
498 28 1164
6 29 71
10 29 316
12 29 336
15 29 243
21 29 171
28 29 57
37 29 88
38 29 283
40 29 175
46 29 493
48 29 65
51 29 230
52 29 260
61 29 262
81 29 149
84 29 152
85 29 173
97 29 156
108 29 315
122 29 87
124 29 281
125 29 2
126 29 134
132 29 556
139 29 679
149 29 21
150 29 530
160 29 171
162 29 79
165 29 650
174 29 129
176 29 166
177 29 553
186 29 1218
187 29 110
188 29 353
190 29 95
191 29 37
199 29 167
202 29 127
204 29 2
207 29 111
211 29 226
212 29 10
214 29 403
217 29 30
224 29 191
231 29 316
234 29 20
235 29 322
243 29 185
256 29 574
257 29 320
258 29 584
264 29 265
270 29 196
273 29 182
278 29 82
284 29 384
285 29 963
287 29 295
291 29 115
296 29 195
298 29 335
299 29 183
303 29 176
304 29 144
310 29 15
325 29 363
326 29 189
332 29 213
334 29 104
356 29 186
366 29 77
371 29 105
378 29 152
382 29 84
386 29 88
399 29 133
400 29 34
415 29 186
427 29 442
433 29 304
453 29 783
457 29 247
462 29 410
467 29 1594
476 29 385
481 29 3
487 29 7
498 29 226
6 30 63
10 30 196
12 30 70
15 30 459
21 30 973
28 30 122
37 30 44
38 30 140
40 30 187
46 30 351
48 30 146
51 30 371
52 30 891
61 30 327
81 30 252
84 30 634
85 30 719
97 30 104
108 30 1406
122 30 337
124 30 189
125 30 18
126 30 462
132 30 559
139 30 456
149 30 4
150 30 153
160 30 220
162 30 24
165 30 261
174 30 366
176 30 451
177 30 620
186 30 514
187 30 255
188 30 227
190 30 69
191 30 199
199 30 216
202 30 152
204 30 10
207 30 127
211 30 603
214 30 138
217 30 39
224 30 400
231 30 60
234 30 111
235 30 165
243 30 228
256 30 395
257 30 147
258 30 615
264 30 159
270 30 409
273 30 134
278 30 109
284 30 658
285 30 383
287 30 841
291 30 186
296 30 844
298 30 629
299 30 100
303 30 237
304 30 484
310 30 16
325 30 150
326 30 1064
332 30 394
334 30 245
356 30 201
366 30 49
371 30 67
378 30 274
382 30 1184
386 30 286
399 30 676
400 30 406
415 30 886
418 30 2
427 30 161
433 30 357
453 30 654
457 30 248
462 30 644
467 30 504
476 30 373
481 30 2
487 30 41
498 30 239
2 31 240
8 31 162
22 31 108
27 31 251
34 31 237
41 31 846
45 31 702
47 31 109
57 31 1240
63 31 124
66 31 286
67 31 215
70 31 459
83 31 217
87 31 171
89 31 483
90 31 38
94 31 961
95 31 16
101 31 249
102 31 342
116 31 49
118 31 119
121 31 495
127 31 450
128 31 1615
133 31 49
143 31 375
145 31 1446
147 31 421
155 31 432
158 31 864
173 31 1272
181 31 399
189 31 1108
195 31 285
203 31 573
220 31 217
229 31 292
232 31 318
233 31 33
240 31 210
241 31 2
242 31 108
246 31 1008
247 31 425
251 31 142
255 31 504
261 31 458
268 31 819
280 31 1013
281 31 376
292 31 250
294 31 198
295 31 682
300 31 674
302 31 233
305 31 613
311 31 114
312 31 146
317 31 119
331 31 775
338 31 228
346 31 134
348 31 208
360 31 209
364 31 660
367 31 198
372 31 203
375 31 102
384 31 159
388 31 581
393 31 42
398 31 371
401 31 179
405 31 146
412 31 228
414 31 372
417 31 162
420 31 187
431 31 558
437 31 815
440 31 178
448 31 4
449 31 115
451 31 638
455 31 152
463 31 178
464 31 387
469 31 379
474 31 292
475 31 303
479 31 577
482 31 266
483 31 197
486 31 190
494 31 179
500 31 91
2 32 874
8 32 1264
22 32 191
27 32 873
34 32 515
36 32 41
41 32 1672
45 32 1312
47 32 698
57 32 1236
63 32 555
66 32 787
67 32 206
70 32 823
76 32 6
83 32 1586
87 32 1400
89 32 1127
90 32 1076
94 32 1480
95 32 20
101 32 542
102 32 191
116 32 315
118 32 196
121 32 871
127 32 1171
128 32 210
133 32 217
143 32 399
145 32 1138
147 32 151
155 32 2013
158 32 517
173 32 659
181 32 798
189 32 1206
195 32 1334
203 32 537
220 32 1644
229 32 1656
232 32 649
233 32 22
240 32 337
241 32 10
242 32 385
246 32 1288
247 32 1458
251 32 79
255 32 517
261 32 2606
268 32 833
280 32 771
281 32 414
292 32 1663
294 32 995
295 32 649
300 32 1425
302 32 357
305 32 2021
311 32 453
312 32 691
317 32 590
331 32 704
338 32 1101
346 32 180
348 32 883
360 32 168
364 32 1278
367 32 344
372 32 160
375 32 431
384 32 267
388 32 1377
393 32 313
398 32 403
401 32 765
405 32 341
412 32 1655
414 32 1310
417 32 670
420 32 1442
431 32 781
437 32 813
440 32 261
448 32 15
449 32 255
451 32 1441
455 32 1093
463 32 1301
464 32 824
469 32 546
474 32 664
475 32 759
479 32 899
482 32 345
483 32 479
486 32 257
494 32 157
500 32 717
2 33 1539
8 33 941
22 33 123
27 33 2919
34 33 887
36 33 133
41 33 2514
45 33 299
47 33 1181
57 33 1674
63 33 1480
66 33 946
67 33 1264
70 33 1078
76 33 1
83 33 1673
87 33 459
89 33 2018
90 33 727
94 33 3321
95 33 67
101 33 2317
102 33 2001
116 33 448
118 33 130
121 33 2513
127 33 1645
128 33 799
133 33 374
143 33 1289
145 33 3150
147 33 859
155 33 1884
158 33 1295
173 33 2920
181 33 999
189 33 2120
195 33 2854
203 33 720
220 33 1638
229 33 998
232 33 1119
233 33 165
240 33 553
242 33 1890
246 33 2190
247 33 881
251 33 330
255 33 1479
261 33 1911
268 33 1252
280 33 1759
281 33 1765
292 33 1659
294 33 326
295 33 1273
300 33 1421
302 33 982
305 33 1612
311 33 1860
312 33 1189
317 33 2496
331 33 1660
338 33 2131
346 33 252
348 33 1698
360 33 1283
364 33 2655
367 33 1625
372 33 1235
375 33 733
384 33 1027
388 33 1809
393 33 451
398 33 1459
401 33 338
405 33 1364
412 33 1644
414 33 2339
417 33 1218
420 33 1413
431 33 1246
437 33 1293
440 33 373
449 33 1041
451 33 1503
455 33 1005
463 33 891
464 33 1559
469 33 774
474 33 1336
475 33 960
479 33 1674
482 33 1000
483 33 1918
486 33 898
494 33 1602
500 33 1470
19 34 1865
24 34 224
30 34 223
31 34 264
53 34 143
59 34 253
72 34 153
75 34 264
79 34 2011
86 34 348
96 34 899
100 34 250
106 34 258
111 34 88
130 34 77
131 34 1159
137 34 4
146 34 1987
156 34 180
159 34 163
161 34 335
175 34 165
179 34 1240
185 34 137
193 34 3
205 34 906
208 34 5
209 34 76
222 34 175
226 34 80
239 34 1447
253 34 250
259 34 173
260 34 316
263 34 1033
265 34 66
274 34 321
279 34 87
293 34 1456
309 34 74
316 34 865
319 34 156
323 34 229
344 34 99
345 34 308
352 34 336
354 34 151
357 34 593
361 34 157
373 34 856
374 34 236
377 34 1143
381 34 152
390 34 1517
394 34 225
423 34 1424
426 34 960
444 34 1014
450 34 336
454 34 538
460 34 81
465 34 1127
466 34 1236
472 34 325
473 34 137
477 34 306
488 34 152
496 34 154
19 35 968
24 35 1186
30 35 325
31 35 346
53 35 233
59 35 311
72 35 755
75 35 322
79 35 872
86 35 280
96 35 599
100 35 352
106 35 294
111 35 132
130 35 114
131 35 299
146 35 998
156 35 480
159 35 651
161 35 286
175 35 722
179 35 315
185 35 146
205 35 718
209 35 139
222 35 701
226 35 15
239 35 255
253 35 321
259 35 157
260 35 211
263 35 438
265 35 11
274 35 279
279 35 127
293 35 250
309 35 83
316 35 891
319 35 484
323 35 344
344 35 115
345 35 263
352 35 209
354 35 153
357 35 1318
361 35 161
373 35 824
374 35 298
377 35 1474
381 35 134
390 35 227
394 35 312
423 35 240
426 35 578
444 35 556
450 35 260
454 35 399
460 35 141
465 35 1477
466 35 1460
472 35 258
473 35 683
477 35 255
488 35 763
496 35 719
19 36 451
24 36 40
30 36 202
31 36 304
53 36 115
59 36 222
72 36 471
75 36 214
79 36 620
86 36 93
96 36 529
100 36 296
106 36 228
111 36 153
130 36 159
131 36 825
146 36 456
156 36 491
159 36 470
161 36 104
175 36 465
179 36 833
185 36 72
205 36 297
209 36 148
222 36 461
226 36 49
239 36 206
253 36 185
259 36 69
260 36 606
263 36 664
265 36 39
274 36 109
279 36 153
293 36 173
309 36 66
316 36 313
319 36 525
323 36 288
344 36 136
345 36 93
352 36 587
354 36 65
357 36 510
361 36 74
373 36 314
374 36 214
377 36 989
381 36 76
390 36 191
394 36 273
423 36 187
426 36 529
444 36 528
450 36 638
454 36 922
460 36 162
465 36 1001
466 36 977
472 36 134
473 36 494
477 36 107
488 36 484
496 36 487
10 37 507
12 37 1063
15 37 561
21 37 1157
28 37 562
37 37 58
38 37 446
40 37 1347
46 37 441
51 37 970
61 37 254
81 37 1310
84 37 395
85 37 561
97 37 1141
108 37 2502
122 37 787
124 37 974
126 37 186
132 37 1240
139 37 706
149 37 88
150 37 215
162 37 245
165 37 998
174 37 131
176 37 98
177 37 829
186 37 2743
187 37 1254
188 37 955
190 37 5
191 37 1
199 37 1107
211 37 879
214 37 390
224 37 199
231 37 1061
234 37 14
235 37 448
243 37 848
256 37 849
257 37 1300
258 37 2295
264 37 1282
270 37 843
273 37 950
278 37 495
284 37 1477
285 37 582
291 37 13
296 37 821
298 37 1876
299 37 450
303 37 373
304 37 937
325 37 1009
326 37 1917
332 37 196
334 37 242
356 37 1401
371 37 63
382 37 1277
386 37 82
399 37 172
400 37 497
415 37 757
427 37 412
433 37 244
453 37 2106
457 37 499
462 37 1482
467 37 2583
476 37 1129
498 37 1446
10 38 483
12 38 394
15 38 286
21 38 130
28 38 1126
38 38 98
40 38 300
46 38 489
48 38 3
51 38 236
61 38 341
81 38 103
84 38 329
85 38 362
97 38 823
108 38 81
122 38 35
124 38 262
126 38 29
132 38 359
139 38 263
149 38 396
150 38 74
162 38 1477
165 38 291
174 38 166
176 38 2
177 38 534
186 38 538
187 38 138
188 38 1587
190 38 10
199 38 601
211 38 190
214 38 1132
224 38 25
231 38 384
234 38 35
235 38 102
243 38 579
256 38 361
257 38 1195
258 38 284
264 38 1200
270 38 228
273 38 265
278 38 1113
284 38 1026
285 38 164
296 38 394
298 38 235
299 38 105
303 38 88
304 38 53
325 38 141
326 38 719
332 38 25
334 38 108
356 38 279
371 38 1
382 38 541
386 38 46
399 38 4
400 38 109
415 38 326
427 38 147
433 38 327
453 38 595
457 38 263
462 38 1056
467 38 209
476 38 851
498 38 516
10 39 52
12 39 79
15 39 107
21 39 67
28 39 35
38 39 92
40 39 67
46 39 98
48 39 2
51 39 56
61 39 23
81 39 113
84 39 161
85 39 280
97 39 41
108 39 74
122 39 75
124 39 351
126 39 65
132 39 121
139 39 83
149 39 106
150 39 148
162 39 92
165 39 133
174 39 130
176 39 27
177 39 80
186 39 22
187 39 108
188 39 36
199 39 87
211 39 85
214 39 137
224 39 46
231 39 81
234 39 17
235 39 121
243 39 73
256 39 89
257 39 89
258 39 175
264 39 79
270 39 72
273 39 66
278 39 122
284 39 97
285 39 81
296 39 122
298 39 85
299 39 40
303 39 46
304 39 3
325 39 63
326 39 97
332 39 44
334 39 203
356 39 77
382 39 113
386 39 112
400 39 127
415 39 507
427 39 92
433 39 25
453 39 168
457 39 37
462 39 77
467 39 150
476 39 328
498 39 49
10 40 948
12 40 874
15 40 747
21 40 148
28 40 717
38 40 1135
40 40 706
46 40 158
48 40 14
51 40 1242
61 40 354
84 40 280
85 40 333
97 40 320
108 40 267
124 40 44
126 40 49
132 40 653
139 40 848
149 40 396
150 40 42
162 40 504
165 40 433
174 40 683
176 40 3
177 40 177
186 40 887
188 40 1083
199 40 661
211 40 320
212 40 8
214 40 117
231 40 849
234 40 333
235 40 1181
243 40 471
256 40 248
257 40 447
258 40 500
264 40 460
270 40 181
273 40 1728
278 40 1568
284 40 1078
285 40 460
296 40 480
298 40 373
299 40 6
303 40 543
325 40 955
326 40 171
334 40 86
356 40 655
371 40 40
382 40 509
386 40 633
400 40 142
415 40 26
427 40 686
433 40 341
453 40 270
457 40 501
462 40 1103
467 40 301
476 40 46
498 40 581
10 41 308
12 41 206
15 41 310
21 41 63
28 41 130
38 41 195
40 41 163
46 41 198
48 41 24
51 41 563
61 41 155
84 41 181
85 41 151
97 41 84
108 41 71
132 41 152
139 41 458
149 41 52
162 41 30
165 41 34
174 41 292
177 41 124
186 41 257
188 41 266
190 41 112
199 41 104
211 41 980
212 41 64
231 41 253
234 41 172
235 41 195
243 41 684
256 41 733
257 41 984
258 41 102
264 41 926
270 41 144
273 41 269
278 41 713
284 41 253
285 41 139
291 41 2
296 41 45
298 41 368
303 41 28
325 41 156
326 41 97
334 41 181
356 41 159
371 41 28
382 41 209
400 41 11
427 41 27
433 41 162
457 41 518
462 41 268
467 41 1060
498 41 589
2 42 1612
8 42 995
27 42 521
34 42 773
41 42 1524
45 42 2868
47 42 1968
57 42 79
63 42 145
66 42 179
67 42 478
70 42 25
83 42 2561
87 42 2330
89 42 1480
94 42 520
101 42 2056
102 42 1191
118 42 33
121 42 1173
127 42 1732
128 42 2907
143 42 2230
145 42 2732
147 42 1628
155 42 1915
158 42 1465
173 42 2430
181 42 1164
189 42 1113
195 42 1062
203 42 948
220 42 2556
229 42 1879
232 42 1591
240 42 381
242 42 1010
246 42 1550
247 42 260
255 42 2969
261 42 1527
268 42 2109
280 42 1659
281 42 951
292 42 610
294 42 1431
295 42 351
300 42 2081
302 42 2137
305 42 2924
311 42 961
312 42 1956
317 42 1977
331 42 460
338 42 562
348 42 1675
360 42 1943
364 42 1290
367 42 960
372 42 1935
375 42 34
384 42 756
388 42 53
398 42 1345
401 42 1327
405 42 63
412 42 2629
414 42 2338
417 42 1214
420 42 790
431 42 3467
437 42 2122
440 42 109
449 42 1439
451 42 1924
455 42 1534
463 42 1044
464 42 778
469 42 2070
474 42 2608
475 42 197
479 42 658
482 42 2124
483 42 1769
486 42 72
494 42 764
500 42 1721
2 43 49
8 43 1559
27 43 1099
34 43 240
41 43 2022
45 43 318
47 43 1247
63 43 424
67 43 3521
83 43 22
87 43 1330
89 43 1516
94 43 382
101 43 1586
102 43 163
118 43 63
121 43 676
127 43 165
128 43 320
143 43 539
145 43 441
147 43 1092
155 43 2980
158 43 1584
173 43 1151
181 43 87
189 43 718
195 43 875
203 43 1675
220 43 20
229 43 1071
232 43 847
240 43 226
242 43 129
246 43 1482
247 43 261
255 43 715
261 43 2052
268 43 142
280 43 628
281 43 11
292 43 1246
294 43 389
295 43 10
300 43 863
302 43 1478
305 43 317
311 43 116
312 43 1272
317 43 118
331 43 233
338 43 350
348 43 45
360 43 89
364 43 1064
367 43 808
372 43 125
384 43 264
398 43 1762
401 43 197
412 43 17
414 43 357
417 43 509
420 43 261
431 43 633
437 43 158
449 43 486
451 43 915
455 43 865
463 43 1566
464 43 901
469 43 1232
474 43 999
479 43 895
482 43 1498
483 43 495
494 43 680
500 43 1830
1 44 774
2 44 788
3 44 1213
4 44 677
5 44 1359
6 44 836
7 44 1025
8 44 25
9 44 266
10 44 696
11 44 315
12 44 335
13 44 196
14 44 129
15 44 613
16 44 715
17 44 357
18 44 631
19 44 1754
20 44 331
21 44 636
22 44 1190
23 44 500
24 44 1538
25 44 614
26 44 1030
27 44 9
28 44 234
29 44 1135
30 44 961
31 44 1295
32 44 502
33 44 326
34 44 3
35 44 214
36 44 460
37 44 857
38 44 944
39 44 731
40 44 1603
41 44 15
42 44 690
43 44 1549
44 44 234
46 44 1223
47 44 392
48 44 984
49 44 519
50 44 507
51 44 1473
52 44 927
53 44 1647
54 44 488
55 44 1412
56 44 541
57 44 858
58 44 407
59 44 925
60 44 470
61 44 406
62 44 417
63 44 6
64 44 297
65 44 753
66 44 973
67 44 28
68 44 131
69 44 613
70 44 367
71 44 751
72 44 1035
73 44 855
74 44 759
75 44 1021
76 44 51
77 44 202
78 44 515
79 44 829
80 44 127
81 44 1235
82 44 260
83 44 2044
84 44 950
85 44 890
86 44 1452
87 44 30
88 44 915
89 44 22
90 44 1169
91 44 538
92 44 1082
93 44 948
94 44 4
95 44 105
96 44 1336
97 44 390
98 44 682
99 44 862
100 44 1338
101 44 6
102 44 97
103 44 651
104 44 800
105 44 558
106 44 1006
107 44 427
108 44 315
109 44 585
110 44 747
111 44 595
112 44 540
113 44 563
114 44 539
115 44 372
116 44 591
117 44 828
118 44 37
119 44 388
120 44 363
121 44 4
122 44 380
123 44 532
124 44 739
125 44 340
126 44 1130
129 44 272
130 44 576
131 44 230
132 44 635
133 44 565
134 44 1169
135 44 317
136 44 224
137 44 1057
138 44 203
139 44 1435
140 44 644
141 44 156
142 44 1098
144 44 1680
146 44 1769
147 44 3
148 44 772
149 44 499
150 44 970
151 44 378
152 44 340
153 44 378
154 44 211
155 44 3
156 44 1443
157 44 323
159 44 1030
160 44 734
161 44 1500
162 44 1046
163 44 1017
164 44 268
165 44 1477
166 44 908
167 44 209
168 44 86
169 44 730
170 44 1191
171 44 476
172 44 844
174 44 1202
175 44 1046
176 44 206
177 44 959
178 44 1230
179 44 248
180 44 505
181 44 27
182 44 789
183 44 226
184 44 526
185 44 838
186 44 597
187 44 1274
188 44 660
190 44 975
191 44 135
192 44 620
193 44 1117
194 44 926
195 44 19
196 44 382
197 44 563
198 44 661
199 44 311
200 44 246
201 44 1142
202 44 972
204 44 316
205 44 1224
206 44 907
207 44 741
208 44 1078
209 44 604
210 44 640
211 44 345
212 44 324
213 44 271
214 44 842
215 44 1087
216 44 385
217 44 1243
218 44 1016
219 44 1085
220 44 1943
221 44 192
222 44 1009
223 44 487
224 44 586
225 44 591
226 44 893
227 44 569
228 44 277
229 44 6
230 44 761
231 44 326
233 44 1324
234 44 1512
235 44 845
236 44 589
237 44 470
238 44 161
239 44 353
241 44 520
242 44 427
243 44 570
244 44 518
245 44 201
247 44 205
248 44 806
249 44 1048
250 44 808
251 44 684
252 44 116
253 44 971
254 44 286
256 44 1017
257 44 1706
258 44 881
259 44 846
260 44 555
262 44 585
263 44 846
264 44 1696
265 44 894
266 44 817
267 44 981
268 44 88
269 44 166
270 44 688
271 44 703
272 44 368
273 44 1144
274 44 1347
275 44 999
276 44 886
277 44 885
278 44 1335
279 44 621
281 44 592
282 44 672
283 44 548
284 44 432
285 44 526
286 44 816
287 44 889
288 44 863
289 44 1026
290 44 405
291 44 474
292 44 8
293 44 357
294 44 71
295 44 1161
296 44 1240
297 44 281
298 44 1662
299 44 1127
300 44 6
301 44 536
303 44 693
304 44 1310
306 44 409
307 44 1686
308 44 285
309 44 398
310 44 641
311 44 464
312 44 379
313 44 1147
314 44 659
315 44 191
316 44 525
318 44 509
319 44 1494
320 44 993
321 44 289
322 44 477
323 44 1329
324 44 107
325 44 1217
326 44 557
327 44 486
328 44 239
329 44 262
330 44 1385
331 44 1349
332 44 532
333 44 649
334 44 780
335 44 173
336 44 583
337 44 1026
338 44 8
339 44 340
340 44 854
341 44 66
342 44 203
343 44 670
344 44 615
345 44 1366
346 44 493
347 44 1019
348 44 756
349 44 2058
350 44 667
351 44 472
352 44 533
353 44 392
354 44 778
355 44 1097
356 44 1536
357 44 1291
358 44 267
359 44 288
360 44 4
361 44 820
362 44 629
363 44 832
364 44 5
365 44 219
366 44 242
367 44 16
368 44 493
369 44 761
370 44 445
371 44 368
372 44 4
373 44 518
374 44 989
375 44 192
376 44 426
377 44 171
378 44 432
379 44 759
380 44 1853
381 44 818
382 44 571
383 44 974
384 44 181
385 44 520
386 44 1465
387 44 1070
388 44 522
389 44 287
390 44 330
391 44 1596
392 44 510
393 44 623
394 44 1313
395 44 1243
396 44 297
397 44 692
398 44 1
399 44 1455
400 44 1066
401 44 39
402 44 302
403 44 597
404 44 773
405 44 315
406 44 447
407 44 656
408 44 211
409 44 607
410 44 697
411 44 216
412 44 2108
413 44 1379
414 44 4
415 44 593
416 44 627
418 44 628
419 44 544
421 44 386
422 44 907
423 44 329
424 44 195
425 44 915
426 44 1443
427 44 838
428 44 731
429 44 630
430 44 1065
432 44 1019
433 44 390
434 44 452
435 44 310
436 44 435
437 44 91
438 44 653
439 44 488
440 44 529
441 44 1071
442 44 561
443 44 791
444 44 1403
445 44 207
446 44 1040
447 44 710
448 44 490
449 44 5
450 44 554
451 44 7
452 44 108
453 44 960
454 44 356
455 44 9
456 44 551
457 44 787
458 44 268
459 44 1037
460 44 608
461 44 206
462 44 394
463 44 23
464 44 18
465 44 185
466 44 175
467 44 791
468 44 672
469 44 3
470 44 843
471 44 387
472 44 1472
473 44 1026
474 44 9
475 44 968
476 44 720
477 44 1452
478 44 919
479 44 7
480 44 620
481 44 906
483 44 5
484 44 687
485 44 888
486 44 1166
487 44 477
488 44 1034
489 44 1419
490 44 400
491 44 423
492 44 390
493 44 169
494 44 10
495 44 680
496 44 1044
497 44 687
498 44 1687
499 44 725
500 44 3
1 45 7
2 45 2
4 45 3
5 45 2
6 45 5
7 45 3
8 45 24
12 45 4
13 45 4
14 45 7
15 45 2
19 45 6
20 45 1
22 45 4
24 45 5
25 45 2
26 45 8
27 45 1022
29 45 3
30 45 10
34 45 20
35 45 5
37 45 2
39 45 4
41 45 2101
42 45 15
45 45 994
47 45 8
50 45 7
51 45 15
52 45 12
58 45 14
59 45 10
62 45 7
63 45 616
64 45 2
65 45 2
66 45 1
67 45 2955
69 45 14
74 45 7
75 45 9
80 45 1
81 45 1
82 45 9
83 45 5
84 45 9
87 45 789
88 45 9
89 45 913
90 45 1
91 45 4
92 45 2
94 45 2354
95 45 11
97 45 10
98 45 5
101 45 3183
102 45 1
103 45 3
106 45 6
107 45 5
108 45 4
109 45 5
113 45 2
114 45 27
115 45 3
116 45 3
117 45 7
118 45 451
119 45 4
121 45 1585
122 45 12
124 45 6
126 45 2
127 45 500
128 45 150
129 45 3
131 45 8
133 45 6
134 45 12
137 45 5
138 45 4
143 45 2253
145 45 1091
146 45 4
147 45 1109
148 45 6
149 45 13
151 45 3
152 45 5
153 45 4
154 45 2
155 45 315
156 45 1
157 45 5
158 45 3255
160 45 3
164 45 6
165 45 13
166 45 5
167 45 3
170 45 12
173 45 1853
174 45 7
176 45 8
178 45 3
179 45 7
180 45 3
181 45 114
183 45 3
185 45 4
186 45 51
187 45 2
189 45 1583
191 45 7
193 45 4
194 45 6
195 45 1364
199 45 4
203 45 1187
204 45 2
205 45 8
207 45 5
208 45 4
210 45 6
212 45 4
213 45 1
214 45 3
217 45 3
218 45 23
219 45 3
220 45 4
224 45 11
229 45 2257
230 45 3
231 45 5
232 45 1277
233 45 2
239 45 10
240 45 1235
241 45 12
242 45 1
243 45 9
246 45 3318
247 45 7
249 45 2
250 45 2
251 45 7
253 45 11
255 45 2479
258 45 7
259 45 6
261 45 1623
262 45 4
263 45 3
267 45 2
268 45 2
270 45 7
271 45 7
272 45 20
275 45 4
276 45 6
277 45 4
278 45 2
280 45 2435
283 45 1
284 45 10
286 45 15
287 45 8
289 45 3
292 45 134
293 45 11
294 45 5
295 45 32
296 45 3
300 45 1992
302 45 592
304 45 7
305 45 556
309 45 17
310 45 6
311 45 5
312 45 3
313 45 1
314 45 5
316 45 4
317 45 460
319 45 7
320 45 9
322 45 1
326 45 3
327 45 6
331 45 5
332 45 5
338 45 450
339 45 3
340 45 6
341 45 3
343 45 8
348 45 4
353 45 4
354 45 3
358 45 6
359 45 6
360 45 831
361 45 5
364 45 398
365 45 4
367 45 1612
368 45 3
369 45 9
372 45 801
373 45 3
374 45 8
375 45 8
378 45 4
380 45 7
381 45 3
382 45 9
383 45 3
385 45 13
387 45 4
388 45 2
390 45 13
393 45 5
397 45 9
398 45 810
399 45 2
400 45 5
401 45 1628
402 45 4
404 45 3
406 45 7
408 45 7
409 45 2
410 45 3
412 45 6
414 45 2605
415 45 3
416 45 3
417 45 1114
419 45 3
420 45 2096
423 45 8
424 45 4
425 45 15
427 45 1
428 45 13
431 45 3056
437 45 4
438 45 1
439 45 26
440 45 8
443 45 3
445 45 5
446 45 5
447 45 4
448 45 7
449 45 63
451 45 2031
455 45 227
459 45 8
462 45 13
463 45 24
464 45 421
467 45 10
468 45 2
469 45 3067
474 45 1876
475 45 6
476 45 3
478 45 2
479 45 1240
480 45 5
481 45 11
482 45 612
483 45 1931
485 45 5
487 45 4
490 45 12
491 45 9
492 45 3
493 45 7
494 45 1438
495 45 3
498 45 14
499 45 16
500 45 1795
1 46 632
2 46 610
3 46 879
4 46 613
5 46 899
6 46 1067
7 46 853
8 46 2630
9 46 1157
10 46 1643
11 46 583
12 46 1365
13 46 1101
14 46 1542
15 46 869
16 46 1076
17 46 921
18 46 1952
19 46 1089
20 46 547
21 46 991
22 46 1830
23 46 661
24 46 2596
25 46 615
26 46 841
28 46 1115
29 46 964
30 46 1024
31 46 1423
32 46 723
33 46 897
34 46 800
35 46 781
36 46 1549
37 46 2116
38 46 529
39 46 945
40 46 889
41 46 5
42 46 1348
43 46 675
44 46 732
46 46 1326
47 46 984
48 46 1445
49 46 337
50 46 857
51 46 1226
52 46 1288
53 46 930
54 46 701
55 46 910
56 46 1007
57 46 540
58 46 933
59 46 1084
60 46 787
61 46 1428
62 46 1314
64 46 409
65 46 1601
66 46 429
68 46 1158
69 46 1062
70 46 1231
71 46 419
72 46 1242
73 46 1418
74 46 1619
75 46 1136
76 46 1879
77 46 749
78 46 1363
79 46 2492
80 46 515
81 46 1096
82 46 1425
83 46 939
84 46 1647
85 46 1650
86 46 1256
87 46 9
88 46 775
89 46 81
90 46 515
91 46 663
92 46 962
93 46 971
95 46 1467
96 46 2166
97 46 1218
98 46 1625
99 46 1044
100 46 1414
102 46 965
103 46 687
104 46 1051
105 46 1229
106 46 1068
107 46 746
108 46 1536
109 46 346
110 46 1106
111 46 1327
112 46 449
113 46 1089
114 46 456
115 46 942
116 46 1984
117 46 606
118 46 34
119 46 331
120 46 280
121 46 6
122 46 1176
123 46 790
124 46 2406
125 46 804
126 46 907
127 46 8
128 46 202
129 46 675
130 46 1410
131 46 2155
132 46 1290
133 46 1031
134 46 751
135 46 1245
136 46 719
137 46 1117
138 46 1199
139 46 1336
140 46 1056
141 46 2107
142 46 1071
144 46 1235
146 46 1106
147 46 5
148 46 1621
149 46 476
150 46 1554
151 46 1146
152 46 619
153 46 1061
154 46 603
156 46 753
157 46 445
158 46 39
159 46 1219
160 46 874
161 46 1302
162 46 1247
163 46 1355
164 46 653
165 46 2015
166 46 822
167 46 849
168 46 1267
169 46 1107
170 46 692
171 46 654
172 46 846
173 46 16
174 46 1272
175 46 1306
176 46 799
177 46 2470
178 46 269
179 46 2111
180 46 965
181 46 53
182 46 1307
183 46 324
184 46 565
185 46 1678
186 46 974
187 46 1061
188 46 2042
189 46 2
190 46 1444
191 46 1099
192 46 1041
193 46 1094
194 46 1645
195 46 21
196 46 1169
197 46 640
198 46 512
199 46 1255
200 46 998
201 46 939
202 46 1501
203 46 14
204 46 969
205 46 1819
206 46 1232
207 46 1703
208 46 1172
209 46 1334
210 46 1071
211 46 2253
212 46 1159
213 46 1059
214 46 863
215 46 1135
216 46 1440
217 46 894
218 46 876
219 46 1130
220 46 917
221 46 709
222 46 1308
223 46 689
224 46 1175
225 46 1976
226 46 1680
227 46 824
228 46 1276
230 46 465
231 46 1440
232 46 28
233 46 722
234 46 635
235 46 504
236 46 605
237 46 839
238 46 1265
239 46 1332
240 46 10
241 46 793
242 46 1731
243 46 618
244 46 525
245 46 735
246 46 4
247 46 904
248 46 672
249 46 1201
250 46 1091
251 46 583
252 46 1033
253 46 982
254 46 1038
256 46 1236
257 46 1980
258 46 3084
259 46 1609
260 46 390
261 46 4
262 46 883
263 46 1278
264 46 1973
265 46 1667
266 46 903
267 46 785
268 46 1787
269 46 2154
270 46 1138
271 46 292
272 46 1310
273 46 475
274 46 1244
275 46 843
276 46 870
277 46 1034
278 46 427
279 46 1425
280 46 4
281 46 2324
282 46 1052
283 46 1079
284 46 1545
285 46 1689
286 46 263
287 46 1349
288 46 1626
289 46 885
290 46 931
291 46 1537
292 46 542
293 46 1342
294 46 1665
295 46 1329
296 46 1289
297 46 1363
298 46 1159
299 46 292
300 46 7
301 46 260
302 46 24
303 46 1171
304 46 1054
306 46 1204
307 46 1243
308 46 1945
309 46 710
310 46 593
311 46 1750
312 46 1050
313 46 1506
314 46 1230
315 46 828
316 46 2396
317 46 7
318 46 1391
319 46 681
320 46 1491
321 46 1281
322 46 773
323 46 1467
324 46 1154
325 46 2257
326 46 1070
327 46 615
328 46 739
329 46 835
330 46 1098
331 46 900
332 46 1253
333 46 1041
334 46 1628
335 46 531
336 46 834
337 46 936
338 46 61
339 46 965
340 46 1160
341 46 788
342 46 743
343 46 1043
344 46 1416
345 46 1270
346 46 1034
347 46 791
348 46 638
349 46 703
350 46 1975
351 46 701
352 46 385
353 46 461
354 46 1617
355 46 1347
356 46 897
357 46 1839
358 46 421
359 46 1017
360 46 68
361 46 1565
362 46 538
363 46 1237
364 46 4
365 46 1249
366 46 1389
368 46 1320
369 46 1004
370 46 721
371 46 1094
372 46 69
373 46 2496
374 46 1117
375 46 1734
376 46 304
377 46 1166
378 46 1519
379 46 1750
380 46 1408
381 46 1631
382 46 1072
383 46 708
384 46 1154
385 46 624
386 46 909
387 46 361
388 46 2241
389 46 578
390 46 1352
391 46 1380
392 46 616
393 46 1990
394 46 1468
395 46 833
396 46 705
397 46 1961
398 46 21
399 46 1072
400 46 1780
401 46 8
402 46 1133
403 46 1919
404 46 1361
405 46 1785
406 46 584
407 46 523
408 46 764
409 46 645
410 46 999
411 46 754
412 46 976
413 46 1643
414 46 2
415 46 1234
416 46 1055
418 46 1454
419 46 2024
420 46 2
421 46 501
422 46 604
423 46 1413
424 46 526
425 46 1226
426 46 2199
427 46 871
428 46 984
429 46 1270
430 46 947
431 46 3
432 46 776
433 46 1434
434 46 595
435 46 788
436 46 579
437 46 1894
438 46 592
439 46 467
440 46 1102
441 46 1129
442 46 1383
443 46 768
444 46 2217
445 46 663
446 46 849
447 46 976
448 46 845
449 46 286
450 46 373
451 46 6
452 46 715
453 46 2056
454 46 1609
455 46 138
456 46 684
457 46 1385
458 46 855
459 46 856
460 46 1376
461 46 733
462 46 1523
463 46 2686
465 46 1206
466 46 1128
467 46 1914
468 46 710
469 46 6
470 46 1077
471 46 905
472 46 1227
473 46 1208
474 46 5
475 46 445
476 46 650
477 46 1287
478 46 1738
479 46 8
480 46 567
481 46 1492
482 46 25
483 46 29
484 46 1020
485 46 1802
486 46 1654
487 46 934
488 46 1262
489 46 1011
490 46 1087
491 46 905
492 46 1349
493 46 739
495 46 490
496 46 1191
497 46 1052
498 46 2262
499 46 807
7 47 3
8 47 4
11 47 5
12 47 2
15 47 2
21 47 3
23 47 17
26 47 1
27 47 44
28 47 5
34 47 7
36 47 5
38 47 3
39 47 7
41 47 927
42 47 12
44 47 17
45 47 1078
47 47 2
50 47 1
52 47 3
53 47 2
56 47 13
57 47 2
62 47 5
63 47 245
67 47 935
68 47 4
73 47 14
76 47 6
77 47 3
78 47 5
80 47 3
82 47 6
83 47 2
84 47 12
87 47 12
90 47 5
91 47 2
93 47 3
94 47 1221
95 47 4
99 47 2
101 47 434
102 47 4
104 47 10
105 47 2
108 47 5
109 47 1
111 47 9
112 47 2
113 47 11
114 47 2
117 47 3
118 47 944
120 47 4
121 47 1208
127 47 28
130 47 6
136 47 3
137 47 3
138 47 3
140 47 1
141 47 4
143 47 1014
144 47 3
145 47 896
147 47 426
151 47 1
152 47 2
154 47 12
155 47 1321
156 47 5
157 47 2
158 47 247
166 47 4
172 47 3
173 47 314
176 47 4
178 47 3
180 47 4
184 47 4
186 47 4
188 47 4
189 47 702
190 47 8
192 47 3
193 47 5
195 47 514
196 47 14
197 47 4
198 47 4
201 47 6
203 47 1554
204 47 2
209 47 13
210 47 2
212 47 1
214 47 10
218 47 6
220 47 3
224 47 4
226 47 3
227 47 4
229 47 484
231 47 3
232 47 92
235 47 5
237 47 7
240 47 873
241 47 2
244 47 3
245 47 4
246 47 1129
247 47 5
248 47 6
250 47 10
252 47 3
254 47 2
255 47 1610
256 47 11
257 47 1
261 47 1459
262 47 5
263 47 11
264 47 6
265 47 5
267 47 2
269 47 4
275 47 3
278 47 10
279 47 8
280 47 972
282 47 1
283 47 3
285 47 3
286 47 11
289 47 3
290 47 11
295 47 1
298 47 2
299 47 9
300 47 94
301 47 5
302 47 430
304 47 5
305 47 1485
307 47 3
308 47 4
309 47 6
312 47 4
313 47 11
317 47 1337
318 47 1
319 47 7
324 47 4
325 47 1
328 47 10
331 47 10
332 47 1
333 47 6
334 47 4
335 47 1
336 47 4
338 47 30
342 47 7
344 47 18
347 47 12
349 47 1
355 47 16
357 47 3
358 47 5
359 47 6
360 47 4
364 47 847
365 47 4
367 47 84
372 47 6
375 47 4
376 47 4
379 47 2
385 47 6
387 47 6
391 47 5
392 47 3
397 47 6
398 47 2
401 47 14
402 47 6
403 47 4
405 47 3
407 47 1
408 47 2
410 47 3
411 47 11
412 47 3
413 47 2
414 47 625
416 47 2
417 47 563
418 47 6
420 47 799
425 47 2
427 47 2
430 47 1
431 47 1119
432 47 10
434 47 4
435 47 3
436 47 6
438 47 3
439 47 3
442 47 5
443 47 5
445 47 2
446 47 2
447 47 1
448 47 3
451 47 97
454 47 6
459 47 5
460 47 9
463 47 5
464 47 772
469 47 1211
474 47 677
476 47 5
478 47 2
479 47 723
480 47 3
482 47 392
483 47 4
485 47 3
487 47 11
489 47 7
494 47 766
497 47 2
498 47 16
499 47 6
500 47 977
19 48 2073
24 48 1129
30 48 257
31 48 1349
53 48 848
59 48 231
72 48 268
75 48 263
79 48 1111
86 48 209
96 48 591
100 48 1259
106 48 245
131 48 413
146 48 2104
156 48 2106
159 48 286
161 48 171
175 48 276
179 48 414
185 48 85
205 48 1375
222 48 251
239 48 1570
253 48 241
259 48 99
260 48 487
263 48 1808
274 48 200
293 48 1619
309 48 37
316 48 1514
319 48 2194
323 48 1320
345 48 157
352 48 491
354 48 72
357 48 350
361 48 84
373 48 1510
374 48 235
377 48 732
381 48 88
390 48 1578
394 48 1325
423 48 1629
426 48 578
444 48 612
450 48 445
454 48 2218
465 48 785
466 48 796
472 48 181
473 48 258
477 48 188
488 48 284
496 48 293
19 49 1301
24 49 1380
30 49 3
31 49 346
53 49 1165
59 49 3
72 49 62
75 49 1
79 49 2144
86 49 631
96 49 1010
100 49 329
106 49 5
131 49 601
146 49 1271
156 49 1039
159 49 75
161 49 642
175 49 54
179 49 588
205 49 787
222 49 80
239 49 1334
253 49 3
260 49 176
263 49 1680
274 49 673
293 49 1358
309 49 21
316 49 2056
319 49 1031
323 49 346
345 49 649
352 49 172
357 49 1165
373 49 2056
374 49 5
377 49 1626
390 49 1380
394 49 354
423 49 1321
426 49 1140
444 49 1124
450 49 151
454 49 751
465 49 1749
466 49 1712
472 49 631
473 49 81
477 49 646
488 49 76
496 49 82
19 50 545
24 50 1071
30 50 5
31 50 269
53 50 69
59 50 2
72 50 3
75 50 3
79 50 1427
86 50 11
96 50 1365
100 50 281
106 50 3
131 50 852
146 50 524
156 50 1337
159 50 6
161 50 8
175 50 5
179 50 806
205 50 949
222 50 4
239 50 185
253 50 4
260 50 92
263 50 218
274 50 11
293 50 172
316 50 240
319 50 1356
323 50 258
345 50 18
352 50 82
357 50 885
373 50 242
374 50 1
377 50 800
390 50 153
394 50 278
423 50 165
426 50 1355
444 50 1412
450 50 95
454 50 616
465 50 757
466 50 847
472 50 6
473 50 3
477 50 8
488 50 9
496 50 2
19 51 457
24 51 374
31 51 254
53 51 22
79 51 556
96 51 1628
100 51 246
131 51 496
146 51 449
156 51 665
179 51 566
205 51 372
239 51 279
263 51 315
293 51 281
316 51 1639
319 51 673
323 51 241
357 51 433
373 51 1511
377 51 883
390 51 269
394 51 230
423 51 299
426 51 1706
444 51 1707
454 51 1103
465 51 902
466 51 930
1 52 20
2 52 77
3 52 93
5 52 31
6 52 39
7 52 47
8 52 42
9 52 19
10 52 4
11 52 68
12 52 29
14 52 39
15 52 37
16 52 39
17 52 43
18 52 67
19 52 84
21 52 84
22 52 2
23 52 752
24 52 84
26 52 49
27 52 91
28 52 56
29 52 122
30 52 8
31 52 59
33 52 26
34 52 16
36 52 11
38 52 19
39 52 43
40 52 54
41 52 25
42 52 51
43 52 133
44 52 34
45 52 137
46 52 195
47 52 86
48 52 38
49 52 9
51 52 66
52 52 10
53 52 99
54 52 11
55 52 25
56 52 59
57 52 91
58 52 37
59 52 6
60 52 3
61 52 20
63 52 2
65 52 44
66 52 115
67 52 79
68 52 47
69 52 50
70 52 24
73 52 73
74 52 19
75 52 12
76 52 14
77 52 38
78 52 48
79 52 41
81 52 8
83 52 37
84 52 7
85 52 120
86 52 6
87 52 115
88 52 92
89 52 51
90 52 25
93 52 37
94 52 99
95 52 36
96 52 160
97 52 38
98 52 47
99 52 35
100 52 62
101 52 24
104 52 42
105 52 61
106 52 7
108 52 30
110 52 9
111 52 61
114 52 21
115 52 39
116 52 81
117 52 37
118 52 44
121 52 138
122 52 53
124 52 81
125 52 39
126 52 57
127 52 173
128 52 43
129 52 71
130 52 63
131 52 72
132 52 42
133 52 29
134 52 59
136 52 125
137 52 42
138 52 17
139 52 5
140 52 24
142 52 59
143 52 3
144 52 57
145 52 4
146 52 98
147 52 63
148 52 21
149 52 36
150 52 11
151 52 15
152 52 42
153 52 56
154 52 43
155 52 133
156 52 131
158 52 47
160 52 66
161 52 5
162 52 75
163 52 71
164 52 64
165 52 55
166 52 38
168 52 78
169 52 61
170 52 58
171 52 17
173 52 39
174 52 76
176 52 83
177 52 9
178 52 6
179 52 113
181 52 54
182 52 47
185 52 20
186 52 9
187 52 8
188 52 57
189 52 71
190 52 66
191 52 34
193 52 34
194 52 20
195 52 164
196 52 6
197 52 50
199 52 62
200 52 57
201 52 3
202 52 25
203 52 125
204 52 33
205 52 118
206 52 71
207 52 60
208 52 38
209 52 55
210 52 56
211 52 55
212 52 2
213 52 16
214 52 73
215 52 49
216 52 55
217 52 20
218 52 49
219 52 2
220 52 40
224 52 7
225 52 64
226 52 29
227 52 62
229 52 72
231 52 33
232 52 150
233 52 30
234 52 36
235 52 18
237 52 4
238 52 59
239 52 61
240 52 2
241 52 13
242 52 37
243 52 102
245 52 35
246 52 91
247 52 23
249 52 3
251 52 69
252 52 19
253 52 11
254 52 95
255 52 42
256 52 27
257 52 47
258 52 124
259 52 18
260 52 73
261 52 66
263 52 13
264 52 74
265 52 43
267 52 47
268 52 80
269 52 2
270 52 54
271 52 43
272 52 34
273 52 37
274 52 4
275 52 51
276 52 31
278 52 68
279 52 56
280 52 27
281 52 40
284 52 82
285 52 37
286 52 3
287 52 11
288 52 50
289 52 43
290 52 147
291 52 65
292 52 28
293 52 52
294 52 70
295 52 42
296 52 93
297 52 47
298 52 79
299 52 127
300 52 43
301 52 61
302 52 49
303 52 43
304 52 82
305 52 61
307 52 69
308 52 74
309 52 12
310 52 20
311 52 48
312 52 74
313 52 46
314 52 48
317 52 76
318 52 47
319 52 124
320 52 52
321 52 59
323 52 70
324 52 57
325 52 62
326 52 33
327 52 39
328 52 123
330 52 39
331 52 30
332 52 5
334 52 37
336 52 68
337 52 138
338 52 139
339 52 34
340 52 44
342 52 105
343 52 260
344 52 64
345 52 4
346 52 52
347 52 34
348 52 75
349 52 21
350 52 69
351 52 18
352 52 87
354 52 23
355 52 21
356 52 53
357 52 99
358 52 155
359 52 30
360 52 58
361 52 28
362 52 32
363 52 5
364 52 61
365 52 34
366 52 35
367 52 51
368 52 16
369 52 67
370 52 27
371 52 44
372 52 57
374 52 11
375 52 145
377 52 104
378 52 81
379 52 46
380 52 93
381 52 20
382 52 11
385 52 99
386 52 85
388 52 18
389 52 39
390 52 42
391 52 107
392 52 52
393 52 85
394 52 56
395 52 78
397 52 63
398 52 42
399 52 43
400 52 33
401 52 17
402 52 34
403 52 45
404 52 22
405 52 58
411 52 121
412 52 41
413 52 139
414 52 69
415 52 6
416 52 71
417 52 53
418 52 16
419 52 51
420 52 130
423 52 57
425 52 32
426 52 159
427 52 15
428 52 72
429 52 57
430 52 34
431 52 3
432 52 43
433 52 20
434 52 35
435 52 22
436 52 26
437 52 93
439 52 9
440 52 24
441 52 46
442 52 143
443 52 75
444 52 146
446 52 36
448 52 25
449 52 51
450 52 74
451 52 43
452 52 23
453 52 53
454 52 22
455 52 33
456 52 34
457 52 38
459 52 61
460 52 64
462 52 92
463 52 59
464 52 19
465 52 120
466 52 104
467 52 224
469 52 3
471 52 9
472 52 5
474 52 27
475 52 133
476 52 83
477 52 8
478 52 12
479 52 37
480 52 116
481 52 95
482 52 52
483 52 76
485 52 15
486 52 50
487 52 14
489 52 32
490 52 13
491 52 35
492 52 154
494 52 10
498 52 170
499 52 9
500 52 30
1 53 226
2 53 655
3 53 668
5 53 291
6 53 455
7 53 522
8 53 1115
9 53 814
10 53 497
11 53 557
12 53 1516
14 53 710
15 53 736
16 53 300
17 53 543
18 53 847
19 53 2146
21 53 976
22 53 274
23 53 1814
24 53 671
26 53 493
27 53 576
28 53 270
29 53 1719
30 53 137
31 53 443
32 53 3
33 53 557
34 53 524
36 53 260
37 53 177
38 53 329
39 53 1025
40 53 308
41 53 1698
42 53 950
43 53 783
44 53 550
45 53 627
46 53 2405
47 53 1629
48 53 978
49 53 305
51 53 578
52 53 152
53 53 1294
54 53 748
55 53 879
56 53 710
57 53 349
58 53 898
59 53 138
60 53 540
61 53 271
62 53 8
63 53 1139
65 53 1324
66 53 102
67 53 977
68 53 854
69 53 1246
70 53 149
72 53 995
73 53 779
74 53 295
75 53 124
76 53 208
77 53 848
78 53 593
79 53 1926
81 53 226
82 53 3
83 53 1740
84 53 964
85 53 838
86 53 557
87 53 1101
88 53 1079
89 53 291
90 53 902
93 53 1218
94 53 1515
95 53 1214
96 53 2127
97 53 1097
98 53 1317
99 53 527
100 53 353
101 53 1031
102 53 559
104 53 363
105 53 311
106 53 137
108 53 605
110 53 644
111 53 1354
114 53 356
115 53 527
116 53 330
117 53 279
118 53 558
121 53 470
122 53 493
124 53 510
125 53 534
126 53 764
127 53 1735
128 53 409
129 53 1143
130 53 1346
131 53 875
132 53 483
133 53 343
134 53 750
136 53 308
137 53 118
138 53 194
139 53 303
140 53 314
141 53 304
142 53 834
143 53 453
144 53 776
145 53 462
146 53 2084
147 53 834
148 53 282
149 53 919
150 53 625
151 53 234
152 53 779
153 53 729
154 53 767
155 53 630
156 53 889
158 53 861
159 53 1028
160 53 1710
161 53 564
162 53 524
163 53 1197
164 53 1121
165 53 463
166 53 1081
168 53 956
169 53 295
170 53 779
171 53 743
173 53 1315
174 53 987
175 53 1022
176 53 703
177 53 1636
178 53 12
179 53 860
181 53 168
182 53 496
185 53 161
186 53 224
187 53 178
188 53 1493
189 53 594
190 53 319
191 53 237
193 53 135
194 53 844
195 53 2270
196 53 316
197 53 987
199 53 2736
200 53 547
201 53 8
202 53 974
203 53 1054
204 53 447
205 53 872
206 53 891
207 53 505
208 53 131
209 53 1321
210 53 648
211 53 439
212 53 202
213 53 829
214 53 2109
215 53 840
216 53 1093
217 53 667
218 53 952
220 53 1670
222 53 1012
223 53 1
224 53 186
225 53 845
226 53 378
227 53 1217
229 53 276
231 53 1637
232 53 542
233 53 934
234 53 147
235 53 322
237 53 196
238 53 1289
239 53 473
240 53 675
241 53 141
242 53 2354
243 53 677
245 53 802
246 53 1166
247 53 350
248 53 161
251 53 827
252 53 174
253 53 135
254 53 732
255 53 826
256 53 184
257 53 1002
258 53 1360
259 53 168
260 53 803
261 53 1052
263 53 690
264 53 946
265 53 343
267 53 1112
268 53 1032
269 53 318
270 53 1511
271 53 610
272 53 701
273 53 1363
274 53 510
275 53 492
276 53 468
278 53 278
279 53 1400
280 53 1325
281 53 597
284 53 602
285 53 1058
286 53 1
287 53 206
288 53 1633
289 53 521
290 53 1611
291 53 1174
292 53 1213
293 53 476
294 53 915
295 53 1039
296 53 217
297 53 443
298 53 357
299 53 810
300 53 596
301 53 602
302 53 280
303 53 774
304 53 728
305 53 749
307 53 748
308 53 203
309 53 154
310 53 1257
311 53 2356
312 53 1605
313 53 991
314 53 1192
316 53 326
317 53 670
318 53 608
319 53 902
320 53 256
321 53 413
322 53 562
323 53 367
324 53 852
325 53 1903
326 53 545
327 53 1494
328 53 293
330 53 265
331 53 664
332 53 173
334 53 711
336 53 1248
337 53 1352
338 53 1302
339 53 382
340 53 631
342 53 321
343 53 1167
344 53 1407
345 53 606
346 53 957
347 53 1103
348 53 694
349 53 167
350 53 865
351 53 769
352 53 808
354 53 152
355 53 634
356 53 358
357 53 683
358 53 891
359 53 829
360 53 243
361 53 162
362 53 631
363 53 2
364 53 990
365 53 173
366 53 801
367 53 343
368 53 839
369 53 1374
370 53 706
371 53 254
372 53 289
373 53 323
374 53 164
375 53 1419
377 53 1412
378 53 608
379 53 528
380 53 146
381 53 165
382 53 485
383 53 241
384 53 179
385 53 798
386 53 1322
388 53 167
389 53 642
390 53 552
391 53 1208
392 53 976
393 53 305
394 53 410
395 53 653
396 53 73
397 53 1152
398 53 80
399 53 414
400 53 811
401 53 143
402 53 810
403 53 324
404 53 385
405 53 1360
411 53 313
412 53 1720
413 53 855
414 53 1421
415 53 285
416 53 622
417 53 487
418 53 179
419 53 1394
420 53 734
423 53 495
424 53 1
425 53 253
426 53 2233
427 53 421
428 53 1406
429 53 1180
430 53 1146
431 53 1292
432 53 1006
433 53 278
434 53 474
435 53 584
436 53 438
437 53 1014
439 53 364
440 53 435
441 53 813
442 53 1296
443 53 617
444 53 2163
446 53 535
448 53 133
449 53 516
450 53 863
451 53 616
452 53 1323
453 53 326
454 53 232
455 53 1360
456 53 779
457 53 84
459 53 481
460 53 1312
462 53 654
463 53 1187
464 53 1729
465 53 1422
466 53 1388
467 53 479
469 53 245
471 53 114
472 53 542
473 53 991
474 53 260
475 53 110
476 53 718
477 53 536
478 53 788
479 53 1126
480 53 1430
481 53 341
482 53 274
483 53 464
485 53 721
486 53 514
487 53 145
488 53 1052
489 53 604
490 53 668
491 53 947
492 53 797
494 53 1496
496 53 959
498 53 948
499 53 1340
500 53 745
1 54 1183
2 54 1166
3 54 93
4 54 598
5 54 275
6 54 114
7 54 189
8 54 305
9 54 762
10 54 462
11 54 224
12 54 198
13 54 1206
14 54 82
15 54 728
16 54 587
17 54 1095
18 54 1105
19 54 341
20 54 905
21 54 306
22 54 708
23 54 98
24 54 154
25 54 607
26 54 168
27 54 145
28 54 200
29 54 67
30 54 1574
31 54 395
32 54 846
33 54 786
34 54 818
35 54 894
36 54 1042
37 54 1221
38 54 425
39 54 496
40 54 467
41 54 450
42 54 56
43 54 144
44 54 167
45 54 84
46 54 303
47 54 152
48 54 234
49 54 1582
50 54 2101
51 54 240
52 54 1072
53 54 168
54 54 73
55 54 495
56 54 313
57 54 772
58 54 506
59 54 1616
60 54 1678
61 54 1178
62 54 1340
63 54 569
64 54 1107
65 54 303
66 54 299
67 54 292
68 54 696
69 54 406
70 54 650
71 54 1778
72 54 1311
73 54 107
74 54 670
75 54 1608
76 54 570
77 54 1112
78 54 573
79 54 1550
80 54 309
81 54 129
82 54 973
83 54 381
84 54 534
85 54 819
86 54 941
87 54 587
88 54 89
89 54 793
90 54 980
91 54 1003
92 54 997
93 54 176
94 54 229
95 54 320
96 54 922
97 54 125
98 54 357
99 54 123
100 54 416
101 54 791
102 54 1128
103 54 1027
104 54 290
105 54 253
106 54 1668
107 54 878
108 54 441
109 54 2019
110 54 800
111 54 249
112 54 1569
113 54 755
114 54 834
115 54 44
116 54 217
117 54 365
118 54 373
119 54 556
120 54 627
121 54 132
122 54 695
123 54 763
124 54 610
125 54 100
126 54 322
127 54 116
128 54 463
129 54 219
130 54 259
131 54 270
132 54 516
133 54 294
134 54 456
135 54 1006
136 54 95
137 54 507
138 54 253
139 54 1129
140 54 524
141 54 1036
142 54 1305
143 54 1490
144 54 156
145 54 394
146 54 400
147 54 639
148 54 687
149 54 189
150 54 935
151 54 433
152 54 255
153 54 339
154 54 731
155 54 832
156 54 67
157 54 712
158 54 1085
159 54 1232
160 54 296
161 54 923
162 54 111
163 54 118
164 54 289
165 54 761
166 54 175
167 54 581
168 54 252
169 54 600
170 54 434
171 54 76
172 54 974
173 54 144
174 54 892
175 54 1300
176 54 853
177 54 1770
178 54 1299
179 54 264
180 54 1126
181 54 506
182 54 963
183 54 758
184 54 863
185 54 714
186 54 677
187 54 125
188 54 274
189 54 582
190 54 783
191 54 1393
192 54 690
193 54 550
194 54 223
195 54 159
196 54 989
197 54 70
198 54 834
199 54 198
200 54 50
201 54 982
202 54 770
203 54 822
204 54 60
205 54 70
206 54 94
207 54 1368
208 54 544
209 54 244
210 54 562
211 54 1110
212 54 483
213 54 363
214 54 222
215 54 1160
216 54 266
217 54 727
218 54 1366
219 54 1289
220 54 390
221 54 528
222 54 1257
223 54 792
224 54 395
225 54 1085
226 54 1125
227 54 108
228 54 1000
229 54 211
230 54 760
231 54 169
232 54 611
233 54 706
234 54 987
235 54 419
236 54 1045
237 54 575
238 54 23
239 54 1260
240 54 858
241 54 638
242 54 436
243 54 975
244 54 951
245 54 1170
246 54 133
247 54 198
248 54 230
249 54 1262
250 54 1147
251 54 558
252 54 521
253 54 1729
254 54 215
255 54 618
256 54 547
257 54 965
258 54 92
259 54 739
260 54 187
261 54 486
262 54 2146
263 54 578
264 54 912
265 54 1076
266 54 1010
267 54 127
268 54 447
269 54 980
270 54 330
271 54 344
272 54 92
273 54 188
274 54 890
275 54 181
276 54 159
277 54 2989
278 54 764
279 54 276
280 54 405
281 54 193
282 54 1129
283 54 706
284 54 120
285 54 1368
286 54 886
287 54 1083
288 54 86
289 54 183
290 54 84
291 54 366
292 54 462
293 54 1297
294 54 657
295 54 1058
296 54 464
297 54 290
298 54 392
299 54 791
300 54 990
301 54 868
302 54 206
303 54 826
304 54 1162
305 54 359
306 54 1483
307 54 170
308 54 398
309 54 784
310 54 221
311 54 424
312 54 137
313 54 499
314 54 147
315 54 526
316 54 1327
317 54 1807
318 54 575
319 54 86
320 54 110
321 54 276
322 54 106
323 54 407
324 54 729
325 54 112
326 54 160
327 54 57
328 54 89
329 54 1166
330 54 202
331 54 388
332 54 401
333 54 1157
334 54 262
335 54 300
336 54 115
337 54 879
338 54 286
339 54 424
340 54 463
341 54 1099
342 54 97
343 54 77
344 54 283
345 54 888
346 54 503
347 54 712
348 54 1186
349 54 255
350 54 1092
351 54 78
352 54 153
353 54 1141
354 54 723
355 54 267
356 54 483
357 54 275
358 54 89
359 54 449
360 54 107
361 54 706
362 54 117
363 54 1250
364 54 391
365 54 252
366 54 782
367 54 409
368 54 150
369 54 109
370 54 438
371 54 239
372 54 122
373 54 1418
374 54 1693
375 54 310
376 54 1225
377 54 205
378 54 680
379 54 563
380 54 161
381 54 723
382 54 177
383 54 411
384 54 1699
385 54 228
386 54 921
387 54 607
388 54 116
389 54 136
390 54 1268
391 54 134
392 54 423
393 54 222
394 54 420
395 54 119
396 54 407
397 54 651
398 54 385
399 54 517
400 54 133
401 54 184
402 54 461
403 54 412
404 54 337
405 54 177
406 54 1031
407 54 852
408 54 1054
409 54 1057
410 54 2015
411 54 88
412 54 402
413 54 87
414 54 143
415 54 1243
416 54 538
417 54 708
418 54 642
419 54 193
420 54 197
421 54 672
422 54 834
423 54 1203
424 54 618
425 54 559
426 54 952
427 54 809
428 54 106
429 54 187
430 54 146
431 54 184
432 54 706
433 54 1177
434 54 365
435 54 733
436 54 396
437 54 461
438 54 1043
439 54 917
440 54 684
441 54 1248
442 54 38
443 54 56
444 54 958
445 54 585
446 54 187
447 54 1114
448 54 636
449 54 113
450 54 188
451 54 950
452 54 157
453 54 1256
454 54 1270
455 54 682
456 54 416
457 54 313
458 54 704
459 54 179
460 54 273
461 54 851
462 54 107
463 54 249
464 54 1018
465 54 198
466 54 235
467 54 184
468 54 1107
469 54 1198
470 54 908
471 54 1007
472 54 918
473 54 1260
474 54 545
475 54 298
476 54 158
477 54 870
478 54 191
479 54 977
480 54 37
481 54 184
482 54 232
483 54 206
484 54 651
485 54 224
486 54 368
487 54 386
488 54 1262
489 54 644
490 54 854
491 54 531
492 54 48
493 54 558
494 54 2496
495 54 668
496 54 1260
497 54 1177
498 54 650
499 54 68
500 54 484
1 55 6
2 55 18
3 55 40
6 55 7
7 55 31
8 55 82
9 55 22
10 55 4
11 55 33
12 55 42
14 55 5
15 55 8
16 55 6
18 55 4
19 55 192
21 55 5
22 55 3
23 55 173
24 55 12
26 55 27
28 55 5
29 55 79
36 55 7
39 55 46
40 55 4
42 55 63
43 55 24
44 55 21
45 55 92
46 55 61
47 55 15
48 55 23
51 55 1
53 55 43
54 55 10
55 55 7
56 55 18
58 55 18
60 55 2
61 55 1
63 55 6
65 55 10
66 55 5
67 55 70
68 55 17
69 55 22
70 55 5
72 55 13
73 55 13
74 55 5
78 55 2
79 55 20
81 55 9
83 55 27
84 55 4
87 55 13
88 55 29
90 55 3
94 55 11
95 55 5
96 55 3
97 55 9
98 55 9
99 55 14
102 55 21
104 55 11
105 55 20
108 55 24
110 55 12
111 55 22
114 55 19
115 55 27
116 55 3
117 55 39
118 55 1
121 55 7
122 55 3
124 55 6
125 55 85
126 55 3
127 55 53
128 55 5
129 55 78
130 55 26
131 55 7
132 55 25
133 55 11
134 55 2
136 55 15
138 55 3
139 55 9
140 55 7
141 55 25
143 55 7
144 55 16
146 55 206
147 55 51
148 55 1
149 55 13
150 55 3
151 55 10
153 55 19
154 55 23
155 55 54
156 55 43
158 55 43
159 55 14
160 55 36
162 55 30
163 55 1
164 55 21
165 55 6
166 55 10
168 55 22
169 55 4
170 55 4
171 55 10
173 55 36
174 55 9
175 55 10
176 55 5
177 55 7
179 55 7
185 55 13
187 55 10
188 55 41
189 55 4
190 55 13
191 55 7
194 55 9
195 55 32
197 55 25
199 55 30
200 55 28
202 55 5
203 55 2
204 55 15
205 55 18
206 55 3
207 55 21
209 55 20
210 55 15
212 55 12
213 55 2
214 55 3
216 55 18
217 55 4
220 55 37
222 55 9
224 55 2
225 55 2
226 55 3
227 55 25
231 55 33
232 55 29
233 55 35
234 55 18
238 55 8
240 55 7
242 55 11
243 55 13
246 55 3
248 55 5
251 55 3
252 55 22
255 55 57
256 55 13
259 55 8
260 55 8
261 55 45
263 55 10
265 55 2
267 55 9
268 55 19
269 55 37
270 55 23
271 55 1
272 55 27
273 55 6
275 55 28
276 55 12
278 55 3
279 55 23
280 55 11
281 55 20
284 55 39
285 55 6
288 55 18
289 55 25
290 55 71
291 55 42
292 55 3
294 55 20
296 55 13
297 55 4
298 55 3
299 55 13
300 55 8
301 55 8
302 55 22
303 55 14
304 55 3
305 55 8
307 55 20
308 55 6
309 55 3
310 55 15
311 55 16
312 55 15
313 55 4
314 55 31
317 55 44
318 55 5
319 55 66
320 55 44
321 55 4
322 55 5
324 55 18
325 55 19
326 55 41
327 55 235
328 55 25
330 55 21
331 55 28
332 55 4
336 55 31
339 55 16
340 55 23
342 55 17
343 55 27
344 55 24
346 55 2
347 55 8
348 55 5
349 55 6
350 55 9
351 55 14
352 55 6
354 55 12
356 55 3
357 55 3
358 55 36
360 55 4
361 55 6
362 55 16
364 55 24
365 55 4
366 55 3
368 55 7
369 55 36
370 55 8
372 55 4
375 55 11
379 55 10
380 55 28
381 55 9
382 55 2
383 55 4
386 55 16
388 55 57
389 55 13
391 55 43
392 55 31
393 55 10
395 55 48
396 55 9
397 55 16
398 55 3
399 55 13
400 55 2
401 55 11
403 55 24
405 55 35
411 55 15
412 55 33
413 55 74
414 55 5
415 55 5
416 55 9
417 55 10
418 55 11
419 55 47
420 55 32
425 55 11
426 55 4
428 55 21
429 55 31
431 55 3
432 55 5
433 55 4
434 55 3
435 55 4
436 55 5
437 55 24
439 55 19
442 55 3
443 55 33
444 55 4
446 55 27
450 55 14
451 55 8
452 55 51
455 55 7
456 55 35
457 55 9
459 55 35
460 55 25
462 55 28
463 55 77
464 55 36
467 55 31
473 55 15
474 55 1
475 55 2
476 55 6
478 55 10
479 55 24
480 55 110
481 55 24
482 55 27
483 55 23
485 55 12
486 55 2
488 55 9
489 55 8
491 55 11
492 55 121
494 55 6
496 55 11
498 55 5
499 55 69
1 56 3
2 56 86
3 56 253
5 56 68
6 56 108
7 56 28
8 56 170
9 56 35
10 56 20
11 56 35
12 56 164
14 56 57
15 56 22
16 56 38
17 56 60
18 56 136
19 56 707
21 56 53
22 56 2
23 56 1444
24 56 86
26 56 29
27 56 35
29 56 279
30 56 52
31 56 15
33 56 4
34 56 5
36 56 7
37 56 27
38 56 37
39 56 482
40 56 99
41 56 13
42 56 478
43 56 341
44 56 70
45 56 89
46 56 576
47 56 50
48 56 79
51 56 190
53 56 104
54 56 31
55 56 108
56 56 109
57 56 31
58 56 23
59 56 39
60 56 2
61 56 8
63 56 47
65 56 105
66 56 73
67 56 23
68 56 86
69 56 199
70 56 30
72 56 10
73 56 325
74 56 21
75 56 39
76 56 3
77 56 53
78 56 92
79 56 71
81 56 34
83 56 100
84 56 82
85 56 119
86 56 145
87 56 134
88 56 113
89 56 55
90 56 10
93 56 24
94 56 114
95 56 60
96 56 183
97 56 37
98 56 98
99 56 78
100 56 13
101 56 75
102 56 65
104 56 70
105 56 115
106 56 48
108 56 153
110 56 90
111 56 26
114 56 17
115 56 117
116 56 53
117 56 74
118 56 91
121 56 154
122 56 3
124 56 47
125 56 91
126 56 121
127 56 403
128 56 11
129 56 74
130 56 48
131 56 187
132 56 120
133 56 25
134 56 44
136 56 158
137 56 9
138 56 36
139 56 33
140 56 25
141 56 16
142 56 92
143 56 30
144 56 61
145 56 10
146 56 739
147 56 192
148 56 25
149 56 132
150 56 123
151 56 71
152 56 75
153 56 57
154 56 119
155 56 227
156 56 225
158 56 26
159 56 18
160 56 154
161 56 142
162 56 225
163 56 83
164 56 98
165 56 17
166 56 447
168 56 230
169 56 31
170 56 60
171 56 30
173 56 61
174 56 56
175 56 17
176 56 8
177 56 106
178 56 9
179 56 173
181 56 52
182 56 27
185 56 53
186 56 15
187 56 36
188 56 253
189 56 44
190 56 91
191 56 35
193 56 9
194 56 78
195 56 203
196 56 6
197 56 293
199 56 122
200 56 390
202 56 76
203 56 93
204 56 915
205 56 293
206 56 43
207 56 32
208 56 6
209 56 45
210 56 17
212 56 30
213 56 53
214 56 173
215 56 94
216 56 304
217 56 12
218 56 29
220 56 81
222 56 9
224 56 21
225 56 125
226 56 42
227 56 20
229 56 73
231 56 187
232 56 97
233 56 35
234 56 24
235 56 30
237 56 6
238 56 658
239 56 31
240 56 74
242 56 47
243 56 115
245 56 61
246 56 114
247 56 12
248 56 3
251 56 94
252 56 219
253 56 57
255 56 110
256 56 27
257 56 76
258 56 119
259 56 48
260 56 91
261 56 82
263 56 6
264 56 54
265 56 41
267 56 371
268 56 219
269 56 20
270 56 50
271 56 80
272 56 118
273 56 174
274 56 176
275 56 24
276 56 26
278 56 21
279 56 40
280 56 161
281 56 65
284 56 29
285 56 49
288 56 284
289 56 20
290 56 157
291 56 462
292 56 279
293 56 43
294 56 56
295 56 2
296 56 19
297 56 35
298 56 36
299 56 101
300 56 8
301 56 33
302 56 17
303 56 36
304 56 75
305 56 244
307 56 51
308 56 60
309 56 4
310 56 106
311 56 69
312 56 42
313 56 84
314 56 67
317 56 63
318 56 110
319 56 262
320 56 96
321 56 37
322 56 5
323 56 21
324 56 79
325 56 149
326 56 119
327 56 253
328 56 171
330 56 36
331 56 97
332 56 19
334 56 95
336 56 18
337 56 97
338 56 125
339 56 8
340 56 95
342 56 159
343 56 563
344 56 31
345 56 148
346 56 99
347 56 7
348 56 86
349 56 20
350 56 143
351 56 27
352 56 84
354 56 50
355 56 79
356 56 95
357 56 97
358 56 782
359 56 4
360 56 42
361 56 44
362 56 98
364 56 37
365 56 40
366 56 127
367 56 20
368 56 57
369 56 84
370 56 38
371 56 13
372 56 29
374 56 34
375 56 177
377 56 206
378 56 50
379 56 56
380 56 109
381 56 51
382 56 84
383 56 21
385 56 97
386 56 114
388 56 26
389 56 6
390 56 37
391 56 315
392 56 53
393 56 34
394 56 24
395 56 240
396 56 5
397 56 60
398 56 2
399 56 98
400 56 95
401 56 125
402 56 5
403 56 42
404 56 21
405 56 66
411 56 166
412 56 96
413 56 240
414 56 125
415 56 24
416 56 12
417 56 632
418 56 31
419 56 233
420 56 58
423 56 35
425 56 55
426 56 202
427 56 13
428 56 78
429 56 72
430 56 24
431 56 46
432 56 9
433 56 11
434 56 8
435 56 109
436 56 4
437 56 228
439 56 20
440 56 3
441 56 98
442 56 752
443 56 271
444 56 185
446 56 27
449 56 118
450 56 89
451 56 9
452 56 333
453 56 22
454 56 30
455 56 44
456 56 149
457 56 46
459 56 30
460 56 36
462 56 44
463 56 170
464 56 99
465 56 282
466 56 259
467 56 212
469 56 4
472 56 173
473 56 9
474 56 124
475 56 88
476 56 385
477 56 146
478 56 85
479 56 122
480 56 781
481 56 47
482 56 13
483 56 22
485 56 69
486 56 101
487 56 26
488 56 7
489 56 33
490 56 3
491 56 23
492 56 225
494 56 59
496 56 7
498 56 169
499 56 376
500 56 38
1 57 363
2 57 240
3 57 43
4 57 834
5 57 162
6 57 100
7 57 178
8 57 108
9 57 175
10 57 257
11 57 112
12 57 359
13 57 230
14 57 76
15 57 574
16 57 348
17 57 125
18 57 45
19 57 98
20 57 587
21 57 89
22 57 397
24 57 125
25 57 465
26 57 157
27 57 161
28 57 889
29 57 22
30 57 271
31 57 650
32 57 401
33 57 554
34 57 774
35 57 384
36 57 344
37 57 1002
38 57 412
39 57 68
40 57 383
41 57 228
42 57 46
43 57 102
44 57 137
45 57 26
46 57 89
47 57 34
48 57 1010
49 57 730
50 57 489
51 57 163
52 57 202
53 57 116
54 57 104
55 57 101
56 57 200
57 57 752
58 57 170
59 57 239
60 57 132
61 57 768
62 57 693
63 57 906
64 57 234
65 57 81
66 57 132
67 57 193
68 57 82
69 57 118
70 57 338
71 57 488
72 57 595
73 57 63
74 57 451
75 57 258
76 57 772
77 57 977
78 57 175
79 57 179
80 57 294
81 57 287
82 57 656
83 57 350
84 57 194
85 57 75
86 57 371
87 57 156
88 57 33
89 57 332
90 57 581
91 57 695
92 57 315
93 57 298
94 57 78
95 57 108
96 57 177
97 57 933
98 57 83
99 57 105
100 57 635
101 57 429
102 57 91
103 57 392
104 57 181
105 57 82
106 57 270
107 57 551
108 57 73
109 57 866
110 57 300
111 57 221
112 57 313
113 57 537
114 57 833
115 57 9
116 57 91
117 57 64
118 57 822
119 57 720
120 57 682
121 57 156
122 57 260
123 57 780
124 57 556
125 57 224
126 57 154
127 57 21
128 57 338
129 57 21
130 57 193
131 57 557
132 57 515
133 57 141
134 57 160
135 57 478
136 57 58
137 57 255
138 57 292
139 57 181
140 57 73
141 57 579
142 57 111
143 57 1615
144 57 143
145 57 1264
146 57 139
147 57 185
148 57 498
149 57 167
150 57 281
151 57 173
152 57 152
153 57 40
154 57 85
155 57 139
156 57 43
157 57 854
158 57 308
159 57 628
160 57 61
161 57 395
162 57 12
163 57 60
164 57 65
165 57 796
166 57 48
167 57 413
168 57 88
169 57 336
170 57 135
171 57 88
172 57 537
173 57 94
174 57 383
175 57 620
176 57 184
177 57 337
178 57 564
179 57 527
180 57 1176
181 57 604
182 57 177
183 57 750
184 57 341
185 57 381
186 57 683
187 57 290
188 57 295
189 57 594
190 57 107
191 57 458
192 57 928
193 57 258
194 57 87
195 57 94
196 57 602
197 57 24
198 57 316
199 57 39
200 57 17
201 57 201
202 57 46
203 57 228
204 57 33
205 57 37
206 57 88
207 57 92
208 57 243
209 57 186
210 57 369
211 57 550
212 57 211
213 57 307
214 57 148
215 57 118
216 57 17
217 57 646
218 57 320
219 57 1019
220 57 331
221 57 705
222 57 641
223 57 400
224 57 729
225 57 51
226 57 103
227 57 178
228 57 481
229 57 187
230 57 681
231 57 359
232 57 201
233 57 883
234 57 615
235 57 450
236 57 1128
237 57 590
238 57 14
239 57 560
240 57 396
241 57 632
242 57 200
243 57 353
244 57 481
245 57 908
246 57 150
247 57 292
248 57 178
249 57 967
250 57 657
251 57 116
252 57 76
253 57 261
254 57 274
255 57 243
256 57 435
257 57 279
258 57 127
259 57 351
260 57 137
261 57 94
262 57 539
263 57 534
264 57 301
265 57 127
266 57 555
267 57 42
268 57 31
269 57 625
270 57 386
271 57 180
272 57 49
273 57 93
274 57 369
275 57 131
276 57 119
277 57 318
278 57 706
279 57 214
280 57 168
281 57 53
282 57 574
283 57 322
284 57 242
285 57 667
286 57 562
287 57 216
288 57 59
289 57 151
290 57 4
291 57 64
292 57 73
293 57 575
294 57 139
295 57 242
296 57 890
297 57 294
298 57 269
299 57 124
300 57 551
301 57 128
302 57 812
303 57 718
304 57 102
305 57 72
306 57 925
307 57 145
308 57 61
309 57 584
310 57 139
311 57 210
312 57 33
313 57 211
314 57 140
315 57 733
316 57 851
317 57 142
318 57 164
319 57 43
320 57 81
321 57 315
322 57 221
323 57 643
324 57 89
325 57 99
326 57 162
327 57 16
328 57 55
329 57 885
330 57 114
331 57 695
332 57 741
333 57 473
334 57 272
335 57 480
336 57 140
337 57 32
338 57 78
339 57 132
340 57 249
341 57 736
342 57 61
343 57 31
344 57 187
345 57 375
346 57 97
347 57 780
348 57 251
349 57 374
350 57 48
351 57 111
352 57 131
353 57 598
354 57 307
355 57 924
356 57 324
357 57 115
358 57 18
359 57 178
360 57 176
361 57 297
362 57 196
363 57 743
364 57 386
365 57 286
366 57 161
367 57 483
368 57 628
369 57 40
370 57 493
371 57 449
372 57 163
373 57 822
374 57 275
375 57 123
376 57 1064
377 57 92
378 57 449
379 57 273
380 57 78
381 57 342
382 57 393
383 57 536
384 57 469
385 57 19
386 57 131
387 57 505
388 57 538
389 57 241
390 57 563
391 57 48
392 57 42
393 57 91
394 57 665
395 57 64
396 57 672
397 57 143
398 57 470
399 57 111
400 57 117
401 57 122
402 57 166
403 57 158
404 57 457
405 57 100
406 57 921
407 57 313
408 57 375
409 57 394
410 57 860
411 57 48
412 57 333
413 57 8
414 57 224
415 57 591
416 57 423
417 57 216
418 57 735
419 57 58
420 57 136
421 57 378
422 57 711
423 57 616
424 57 159
425 57 51
426 57 179
427 57 655
428 57 59
429 57 124
430 57 292
431 57 320
432 57 757
433 57 701
434 57 854
435 57 106
436 57 809
437 57 25
438 57 560
439 57 773
440 57 600
441 57 85
442 57 1
443 57 13
444 57 183
445 57 1167
446 57 133
447 57 863
448 57 628
449 57 74
450 57 122
451 57 563
452 57 50
453 57 1132
454 57 338
455 57 227
456 57 68
457 57 356
458 57 529
459 57 138
460 57 205
461 57 1028
462 57 208
463 57 105
464 57 171
465 57 103
466 57 102
467 57 109
468 57 700
469 57 150
470 57 531
471 57 779
472 57 396
473 57 617
474 57 414
475 57 130
476 57 138
477 57 396
478 57 79
479 57 52
481 57 359
482 57 754
483 57 55
484 57 537
485 57 96
486 57 428
487 57 415
488 57 615
489 57 620
490 57 876
491 57 183
492 57 13
493 57 653
494 57 702
495 57 955
496 57 594
497 57 425
498 57 283
499 57 42
500 57 165
1 58 460
2 58 498
3 58 46
4 58 357
5 58 76
6 58 114
7 58 169
8 58 115
9 58 69
10 58 163
11 58 70
12 58 180
13 58 1022
14 58 45
15 58 343
16 58 345
17 58 203
18 58 60
19 58 99
20 58 177
21 58 672
22 58 467
23 58 38
24 58 172
25 58 126
26 58 184
27 58 133
28 58 297
29 58 56
30 58 147
31 58 115
32 58 796
33 58 138
34 58 231
35 58 499
36 58 135
37 58 322
38 58 47
39 58 98
40 58 714
41 58 215
42 58 89
43 58 209
44 58 131
45 58 225
46 58 277
47 58 288
48 58 1179
49 58 484
50 58 678
51 58 100
52 58 178
53 58 218
54 58 199
55 58 239
56 58 241
57 58 124
58 58 249
59 58 148
60 58 326
61 58 797
62 58 644
63 58 450
64 58 506
65 58 43
66 58 456
67 58 169
68 58 42
69 58 60
70 58 222
71 58 444
72 58 440
73 58 120
74 58 157
75 58 147
76 58 97
77 58 81
78 58 65
79 58 982
80 58 533
81 58 464
82 58 1511
83 58 164
84 58 162
85 58 231
86 58 70
87 58 173
88 58 80
89 58 989
90 58 313
91 58 359
92 58 294
93 58 176
94 58 167
95 58 162
96 58 191
97 58 241
98 58 64
99 58 59
100 58 95
101 58 115
102 58 228
103 58 537
104 58 98
105 58 51
106 58 165
107 58 285
108 58 127
109 58 663
110 58 254
111 58 525
112 58 103
113 58 845
114 58 149
115 58 46
116 58 78
117 58 116
118 58 258
119 58 124
120 58 482
121 58 175
122 58 107
123 58 364
124 58 281
125 58 179
126 58 74
127 58 178
128 58 58
129 58 153
130 58 529
131 58 113
132 58 268
133 58 135
134 58 672
135 58 286
136 58 134
137 58 268
138 58 228
139 58 198
140 58 363
141 58 183
142 58 51
143 58 155
144 58 281
145 58 700
146 58 102
147 58 127
148 58 160
149 58 584
150 58 58
151 58 178
152 58 352
153 58 81
154 58 79
155 58 305
156 58 77
157 58 395
158 58 224
159 58 501
160 58 111
161 58 63
162 58 189
163 58 135
164 58 112
165 58 877
166 58 99
167 58 409
168 58 38
169 58 358
170 58 700
171 58 196
172 58 648
173 58 183
174 58 270
175 58 471
176 58 124
177 58 458
178 58 284
179 58 115
180 58 697
181 58 177
182 58 66
183 58 365
184 58 412
185 58 127
186 58 386
187 58 432
188 58 209
189 58 682
190 58 84
191 58 64
192 58 432
193 58 308
194 58 415
195 58 97
196 58 159
197 58 76
198 58 537
199 58 280
200 58 77
201 58 429
202 58 121
203 58 288
204 58 89
205 58 19
206 58 321
207 58 555
208 58 291
209 58 536
210 58 294
211 58 176
212 58 214
213 58 248
214 58 110
215 58 51
216 58 104
217 58 477
218 58 121
219 58 552
220 58 174
221 58 376
222 58 422
223 58 769
224 58 604
225 58 61
226 58 462
227 58 44
228 58 253
229 58 699
230 58 444
231 58 160
232 58 245
233 58 108
234 58 171
235 58 56
236 58 373
237 58 584
238 58 102
239 58 275
240 58 341
241 58 288
242 58 313
243 58 50
244 58 195
245 58 68
246 58 302
247 58 140
248 58 179
249 58 566
250 58 595
251 58 327
252 58 62
253 58 152
254 58 127
255 58 153
256 58 223
257 58 164
258 58 128
259 58 146
260 58 79
261 58 598
262 58 701
263 58 345
264 58 197
265 58 489
266 58 643
267 58 103
268 58 118
269 58 149
270 58 81
271 58 112
272 58 143
273 58 130
274 58 78
275 58 185
276 58 177
277 58 579
278 58 144
279 58 550
280 58 392
281 58 196
282 58 728
283 58 822
284 58 194
285 58 345
286 58 675
287 58 179
288 58 95
289 58 187
290 58 36
291 58 149
292 58 139
293 58 296
294 58 297
295 58 537
296 58 261
297 58 102
298 58 248
299 58 58
300 58 88
301 58 129
302 58 155
303 58 178
304 58 121
305 58 329
306 58 614
307 58 252
308 58 70
309 58 1113
310 58 65
311 58 312
312 58 341
313 58 320
314 58 118
315 58 391
316 58 636
317 58 235
318 58 62
319 58 73
320 58 450
321 58 123
322 58 501
323 58 121
324 58 53
325 58 146
326 58 499
327 58 80
328 58 130
329 58 601
330 58 196
331 58 180
332 58 553
333 58 504
334 58 259
335 58 459
336 58 63
337 58 229
338 58 500
339 58 111
340 58 134
341 58 217
342 58 118
343 58 15
344 58 544
345 58 66
346 58 166
347 58 156
348 58 455
349 58 385
350 58 63
351 58 207
352 58 82
353 58 325
354 58 142
355 58 137
356 58 617
357 58 176
358 58 235
359 58 121
360 58 488
361 58 133
362 58 108
363 58 302
364 58 124
365 58 230
366 58 148
367 58 256
368 58 146
369 58 300
370 58 371
371 58 222
372 58 524
373 58 641
374 58 161
375 58 160
376 58 669
377 58 152
378 58 400
379 58 508
380 58 53
381 58 142
382 58 98
383 58 289
384 58 219
385 58 167
386 58 107
387 58 314
388 58 144
389 58 175
390 58 327
391 58 106
392 58 528
393 58 74
394 58 128
395 58 43
396 58 220
397 58 216
398 58 233
399 58 75
400 58 302
401 58 388
402 58 113
403 58 131
404 58 296
405 58 109
406 58 595
407 58 533
408 58 317
409 58 497
410 58 590
411 58 139
412 58 148
413 58 105
414 58 220
415 58 597
416 58 317
417 58 120
418 58 219
419 58 112
420 58 435
421 58 476
422 58 720
423 58 289
424 58 588
425 58 130
426 58 192
427 58 746
428 58 231
429 58 131
430 58 172
431 58 402
432 58 150
433 58 839
434 58 198
435 58 177
436 58 160
437 58 113
438 58 625
439 58 167
440 58 268
441 58 54
442 58 76
443 58 111
444 58 212
445 58 335
446 58 160
447 58 170
448 58 322
449 58 138
450 58 73
451 58 70
452 58 159
453 58 164
454 58 783
455 58 245
456 58 44
457 58 322
458 58 272
459 58 180
460 58 523
461 58 909
462 58 165
463 58 123
464 58 519
465 58 188
466 58 156
467 58 180
468 58 727
469 58 536
470 58 540
471 58 285
472 58 77
473 58 461
474 58 178
475 58 477
476 58 121
477 58 57
478 58 333
479 58 587
480 58 56
481 58 157
482 58 156
483 58 240
484 58 863
485 58 421
486 58 85
487 58 955
488 58 449
489 58 80
490 58 315
491 58 259
492 58 71
493 58 466
494 58 162
495 58 499
496 58 469
497 58 532
498 58 319
499 58 34
500 58 220
1 59 735
2 59 739
3 59 425
5 59 1083
6 59 1475
7 59 1461
8 59 1165
9 59 473
10 59 543
11 59 799
12 59 634
14 59 538
15 59 1215
16 59 898
17 59 476
18 59 567
19 59 301
21 59 1137
22 59 934
23 59 1090
24 59 1757
26 59 1451
27 59 1686
28 59 860
29 59 705
30 59 1352
31 59 1502
32 59 51
33 59 284
34 59 191
36 59 167
37 59 474
38 59 1554
39 59 971
40 59 361
41 59 228
42 59 703
43 59 854
44 59 1049
45 59 2959
46 59 974
47 59 338
48 59 783
49 59 335
51 59 310
52 59 1007
53 59 2635
54 59 646
55 59 897
56 59 467
57 59 497
58 59 1504
59 59 1331
60 59 1292
61 59 718
62 59 23
63 59 467
65 59 1007
66 59 1127
67 59 1066
68 59 862
69 59 1256
70 59 420
72 59 718
73 59 1234
74 59 1257
75 59 1374
76 59 1333
77 59 464
78 59 1364
79 59 981
81 59 947
82 59 54
83 59 1423
84 59 1147
85 59 876
86 59 702
87 59 1384
88 59 336
89 59 866
90 59 1375
93 59 760
94 59 940
95 59 1244
96 59 256
97 59 1559
98 59 958
99 59 552
100 59 1502
101 59 1040
102 59 770
104 59 621
105 59 1135
106 59 1305
108 59 1327
109 59 17
110 59 1118
111 59 902
113 59 4
114 59 557
115 59 806
116 59 168
117 59 899
118 59 484
121 59 237
122 59 588
124 59 1192
125 59 319
126 59 869
127 59 1875
128 59 761
129 59 1150
130 59 871
131 59 2318
132 59 1175
133 59 139
134 59 635
136 59 1348
137 59 744
138 59 613
139 59 1812
140 59 772
141 59 1111
142 59 1096
143 59 750
144 59 343
145 59 588
146 59 318
147 59 1475
148 59 1281
149 59 1215
150 59 448
151 59 280
152 59 1205
153 59 1245
154 59 913
155 59 535
156 59 1144
158 59 817
159 59 725
160 59 1651
161 59 760
162 59 1189
163 59 1278
164 59 741
165 59 492
166 59 686
168 59 535
169 59 885
170 59 591
171 59 612
173 59 146
174 59 802
175 59 713
176 59 1186
177 59 1125
178 59 233
179 59 2327
181 59 251
182 59 678
185 59 326
186 59 1213
187 59 936
188 59 334
189 59 202
190 59 2018
191 59 1262
193 59 798
194 59 1167
195 59 1580
196 59 338
197 59 1009
199 59 776
200 59 479
201 59 39
202 59 2352
203 59 1899
204 59 604
205 59 1332
206 59 878
207 59 329
208 59 842
209 59 900
210 59 386
211 59 684
212 59 705
213 59 589
214 59 990
215 59 1149
216 59 456
217 59 857
218 59 1225
219 59 152
220 59 1419
222 59 761
223 59 41
224 59 1078
225 59 604
226 59 312
227 59 531
229 59 655
231 59 694
232 59 490
233 59 504
234 59 913
235 59 1618
237 59 614
238 59 649
239 59 580
240 59 440
241 59 862
242 59 775
243 59 1261
245 59 503
246 59 1742
247 59 467
248 59 662
249 59 165
251 59 694
252 59 493
253 59 1286
254 59 525
255 59 1513
256 59 402
257 59 642
258 59 895
259 59 303
260 59 796
261 59 1415
263 59 1270
264 59 659
265 59 361
267 59 677
268 59 1136
269 59 1110
270 59 1407
271 59 925
272 59 776
273 59 993
274 59 712
275 59 1566
276 59 978
278 59 540
279 59 906
280 59 769
281 59 700
283 59 2
284 59 1167
285 59 263
286 59 426
287 59 1006
288 59 472
289 59 1511
290 59 499
291 59 1302
292 59 591
293 59 590
294 59 1482
295 59 759
296 59 937
297 59 865
298 59 1077
299 59 2137
300 59 1377
301 59 1664
302 59 659
303 59 705
304 59 404
305 59 678
307 59 358
308 59 640
309 59 183
310 59 1155
311 59 824
312 59 298
313 59 1414
314 59 1727
316 59 322
317 59 481
318 59 1359
319 59 1181
320 59 875
321 59 796
322 59 374
323 59 1407
324 59 876
325 59 1277
326 59 449
327 59 815
328 59 1360
330 59 725
331 59 1072
332 59 987
334 59 840
336 59 521
337 59 1294
338 59 1071
339 59 1183
340 59 751
342 59 1313
343 59 1425
344 59 865
345 59 748
346 59 1490
347 59 886
348 59 643
349 59 780
350 59 562
351 59 620
352 59 807
354 59 319
355 59 517
356 59 369
357 59 628
358 59 833
359 59 798
360 59 737
361 59 325
362 59 501
363 59 24
364 59 1269
365 59 686
366 59 1048
367 59 359
368 59 797
369 59 416
370 59 579
371 59 600
372 59 713
373 59 313
374 59 1280
375 59 446
377 59 994
378 59 1192
379 59 674
380 59 1219
381 59 316
382 59 1420
383 59 236
384 59 834
385 59 217
386 59 1629
388 59 499
389 59 500
390 59 591
391 59 1147
392 59 663
393 59 183
394 59 1520
395 59 438
396 59 724
397 59 838
398 59 477
399 59 509
400 59 1744
401 59 2203
402 59 799
403 59 1461
404 59 328
405 59 1582
411 59 1366
412 59 1443
413 59 1570
414 59 738
415 59 1195
416 59 391
417 59 1792
418 59 778
419 59 1066
420 59 169
422 59 4
423 59 596
424 59 3
425 59 636
426 59 275
427 59 711
428 59 466
429 59 1613
430 59 674
431 59 1583
432 59 923
433 59 731
434 59 176
435 59 1574
436 59 185
437 59 1178
439 59 475
440 59 858
441 59 1122
442 59 1396
443 59 774
444 59 245
446 59 1468
447 59 15
448 59 903
449 59 954
450 59 842
451 59 1394
452 59 916
453 59 617
454 59 1354
455 59 792
456 59 763
457 59 1315
459 59 1474
460 59 934
462 59 1144
463 59 1146
464 59 670
465 59 962
466 59 979
467 59 296
469 59 728
470 59 7
471 59 548
472 59 729
473 59 714
474 59 1044
475 59 1182
476 59 517
477 59 724
478 59 1057
479 59 896
480 59 904
481 59 421
482 59 730
483 59 554
485 59 1073
486 59 1151
487 59 883
488 59 735
489 59 423
490 59 371
491 59 1515
492 59 942
494 59 1134
496 59 720
498 59 606
499 59 878
500 59 769
1 60 6
2 60 89
3 60 84
5 60 67
6 60 162
7 60 109
8 60 323
9 60 188
10 60 19
11 60 82
12 60 21
14 60 51
15 60 50
16 60 59
17 60 52
18 60 69
19 60 233
21 60 83
22 60 10
23 60 589
24 60 160
26 60 124
27 60 109
29 60 141
30 60 20
31 60 6
34 60 33
36 60 8
37 60 12
38 60 35
39 60 74
40 60 60
41 60 86
42 60 664
43 60 112
44 60 43
45 60 233
46 60 441
47 60 69
48 60 25
49 60 2
51 60 79
52 60 2
53 60 94
54 60 60
55 60 54
56 60 37
57 60 21
58 60 24
59 60 19
60 60 43
61 60 48
63 60 53
65 60 122
66 60 75
67 60 101
68 60 134
69 60 100
72 60 31
73 60 86
74 60 5
75 60 21
77 60 79
78 60 102
79 60 193
81 60 27
83 60 92
84 60 66
85 60 110
86 60 37
87 60 203
88 60 109
89 60 62
90 60 9
93 60 3
94 60 124
95 60 31
96 60 185
97 60 56
98 60 123
99 60 81
100 60 6
101 60 58
102 60 12
104 60 51
105 60 55
106 60 16
108 60 107
110 60 86
111 60 77
114 60 25
115 60 183
116 60 40
117 60 84
118 60 56
121 60 141
122 60 41
124 60 44
125 60 233
126 60 70
127 60 418
128 60 61
129 60 709
130 60 84
131 60 66
132 60 56
133 60 114
134 60 58
136 60 248
137 60 59
138 60 34
139 60 36
140 60 61
141 60 70
142 60 14
143 60 24
144 60 90
145 60 7
146 60 250
147 60 87
148 60 13
149 60 95
150 60 101
151 60 28
152 60 68
153 60 108
154 60 111
155 60 135
156 60 204
158 60 23
159 60 33
160 60 447
161 60 34
162 60 122
163 60 393
164 60 76
165 60 3
166 60 108
168 60 112
169 60 69
170 60 46
171 60 49
173 60 101
174 60 124
175 60 35
176 60 46
177 60 68
179 60 63
181 60 16
182 60 7
185 60 6
186 60 21
187 60 27
188 60 85
189 60 31
190 60 75
193 60 58
194 60 70
195 60 141
196 60 6
197 60 306
199 60 106
200 60 98
202 60 80
203 60 12
204 60 106
205 60 161
206 60 80
207 60 33
208 60 59
209 60 71
210 60 5
211 60 3
212 60 34
213 60 5
214 60 135
215 60 13
216 60 73
217 60 10
218 60 51
220 60 92
222 60 31
224 60 39
225 60 60
226 60 28
227 60 82
229 60 32
231 60 22
232 60 44
233 60 56
234 60 56
235 60 33
238 60 245
239 60 7
240 60 160
241 60 4
242 60 81
243 60 111
245 60 73
246 60 126
247 60 29
248 60 8
251 60 115
252 60 14
253 60 22
254 60 70
255 60 19
256 60 77
257 60 44
258 60 141
259 60 7
260 60 94
261 60 153
263 60 64
264 60 65
265 60 38
267 60 111
268 60 52
269 60 78
270 60 114
271 60 120
272 60 27
273 60 160
274 60 40
275 60 123
276 60 159
278 60 30
279 60 85
280 60 95
281 60 105
284 60 333
285 60 14
287 60 3
288 60 137
289 60 114
290 60 220
291 60 181
292 60 83
293 60 4
294 60 51
295 60 8
296 60 48
297 60 6
298 60 163
299 60 131
300 60 42
301 60 45
302 60 10
303 60 26
304 60 23
305 60 124
307 60 90
308 60 107
309 60 2
310 60 85
311 60 91
312 60 72
313 60 50
314 60 171
316 60 4
317 60 25
318 60 73
319 60 197
320 60 120
321 60 8
322 60 3
323 60 10
324 60 133
325 60 100
326 60 55
327 60 430
328 60 272
330 60 54
331 60 101
332 60 31
334 60 77
336 60 74
337 60 96
338 60 137
339 60 69
340 60 25
342 60 243
343 60 173
344 60 83
345 60 27
346 60 63
347 60 24
348 60 99
349 60 12
350 60 70
351 60 44
352 60 103
354 60 3
355 60 29
356 60 59
357 60 138
358 60 77
359 60 19
360 60 23
361 60 4
362 60 118
364 60 51
365 60 46
366 60 46
367 60 11
368 60 16
369 60 57
370 60 43
371 60 5
372 60 30
373 60 6
374 60 20
375 60 82
377 60 303
378 60 20
379 60 47
380 60 163
381 60 5
382 60 31
383 60 5
385 60 209
386 60 122
388 60 25
389 60 25
390 60 4
391 60 118
392 60 33
393 60 43
394 60 5
395 60 63
397 60 24
399 60 113
400 60 113
401 60 77
402 60 21
403 60 6
404 60 9
405 60 237
411 60 245
412 60 87
413 60 425
414 60 144
415 60 2
416 60 3
417 60 93
418 60 21
419 60 210
420 60 127
423 60 5
425 60 358
426 60 162
427 60 14
428 60 70
429 60 167
430 60 12
431 60 84
432 60 37
433 60 54
434 60 44
435 60 57
436 60 35
437 60 45
439 60 29
440 60 22
441 60 15
442 60 240
443 60 168
444 60 170
446 60 121
448 60 6
449 60 125
450 60 108
451 60 51
452 60 269
453 60 23
454 60 25
455 60 45
456 60 47
457 60 55
459 60 110
460 60 80
462 60 319
463 60 359
464 60 2
465 60 284
466 60 277
467 60 260
469 60 36
471 60 19
472 60 40
473 60 34
474 60 65
475 60 77
476 60 56
477 60 38
478 60 59
479 60 82
480 60 86
481 60 22
482 60 12
483 60 24
485 60 67
486 60 13
487 60 28
488 60 27
489 60 40
491 60 20
492 60 324
494 60 43
496 60 24
498 60 425
499 60 262
500 60 23
1 61 1146
2 61 2246
3 61 1823
4 61 417
5 61 1014
6 61 1802
7 61 1893
8 61 2411
9 61 989
10 61 1681
11 61 1846
12 61 1463
13 61 582
14 61 747
15 61 1250
16 61 913
17 61 1675
18 61 1549
19 61 2652
20 61 1026
21 61 2450
22 61 1808
23 61 1956
24 61 1033
25 61 638
26 61 1872
27 61 1487
28 61 3078
29 61 1312
30 61 2526
31 61 2139
32 61 1030
33 61 2062
34 61 3373
35 61 507
36 61 1295
37 61 1358
38 61 2960
39 61 832
40 61 1806
41 61 2613
42 61 839
43 61 1116
44 61 1667
45 61 2612
46 61 1220
47 61 1942
48 61 1688
49 61 683
50 61 1355
51 61 1773
52 61 1790
53 61 1289
54 61 885
55 61 1753
56 61 1236
57 61 1138
58 61 1984
59 61 2591
60 61 783
61 61 2198
62 61 1621
63 61 1981
64 61 923
65 61 1174
66 61 1592
67 61 3154
68 61 2236
69 61 1061
70 61 1532
71 61 725
72 61 1333
73 61 2203
74 61 1334
75 61 2588
76 61 1631
77 61 1421
78 61 737
79 61 2052
80 61 566
81 61 1839
82 61 788
83 61 1465
84 61 1983
85 61 1764
86 61 905
87 61 2403
88 61 1537
89 61 1623
90 61 1570
91 61 1150
92 61 981
93 61 766
94 61 1561
95 61 1163
96 61 4401
97 61 2064
98 61 1112
99 61 1049
100 61 2217
101 61 1968
102 61 1560
103 61 850
104 61 1013
105 61 1265
106 61 2620
107 61 807
108 61 567
109 61 1716
110 61 1010
111 61 2179
112 61 625
113 61 845
114 61 1012
115 61 1410
116 61 1100
117 61 560
118 61 2107
119 61 776
120 61 648
121 61 890
122 61 1451
123 61 832
124 61 994
125 61 1945
126 61 1939
127 61 1596
128 61 1841
129 61 1126
130 61 2190
131 61 2911
132 61 577
133 61 1410
134 61 940
135 61 993
136 61 1163
137 61 2084
138 61 1428
139 61 2672
140 61 1523
141 61 1127
142 61 1687
143 61 1259
144 61 2156
145 61 714
146 61 2717
147 61 2280
148 61 1358
149 61 1380
150 61 2192
151 61 1758
152 61 740
153 61 853
154 61 1485
155 61 1334
156 61 1945
157 61 1079
158 61 1032
159 61 1270
160 61 533
161 61 950
162 61 1192
163 61 690
164 61 555
165 61 2339
166 61 1577
167 61 889
168 61 907
169 61 951
170 61 904
171 61 879
172 61 882
173 61 893
174 61 2970
175 61 1285
176 61 937
177 61 683
178 61 685
179 61 2913
180 61 669
181 61 1444
182 61 820
183 61 1273
184 61 915
185 61 1856
186 61 1480
187 61 1881
188 61 1170
189 61 3156
190 61 2057
191 61 1619
192 61 868
193 61 2124
194 61 1398
195 61 1998
196 61 1417
197 61 1152
198 61 928
199 61 2473
200 61 1212
201 61 800
202 61 909
203 61 777
204 61 1258
205 61 1706
206 61 1030
207 61 1204
208 61 2067
209 61 2182
210 61 2229
211 61 1343
212 61 1329
213 61 1568
214 61 1846
215 61 1635
216 61 2998
217 61 1582
218 61 1798
219 61 1239
220 61 1566
221 61 325
222 61 1389
223 61 1012
224 61 2605
225 61 1477
226 61 1840
227 61 1865
228 61 1062
229 61 1939
230 61 749
231 61 1473
232 61 1901
233 61 1616
234 61 1412
235 61 2913
236 61 821
237 61 1179
238 61 613
239 61 2851
240 61 1298
241 61 2847
242 61 2252
243 61 1299
244 61 475
245 61 1429
246 61 3029
247 61 1985
248 61 1422
249 61 1289
250 61 1229
251 61 2196
252 61 1114
253 61 2606
254 61 1567
255 61 1564
256 61 1898
257 61 3101
258 61 2086
259 61 1815
260 61 2952
261 61 2698
262 61 1274
263 61 2487
264 61 3008
265 61 1869
266 61 895
267 61 1568
268 61 2393
269 61 1209
270 61 1869
271 61 1662
272 61 740
273 61 1401
274 61 963
275 61 1912
276 61 1816
277 61 2017
278 61 1293
279 61 2263
280 61 2276
281 61 2344
282 61 823
283 61 1027
284 61 2522
285 61 1329
286 61 1087
287 61 1803
288 61 685
289 61 1928
290 61 1026
291 61 1702
292 61 2714
293 61 2983
294 61 2192
295 61 1307
296 61 2191
297 61 1165
298 61 2348
299 61 990
300 61 3130
301 61 470
302 61 702
303 61 1028
304 61 2591
305 61 1943
306 61 905
307 61 2142
308 61 1431
309 61 2544
310 61 853
311 61 2328
312 61 1971
313 61 1499
314 61 999
315 61 356
316 61 1992
317 61 1621
318 61 813
319 61 1969
320 61 1819
321 61 1192
322 61 940
323 61 2270
324 61 2121
325 61 963
326 61 2060
327 61 1179
328 61 1110
329 61 821
330 61 1346
331 61 1856
332 61 2766
333 61 950
334 61 1626
335 61 611
336 61 1897
337 61 2379
338 61 1863
339 61 2080
340 61 491
341 61 682
342 61 1136
343 61 2062
344 61 2239
345 61 870
346 61 1204
347 61 1112
348 61 2295
349 61 1041
350 61 1590
351 61 883
352 61 2943
353 61 1221
354 61 1864
355 61 1392
356 61 1902
357 61 2188
358 61 1293
359 61 1352
360 61 1998
361 61 1867
362 61 1268
363 61 1050
364 61 2275
365 61 1352
366 61 1905
367 61 2860
368 61 585
369 61 1706
370 61 1814
371 61 1838
372 61 2049
373 61 1978
374 61 2597
375 61 1098
376 61 756
377 61 1788
378 61 790
379 61 978
380 61 1651
381 61 1912
382 61 1141
383 61 821
384 61 2865
385 61 1065
386 61 2262
387 61 524
388 61 2837
389 61 1343
390 61 2895
391 61 1288
392 61 1251
393 61 1217
394 61 2271
395 61 1905
396 61 1124
397 61 1801
398 61 2604
399 61 1393
400 61 2114
401 61 1716
402 61 1385
403 61 977
404 61 1796
405 61 1091
406 61 724
407 61 897
408 61 526
409 61 860
410 61 413
411 61 1152
412 61 1490
413 61 730
414 61 2637
415 61 1692
416 61 2207
417 61 1408
418 61 1969
419 61 1849
420 61 1347
421 61 691
422 61 1466
423 61 2970
424 61 1500
425 61 1395
426 61 4400
427 61 1892
428 61 1716
429 61 1040
430 61 771
431 61 1057
432 61 1101
433 61 2162
434 61 1671
435 61 2059
436 61 1654
437 61 2329
438 61 690
439 61 971
440 61 1239
441 61 1558
442 61 1268
443 61 1449
444 61 4590
445 61 964
446 61 1958
447 61 958
448 61 2780
449 61 2522
450 61 3046
451 61 3171
452 61 2194
453 61 1279
454 61 3195
455 61 1430
456 61 1123
457 61 3008
458 61 1082
459 61 1907
460 61 2185
461 61 1112
462 61 2538
463 61 2567
464 61 2455
465 61 1795
466 61 1824
467 61 2014
468 61 1572
469 61 1528
470 61 1057
471 61 1213
472 61 888
473 61 1339
474 61 2683
475 61 1558
476 61 1849
477 61 945
478 61 1433
479 61 1236
480 61 1021
481 61 2676
482 61 688
483 61 2682
484 61 1128
485 61 1349
486 61 1852
487 61 452
488 61 1389
489 61 1803
490 61 1034
491 61 2017
492 61 1534
493 61 625
494 61 1995
495 61 1297
496 61 1363
497 61 969
498 61 1684
499 61 1801
500 61 2548
1 62 40
2 62 116
4 62 35
5 62 87
6 62 117
7 62 10
8 62 51
9 62 57
10 62 119
11 62 31
12 62 64
13 62 175
14 62 67
15 62 851
16 62 63
17 62 97
18 62 7
19 62 35
20 62 30
21 62 60
22 62 65
23 62 115
24 62 242
25 62 17
26 62 9
27 62 104
28 62 54
29 62 198
30 62 32
31 62 40
32 62 96
33 62 20
34 62 50
35 62 113
36 62 7
37 62 4
38 62 26
39 62 77
40 62 68
41 62 167
42 62 34
43 62 55
44 62 5
45 62 290
46 62 7
48 62 62
49 62 47
50 62 10
51 62 11
52 62 30
53 62 31
54 62 15
55 62 57
56 62 45
57 62 27
58 62 19
59 62 37
60 62 107
61 62 6
62 62 15
63 62 7
64 62 337
65 62 22
66 62 218
67 62 8
68 62 66
69 62 19
70 62 117
71 62 36
72 62 61
73 62 62
74 62 97
75 62 54
76 62 66
77 62 43
78 62 126
79 62 138
80 62 71
81 62 3
82 62 24
83 62 58
85 62 41
86 62 54
87 62 58
88 62 258
89 62 140
90 62 303
91 62 246
92 62 37
93 62 26
94 62 166
95 62 2
96 62 38
97 62 7
98 62 15
99 62 99
100 62 42
101 62 53
102 62 3
103 62 82
104 62 93
105 62 56
106 62 44
107 62 17
108 62 73
109 62 17
110 62 29
111 62 32
112 62 27
113 62 29
114 62 34
115 62 22
116 62 454
117 62 32
118 62 221
119 62 29
120 62 19
121 62 95
122 62 1
123 62 40
124 62 788
125 62 100
126 62 57
127 62 490
128 62 20
129 62 519
130 62 44
131 62 87
132 62 373
133 62 50
134 62 81
135 62 54
136 62 28
137 62 140
138 62 25
140 62 52
141 62 33
142 62 112
143 62 82
144 62 52
145 62 75
146 62 26
147 62 159
148 62 123
149 62 82
150 62 58
151 62 106
152 62 20
153 62 94
154 62 4
155 62 386
156 62 27
157 62 10
158 62 266
159 62 42
160 62 651
161 62 35
162 62 110
163 62 154
164 62 5
165 62 130
166 62 17
167 62 30
168 62 14
169 62 65
170 62 100
171 62 16
172 62 59
173 62 12
174 62 21
175 62 58
176 62 66
177 62 5
178 62 301
179 62 104
180 62 77
181 62 43
182 62 7
183 62 1
184 62 43
186 62 68
187 62 6
188 62 89
189 62 8
190 62 54
191 62 21
192 62 23
193 62 150
194 62 25
195 62 9
196 62 31
197 62 155
198 62 31
199 62 30
200 62 8
201 62 28
202 62 17
203 62 162
204 62 37
205 62 222
206 62 19
207 62 222
208 62 146
209 62 37
210 62 105
211 62 70
212 62 63
213 62 1
214 62 31
215 62 146
216 62 43
217 62 42
218 62 8
219 62 47
220 62 64
221 62 23
222 62 75
223 62 113
224 62 141
225 62 4
226 62 106
228 62 42
229 62 110
230 62 34
231 62 82
232 62 122
233 62 31
234 62 70
235 62 17
236 62 34
237 62 30
238 62 255
239 62 99
240 62 85
241 62 46
242 62 6
243 62 31
245 62 37
246 62 72
247 62 11
248 62 21
249 62 63
250 62 15
251 62 85
252 62 21
253 62 48
254 62 337
255 62 165
256 62 236
257 62 34
260 62 73
261 62 22
262 62 13
263 62 196
264 62 48
265 62 133
266 62 54
267 62 12
268 62 27
269 62 41
270 62 295
271 62 32
272 62 22
273 62 8
274 62 52
275 62 13
276 62 80
277 62 7
278 62 89
279 62 48
280 62 3
281 62 22
282 62 46
283 62 68
284 62 34
285 62 163
286 62 256
287 62 17
288 62 115
289 62 17
290 62 36
291 62 73
293 62 93
294 62 595
295 62 83
296 62 22
297 62 25
298 62 23
299 62 15
300 62 5
301 62 103
302 62 978
303 62 12
304 62 48
305 62 58
306 62 30
307 62 60
308 62 72
309 62 2
310 62 57
311 62 5
313 62 53
314 62 28
315 62 43
316 62 137
317 62 18
318 62 139
319 62 21
320 62 16
321 62 27
322 62 22
323 62 39
324 62 61
325 62 18
326 62 138
327 62 119
328 62 15
329 62 13
330 62 40
331 62 141
332 62 150
333 62 28
334 62 154
335 62 8
337 62 4
338 62 215
339 62 10
341 62 45
342 62 32
343 62 7
344 62 42
345 62 37
346 62 99
347 62 74
348 62 113
349 62 2
350 62 5
351 62 10
352 62 76
353 62 26
355 62 184
356 62 90
357 62 181
358 62 112
359 62 79
360 62 41
362 62 3
363 62 12
364 62 22
365 62 25
366 62 49
367 62 67
368 62 49
370 62 7
371 62 94
372 62 41
373 62 158
374 62 44
375 62 44
377 62 118
378 62 56
379 62 444
380 62 42
382 62 75
383 62 574
384 62 114
385 62 18
386 62 138
387 62 70
388 62 151
389 62 20
390 62 117
391 62 49
392 62 51
393 62 455
394 62 47
396 62 4
397 62 47
398 62 92
399 62 12
400 62 83
401 62 52
402 62 82
403 62 35
404 62 21
405 62 36
406 62 11
407 62 37
408 62 36
409 62 82
410 62 21
411 62 30
412 62 68
413 62 17
414 62 52
415 62 40
416 62 103
417 62 81
418 62 54
419 62 59
420 62 199
421 62 28
422 62 108
423 62 96
424 62 3
426 62 49
427 62 65
429 62 23
430 62 27
431 62 185
432 62 84
433 62 5
434 62 19
435 62 34
436 62 23
437 62 19
438 62 1
439 62 35
440 62 62
441 62 154
442 62 44
443 62 11
444 62 38
445 62 11
446 62 14
447 62 10
448 62 53
449 62 25
450 62 70
451 62 4
452 62 14
453 62 13
454 62 57
455 62 42
456 62 29
457 62 8
458 62 21
459 62 8
460 62 51
461 62 17
462 62 40
463 62 63
464 62 152
465 62 87
466 62 103
467 62 24
468 62 3
469 62 100
470 62 48
472 62 43
473 62 62
474 62 38
475 62 180
476 62 22
477 62 45
478 62 26
479 62 24
480 62 86
481 62 109
482 62 1064
483 62 8
484 62 4
485 62 34
486 62 19
487 62 24
488 62 58
489 62 160
490 62 5
491 62 16
492 62 58
493 62 356
494 62 46
495 62 82
496 62 69
497 62 26
498 62 125
499 62 173
500 62 60
1 63 710
2 63 2007
3 63 1666
4 63 599
5 63 1699
6 63 1600
7 63 2046
8 63 316
9 63 1035
10 63 1213
11 63 1823
12 63 1160
13 63 736
14 63 1447
15 63 746
16 63 2138
17 63 1139
18 63 2186
19 63 3963
20 63 207
21 63 1574
22 63 1607
23 63 747
24 63 2262
25 63 672
26 63 1990
27 63 1499
28 63 1451
29 63 1483
30 63 1433
31 63 904
32 63 1371
33 63 1948
34 63 952
35 63 653
36 63 913
37 63 892
38 63 1584
39 63 1901
40 63 1662
41 63 2223
42 63 1083
43 63 537
44 63 1900
45 63 2333
46 63 2808
47 63 1916
48 63 1655
49 63 1248
50 63 845
51 63 1494
52 63 2029
53 63 399
54 63 1665
55 63 869
56 63 494
57 63 560
58 63 1296
59 63 1444
60 63 1653
61 63 1253
62 63 1622
63 63 2864
64 63 1117
65 63 948
66 63 901
67 63 1812
68 63 1752
69 63 1166
70 63 858
71 63 1079
72 63 1834
73 63 395
74 63 1190
75 63 1385
76 63 624
77 63 1442
78 63 845
79 63 2385
80 63 589
81 63 1816
82 63 1755
83 63 1597
84 63 1070
85 63 1724
86 63 2249
87 63 1206
88 63 3304
89 63 1474
90 63 1083
91 63 1036
92 63 1506
93 63 1358
94 63 1909
95 63 1980
96 63 2771
97 63 777
98 63 947
99 63 1829
100 63 978
101 63 2471
102 63 1692
103 63 1191
104 63 704
105 63 494
106 63 1427
107 63 711
108 63 2020
109 63 886
110 63 1091
111 63 1799
112 63 901
113 63 1335
114 63 1493
115 63 1020
116 63 1640
117 63 1380
118 63 2206
119 63 476
120 63 934
121 63 688
122 63 1814
123 63 1208
124 63 3143
125 63 2396
126 63 1485
127 63 1445
128 63 1960
129 63 1323
130 63 1881
131 63 2879
132 63 2168
133 63 2309
134 63 1160
135 63 608
136 63 1477
137 63 1583
138 63 1580
139 63 1157
140 63 1297
141 63 1277
142 63 1455
143 63 937
144 63 1426
145 63 1380
146 63 3969
147 63 3281
148 63 1201
149 63 1118
150 63 1725
151 63 1362
152 63 1496
153 63 909
154 63 1019
155 63 2875
156 63 2266
157 63 1754
158 63 3121
159 63 1840
160 63 1814
161 63 2279
162 63 1967
163 63 881
164 63 1109
165 63 1728
166 63 1728
167 63 724
168 63 1008
169 63 2105
170 63 1113
171 63 1677
172 63 779
173 63 1733
174 63 3343
175 63 1764
176 63 1465
177 63 1853
178 63 1009
179 63 3020
180 63 1193
181 63 1570
182 63 1146
183 63 791
184 63 1107
185 63 3565
186 63 1232
187 63 1797
188 63 1941
189 63 2064
190 63 2328
191 63 1893
192 63 1038
193 63 1572
194 63 1417
195 63 2191
196 63 1682
197 63 1326
198 63 812
199 63 1563
200 63 909
201 63 899
202 63 2551
203 63 2853
204 63 1897
205 63 2498
206 63 728
207 63 734
208 63 1588
209 63 1860
210 63 1269
211 63 2117
212 63 1087
213 63 491
214 63 1639
215 63 1437
216 63 1008
217 63 469
218 63 1393
219 63 612
220 63 1616
221 63 709
222 63 1854
223 63 1351
224 63 1030
225 63 2292
226 63 581
227 63 2099
228 63 739
229 63 1239
230 63 791
231 63 1157
232 63 1558
233 63 1580
234 63 1550
235 63 1622
236 63 900
237 63 919
238 63 1249
239 63 1039
240 63 1897
241 63 1990
242 63 1464
243 63 2777
244 63 514
245 63 1381
246 63 1774
247 63 1628
248 63 1243
249 63 650
250 63 1953
251 63 977
252 63 926
253 63 1419
254 63 1481
255 63 1901
256 63 1620
257 63 1939
258 63 2366
259 63 3628
260 63 1974
261 63 765
262 63 906
263 63 1559
264 63 1975
265 63 591
266 63 765
267 63 1727
268 63 1234
269 63 1323
270 63 1343
271 63 1437
272 63 1837
273 63 1383
274 63 2201
275 63 1967
276 63 721
277 63 698
278 63 1376
279 63 1827
280 63 2123
281 63 581
282 63 700
283 63 699
284 63 1653
285 63 2133
286 63 1424
287 63 1870
288 63 911
289 63 1947
290 63 1083
291 63 1451
292 63 1505
293 63 1133
294 63 688
295 63 1898
296 63 1562
297 63 1769
298 63 2198
299 63 2037
300 63 1793
301 63 903
302 63 893
303 63 1428
304 63 1050
305 63 1955
306 63 1381
307 63 1474
308 63 1302
309 63 1879
310 63 1075
311 63 1405
312 63 1960
313 63 633
314 63 1294
315 63 770
316 63 2211
317 63 2667
318 63 800
319 63 2283
320 63 1293
321 63 1722
322 63 1213
323 63 936
324 63 1749
325 63 1950
326 63 1601
327 63 1292
328 63 1442
329 63 808
330 63 720
331 63 2332
332 63 1074
333 63 946
334 63 750
335 63 543
336 63 2180
337 63 1601
338 63 2706
339 63 1174
340 63 1311
341 63 595
342 63 1439
343 63 1459
344 63 1970
345 63 2263
346 63 1602
347 63 831
348 63 2100
349 63 2551
350 63 2270
351 63 1786
352 63 1923
353 63 1680
354 63 3609
355 63 1710
356 63 1782
357 63 2137
358 63 1776
359 63 1458
360 63 2242
361 63 3760
362 63 665
363 63 1450
364 63 2710
365 63 1671
366 63 1934
367 63 2480
368 63 1424
369 63 1787
370 63 1043
371 63 2056
372 63 2209
373 63 2213
374 63 1452
375 63 1607
376 63 902
377 63 3113
378 63 1631
379 63 1296
380 63 1405
381 63 3464
382 63 1704
383 63 621
384 63 1575
385 63 1352
386 63 1445
387 63 1225
388 63 2241
389 63 1719
390 63 1068
391 63 1602
392 63 1185
393 63 1663
394 63 966
395 63 1711
396 63 1157
397 63 1727
398 63 2235
399 63 1400
400 63 2198
401 63 2294
402 63 1442
403 63 733
404 63 1074
405 63 1409
406 63 641
407 63 773
408 63 861
409 63 1244
410 63 1359
411 63 1481
412 63 1638
413 63 1164
414 63 1571
415 63 1166
416 63 1225
417 63 1927
418 63 2149
419 63 1025
420 63 2078
421 63 542
422 63 1371
423 63 1139
424 63 878
425 63 1336
426 63 2726
427 63 1100
428 63 1878
429 63 1267
430 63 1331
431 63 1254
432 63 882
433 63 1320
434 63 1244
435 63 1359
436 63 1191
437 63 1224
438 63 605
439 63 1386
440 63 2139
441 63 1446
442 63 1470
443 63 1802
444 63 2846
445 63 1027
446 63 2055
447 63 1253
448 63 1959
449 63 799
450 63 1902
451 63 1929
452 63 2267
453 63 2002
454 63 1666
455 63 2032
456 63 1052
457 63 1267
458 63 959
459 63 2093
460 63 1912
461 63 1194
462 63 1608
463 63 328
464 63 1634
465 63 3234
466 63 3221
467 63 2810
468 63 839
469 63 2368
470 63 1437
471 63 897
472 63 2190
473 63 1787
474 63 1817
475 63 840
476 63 937
477 63 2307
478 63 1454
479 63 2537
480 63 1401
481 63 2083
482 63 884
483 63 1284
484 63 776
485 63 1469
486 63 1524
487 63 1997
488 63 1908
489 63 1667
490 63 1348
491 63 1263
492 63 1285
493 63 795
494 63 1345
495 63 726
496 63 1859
497 63 942
498 63 1577
499 63 1947
500 63 2675
1 64 1186
2 64 1212
3 64 413
5 64 475
6 64 369
7 64 708
8 64 640
9 64 749
10 64 707
11 64 1386
12 64 1694
14 64 681
15 64 185
16 64 754
17 64 133
18 64 1333
19 64 544
21 64 760
22 64 1012
23 64 15
24 64 511
26 64 677
27 64 1050
28 64 930
30 64 1055
31 64 281
33 64 666
34 64 1649
36 64 1122
37 64 437
38 64 385
39 64 379
40 64 593
41 64 520
42 64 260
43 64 288
44 64 388
45 64 775
46 64 1785
47 64 317
48 64 918
49 64 847
51 64 790
52 64 237
53 64 1104
55 64 188
56 64 403
57 64 477
58 64 623
59 64 1001
60 64 773
61 64 577
63 64 1231
65 64 285
66 64 747
67 64 1631
68 64 539
69 64 270
70 64 473
72 64 555
73 64 678
74 64 606
75 64 1028
76 64 437
77 64 1216
78 64 1167
79 64 311
81 64 253
83 64 232
84 64 370
85 64 569
86 64 657
87 64 1449
88 64 564
89 64 702
90 64 190
93 64 674
94 64 984
95 64 1573
96 64 1045
97 64 520
98 64 281
100 64 254
101 64 631
102 64 754
104 64 1038
105 64 886
106 64 1045
108 64 1587
110 64 1056
111 64 1292
114 64 716
115 64 108
116 64 825
117 64 805
118 64 861
121 64 774
122 64 951
124 64 810
125 64 150
126 64 1783
127 64 1066
128 64 1781
129 64 1049
130 64 1301
131 64 258
132 64 720
133 64 1299
134 64 766
136 64 739
137 64 497
138 64 331
139 64 628
141 64 617
142 64 137
143 64 555
144 64 338
145 64 1173
146 64 513
147 64 1079
148 64 646
149 64 1006
150 64 359
151 64 312
152 64 457
153 64 140
154 64 615
155 64 354
156 64 196
158 64 1131
159 64 553
160 64 918
161 64 729
162 64 429
163 64 107
164 64 834
165 64 1149
166 64 224
169 64 684
170 64 763
173 64 441
174 64 594
175 64 535
176 64 364
177 64 269
179 64 293
181 64 823
182 64 205
185 64 1494
186 64 1110
187 64 264
188 64 782
189 64 1372
190 64 606
191 64 796
193 64 480
194 64 90
195 64 870
196 64 475
197 64 50
199 64 927
200 64 146
202 64 365
203 64 309
204 64 400
205 64 593
206 64 561
207 64 651
208 64 517
209 64 1295
210 64 1562
211 64 738
212 64 1209
213 64 449
214 64 1261
215 64 121
216 64 665
217 64 320
218 64 169
220 64 293
222 64 531
224 64 584
225 64 1285
226 64 865
227 64 485
229 64 928
231 64 1721
232 64 879
233 64 585
234 64 741
235 64 434
237 64 1048
238 64 26
239 64 665
240 64 300
241 64 446
242 64 814
243 64 672
245 64 1212
246 64 2203
247 64 890
251 64 1246
252 64 245
253 64 1064
254 64 1246
255 64 293
256 64 1858
257 64 685
258 64 162
259 64 1445
260 64 1311
261 64 1408
263 64 1544
264 64 633
265 64 925
267 64 255
268 64 653
269 64 645
270 64 619
271 64 770
272 64 805
273 64 1024
274 64 716
275 64 777
276 64 374
278 64 1443
279 64 1293
280 64 1309
281 64 1170
284 64 447
285 64 620
287 64 199
288 64 500
289 64 688
291 64 769
292 64 1216
293 64 672
294 64 1323
295 64 1173
296 64 264
297 64 88
298 64 331
299 64 139
300 64 1059
302 64 192
303 64 514
304 64 899
305 64 1113
307 64 317
308 64 16
309 64 510
310 64 165
311 64 800
312 64 316
313 64 551
314 64 76
316 64 628
317 64 388
318 64 1205
319 64 209
320 64 255
321 64 65
323 64 291
324 64 552
325 64 760
326 64 784
327 64 21
328 64 678
330 64 618
331 64 312
332 64 552
334 64 566
336 64 518
337 64 218
338 64 1128
339 64 661
340 64 507
342 64 731
343 64 678
344 64 1324
345 64 699
346 64 660
347 64 178
348 64 1256
349 64 791
350 64 1295
352 64 1225
354 64 1442
355 64 340
356 64 616
357 64 360
358 64 6
359 64 915
360 64 710
361 64 1412
362 64 1381
364 64 2438
365 64 341
366 64 1095
367 64 836
368 64 786
369 64 484
370 64 1060
371 64 304
372 64 715
373 64 632
374 64 1093
375 64 255
377 64 1114
378 64 407
379 64 735
380 64 194
381 64 1394
382 64 902
384 64 1008
385 64 612
386 64 592
388 64 1256
390 64 699
391 64 458
393 64 781
394 64 291
395 64 427
396 64 736
397 64 293
398 64 188
399 64 1208
400 64 218
401 64 267
402 64 870
403 64 623
404 64 248
405 64 294
411 64 707
412 64 297
413 64 416
414 64 953
415 64 427
416 64 1601
417 64 407
418 64 1037
419 64 745
420 64 845
423 64 672
425 64 545
426 64 1077
427 64 108
428 64 508
429 64 77
430 64 637
431 64 173
432 64 216
433 64 584
434 64 708
435 64 1056
436 64 693
437 64 631
439 64 745
440 64 285
441 64 145
442 64 112
443 64 250
444 64 1076
446 64 692
448 64 453
449 64 149
450 64 1251
451 64 1078
452 64 1272
453 64 880
454 64 355
455 64 1109
457 64 1300
459 64 674
460 64 1278
462 64 400
463 64 633
464 64 1133
465 64 1158
466 64 1190
467 64 387
469 64 216
471 64 813
472 64 733
473 64 576
474 64 1908
475 64 816
476 64 1010
477 64 706
478 64 91
479 64 437
481 64 1188
482 64 164
483 64 759
485 64 97
486 64 775
487 64 772
488 64 552
489 64 381
490 64 267
491 64 646
492 64 1121
494 64 943
496 64 572
498 64 838
499 64 386
500 64 1280
2 65 12
3 65 7
4 65 270
6 65 20
11 65 5
12 65 2
13 65 1129
15 65 9
16 65 23
17 65 5
19 65 4
20 65 935
21 65 2
22 65 2
24 65 11
25 65 573
27 65 17
28 65 37
29 65 9
32 65 122
35 65 812
36 65 9
37 65 6
38 65 2
41 65 6
42 65 26
43 65 8
44 65 2
45 65 39
47 65 10
48 65 5
49 65 3
50 65 706
53 65 7
54 65 24
55 65 15
62 65 161
64 65 858
65 65 9
66 65 4
69 65 3
70 65 26
71 65 630
73 65 11
74 65 4
76 65 8
77 65 1
78 65 15
79 65 6
80 65 778
81 65 8
82 65 319
84 65 5
85 65 6
88 65 7
90 65 2
91 65 969
92 65 864
93 65 8
95 65 7
96 65 13
97 65 2
98 65 7
99 65 2
103 65 935
104 65 2
107 65 529
108 65 8
109 65 508
110 65 3
112 65 667
113 65 639
114 65 2
115 65 7
117 65 2
119 65 949
120 65 561
121 65 13
122 65 4
123 65 786
125 65 4
126 65 23
127 65 21
128 65 9
129 65 6
131 65 3
132 65 6
133 65 2
134 65 2
135 65 1047
136 65 2
138 65 11
139 65 9
140 65 19
142 65 4
143 65 1
145 65 19
146 65 7
147 65 9
148 65 3
153 65 7
154 65 1
156 65 31
157 65 1024
162 65 3
163 65 12
164 65 12
166 65 10
167 65 1021
168 65 8
169 65 15
170 65 2
171 65 13
172 65 854
173 65 2
176 65 5
177 65 2
178 65 28
179 65 6
180 65 1235
181 65 3
182 65 3
183 65 314
184 65 435
185 65 5
187 65 14
188 65 2
189 65 4
191 65 10
192 65 477
195 65 39
196 65 5
198 65 325
200 65 9
201 65 354
202 65 5
203 65 14
205 65 10
207 65 7
212 65 15
213 65 2
214 65 4
215 65 6
216 65 3
219 65 325
221 65 446
223 65 123
224 65 20
228 65 1040
229 65 3
230 65 878
231 65 2
233 65 3
234 65 4
235 65 6
236 65 781
237 65 4
239 65 9
240 65 2
241 65 15
243 65 4
244 65 1027
245 65 3
248 65 45
249 65 283
250 65 881
251 65 12
254 65 9
256 65 6
258 65 9
259 65 4
260 65 7
261 65 14
262 65 667
266 65 911
267 65 9
268 65 2
271 65 6
272 65 5
273 65 6
277 65 511
280 65 3
281 65 4
282 65 617
283 65 459
284 65 6
286 65 165
288 65 24
290 65 7
291 65 12
292 65 15
293 65 11
296 65 4
298 65 4
305 65 1
306 65 592
308 65 14
312 65 8
313 65 10
314 65 5
315 65 421
317 65 25
318 65 25
319 65 23
322 65 97
325 65 4
326 65 4
327 65 4
328 65 7
329 65 388
330 65 5
332 65 23
333 65 760
334 65 7
335 65 567
338 65 4
339 65 3
341 65 953
342 65 2
343 65 20
346 65 2
347 65 21
348 65 11
351 65 15
352 65 3
353 65 961
354 65 3
358 65 7
360 65 8
361 65 3
362 65 14
363 65 470
365 65 17
366 65 3
368 65 5
369 65 2
370 65 17
371 65 6
372 65 12
376 65 1442
379 65 5
380 65 5
381 65 3
382 65 3
383 65 12
384 65 18
387 65 585
388 65 2
389 65 9
390 65 19
391 65 10
392 65 9
395 65 5
398 65 6
399 65 4
403 65 6
406 65 802
407 65 314
408 65 565
409 65 915
410 65 1069
411 65 8
413 65 14
414 65 11
417 65 10
418 65 3
419 65 14
421 65 433
422 65 250
423 65 12
424 65 557
425 65 7
426 65 13
427 65 5
428 65 2
429 65 6
430 65 8
431 65 9
432 65 25
437 65 5
438 65 613
439 65 4
441 65 3
443 65 5
444 65 12
445 65 822
447 65 521
448 65 14
450 65 5
454 65 5
455 65 3
456 65 37
458 65 370
461 65 719
462 65 6
464 65 30
467 65 2
468 65 548
470 65 748
474 65 6
475 65 2
481 65 7
483 65 28
484 65 446
489 65 14
490 65 18
493 65 701
494 65 2
495 65 779
497 65 774
500 65 6
1 66 1463
2 66 2491
3 66 2075
5 66 373
6 66 1435
7 66 1209
8 66 1034
9 66 1100
10 66 595
11 66 766
12 66 4173
14 66 1067
15 66 814
16 66 1429
17 66 743
18 66 1107
19 66 2578
21 66 737
22 66 606
23 66 1122
24 66 2338
26 66 1257
27 66 1424
28 66 1966
29 66 667
30 66 1468
31 66 1355
32 66 8
33 66 1800
34 66 1588
36 66 357
37 66 807
38 66 2036
39 66 1186
40 66 1214
41 66 1243
42 66 1612
43 66 1121
44 66 913
45 66 1737
46 66 754
47 66 1627
48 66 494
49 66 660
51 66 985
52 66 1539
53 66 625
54 66 71
55 66 1181
56 66 1001
57 66 1235
58 66 531
59 66 1393
60 66 869
61 66 390
63 66 1275
65 66 1303
66 66 1610
67 66 1907
68 66 1339
69 66 1214
70 66 1067
72 66 2214
73 66 1292
74 66 1420
75 66 1446
76 66 1123
77 66 1169
78 66 1105
79 66 1607
81 66 611
83 66 2179
84 66 756
85 66 756
86 66 1612
87 66 511
88 66 1599
89 66 1860
90 66 1077
93 66 1881
94 66 2206
95 66 1188
96 66 2923
97 66 1818
98 66 1287
99 66 161
100 66 1299
101 66 2415
102 66 1087
104 66 1314
105 66 1013
106 66 1390
108 66 926
110 66 1114
111 66 1676
114 66 942
115 66 859
116 66 1510
117 66 907
118 66 2165
121 66 1612
122 66 1782
124 66 2047
125 66 1199
126 66 1564
127 66 1127
128 66 1043
129 66 1232
130 66 1643
131 66 1844
132 66 1688
133 66 494
134 66 1210
136 66 1266
137 66 1010
138 66 852
139 66 2073
140 66 65
141 66 615
142 66 1314
143 66 1053
144 66 1260
145 66 1424
146 66 2567
147 66 1740
148 66 1410
149 66 2004
150 66 2240
151 66 496
152 66 1074
153 66 1632
154 66 470
155 66 1194
156 66 1320
158 66 2288
159 66 2206
160 66 1280
161 66 1653
162 66 1554
163 66 1479
164 66 1417
165 66 1107
166 66 905
168 66 63
169 66 1430
170 66 1222
171 66 58
173 66 1004
174 66 1734
175 66 2262
176 66 1368
177 66 747
179 66 1971
181 66 709
182 66 973
185 66 434
186 66 1850
187 66 625
188 66 748
189 66 1832
190 66 1255
191 66 2016
193 66 1061
194 66 1017
195 66 977
196 66 1283
197 66 627
199 66 710
200 66 605
202 66 632
203 66 1443
204 66 1511
205 66 972
206 66 1247
207 66 1544
208 66 959
209 66 1705
210 66 1379
211 66 471
212 66 1858
213 66 789
214 66 2058
215 66 1261
216 66 1477
217 66 1323
218 66 997
220 66 2172
222 66 2237
223 66 1
224 66 457
225 66 1125
226 66 1464
227 66 515
229 66 1194
231 66 4014
232 66 2131
233 66 1137
234 66 1178
235 66 2109
237 66 1008
238 66 1144
239 66 2524
240 66 394
241 66 1289
242 66 2570
243 66 1263
245 66 1234
246 66 1017
247 66 1692
248 66 11
251 66 1772
252 66 1174
253 66 1479
254 66 1757
255 66 3170
256 66 1983
257 66 1734
258 66 385
259 66 478
260 66 1695
261 66 2152
263 66 2616
264 66 1738
265 66 1471
267 66 911
268 66 2820
269 66 615
270 66 1563
271 66 1395
272 66 1778
273 66 1358
274 66 1643
275 66 1159
276 66 1447
278 66 2292
279 66 1710
280 66 2019
281 66 502
284 66 2262
285 66 1581
287 66 1533
288 66 971
289 66 1210
290 66 197
291 66 2261
292 66 807
293 66 2703
294 66 1125
295 66 1024
296 66 1661
297 66 1244
298 66 905
299 66 1059
300 66 2314
301 66 250
302 66 1482
303 66 1604
304 66 1745
305 66 2303
307 66 1339
308 66 845
309 66 220
310 66 1612
311 66 2520
312 66 1731
313 66 1729
314 66 762
316 66 1247
317 66 735
318 66 1109
319 66 1363
320 66 942
321 66 1336
322 66 13
323 66 1292
324 66 1288
325 66 1311
326 66 1707
327 66 1261
328 66 1271
330 66 811
331 66 1857
332 66 481
334 66 1114
336 66 515
337 66 578
338 66 1282
339 66 1168
340 66 2030
342 66 1261
343 66 1221
344 66 1723
345 66 1654
346 66 1681
347 66 353
348 66 2490
349 66 1194
350 66 1160
351 66 64
352 66 1787
354 66 470
355 66 1405
356 66 1301
357 66 1388
358 66 407
359 66 1166
360 66 945
361 66 451
362 66 956
364 66 1574
365 66 887
366 66 695
367 66 2911
368 66 1532
369 66 467
370 66 263
371 66 938
372 66 924
373 66 1189
374 66 1494
375 66 1800
377 66 1813
378 66 1837
379 66 804
380 66 1303
381 66 423
382 66 1162
383 66 60
384 66 1200
385 66 1389
386 66 2439
388 66 441
389 66 168
390 66 2645
391 66 1064
392 66 417
393 66 1587
394 66 1251
395 66 2076
396 66 1080
397 66 907
398 66 1678
399 66 1851
400 66 923
401 66 435
402 66 1239
403 66 1296
404 66 684
405 66 958
411 66 1304
412 66 2102
413 66 248
414 66 2039
415 66 1033
416 66 1371
417 66 2081
418 66 384
419 66 816
420 66 1633
423 66 2588
425 66 1822
426 66 2953
427 66 796
428 66 461
429 66 705
430 66 1916
431 66 1874
432 66 382
433 66 386
434 66 417
435 66 500
436 66 399
437 66 2811
439 66 861
440 66 685
441 66 1268
442 66 608
443 66 632
444 66 3039
446 66 1193
448 66 1342
449 66 2424
450 66 1769
451 66 2270
452 66 1397
453 66 933
454 66 1877
455 66 899
456 66 369
457 66 2552
459 66 1240
460 66 1726
462 66 2202
463 66 1060
464 66 1818
465 66 1856
466 66 1839
467 66 2248
469 66 1654
471 66 566
472 66 1686
473 66 2250
474 66 1340
475 66 1593
476 66 796
477 66 1661
478 66 995
479 66 1238
480 66 922
481 66 1114
482 66 1492
483 66 1696
485 66 1046
486 66 1730
487 66 1229
488 66 2184
489 66 1285
490 66 1219
491 66 489
492 66 941
494 66 1416
496 66 2307
498 66 1926
499 66 1185
500 66 1740
1 67 1624
2 67 4152
3 67 2019
5 67 1501
6 67 586
7 67 774
8 67 1746
9 67 2080
10 67 1041
11 67 1363
12 67 1798
14 67 1399
15 67 1831
16 67 1692
17 67 1029
18 67 1626
19 67 4434
21 67 921
22 67 2138
23 67 1532
24 67 2565
26 67 774
27 67 3277
28 67 3006
29 67 859
30 67 1602
31 67 2602
33 67 1186
34 67 2941
36 67 1407
37 67 1853
38 67 1674
39 67 1908
40 67 2769
41 67 3484
42 67 1591
43 67 1398
44 67 1263
45 67 2766
46 67 1790
47 67 2354
48 67 2673
49 67 1560
51 67 1545
52 67 1134
53 67 1642
54 67 58
55 67 1935
56 67 1222
57 67 1337
58 67 1655
59 67 1674
60 67 1594
61 67 2154
63 67 403
65 67 1707
66 67 1888
67 67 1565
68 67 2200
69 67 1550
70 67 1113
72 67 3289
73 67 1617
74 67 1458
75 67 1638
76 67 1213
77 67 1755
78 67 1968
79 67 2772
81 67 2640
83 67 1026
84 67 1015
85 67 1700
86 67 1250
87 67 2049
88 67 2508
89 67 1540
90 67 2035
93 67 1384
94 67 1448
95 67 1747
96 67 1051
97 67 2004
98 67 1751
99 67 548
100 67 2789
101 67 2259
102 67 1952
104 67 652
105 67 1376
106 67 1670
108 67 1550
110 67 1922
111 67 1820
114 67 1982
115 67 1309
116 67 1766
117 67 2219
118 67 1718
121 67 1409
122 67 1462
124 67 1085
125 67 2498
126 67 1866
127 67 1558
128 67 1511
129 67 1060
130 67 1793
131 67 1535
132 67 1857
133 67 1759
134 67 1749
136 67 1561
137 67 1802
138 67 1248
139 67 1095
140 67 14
141 67 1337
142 67 1404
143 67 1842
144 67 1614
145 67 1835
146 67 4532
147 67 3334
148 67 1467
149 67 2679
150 67 1446
151 67 1298
152 67 2104
153 67 1556
154 67 1377
155 67 951
156 67 1379
158 67 2828
159 67 3343
160 67 2247
161 67 1202
162 67 2431
163 67 1518
164 67 1349
165 67 2556
166 67 2547
168 67 53
169 67 1681
170 67 1769
171 67 60
173 67 2696
174 67 2237
175 67 3298
176 67 1181
177 67 1008
179 67 1573
181 67 1509
182 67 2270
185 67 2269
186 67 1833
187 67 2565
188 67 3340
189 67 890
190 67 3291
191 67 2085
193 67 1789
194 67 1435
195 67 2455
196 67 2334
197 67 1364
199 67 889
200 67 742
202 67 1826
203 67 2163
204 67 1873
205 67 1212
206 67 1132
207 67 2384
208 67 1796
209 67 1792
210 67 2276
211 67 2485
212 67 2033
213 67 1777
214 67 1643
215 67 1422
216 67 1344
217 67 1675
218 67 2526
220 67 999
222 67 3221
224 67 1490
225 67 1742
226 67 1657
227 67 1053
229 67 2440
231 67 1802
232 67 1293
233 67 1972
234 67 2071
235 67 1592
237 67 1326
238 67 1439
239 67 2723
240 67 3636
241 67 1778
242 67 3164
243 67 1208
245 67 1852
246 67 2983
247 67 1179
251 67 2095
252 67 1635
253 67 1712
254 67 1308
255 67 2739
256 67 1362
257 67 1535
258 67 2649
259 67 2326
260 67 2736
261 67 1553
263 67 2675
264 67 1540
265 67 1761
267 67 2537
268 67 1636
269 67 1368
270 67 1370
271 67 1436
272 67 1154
273 67 707
274 67 1266
275 67 789
276 67 1468
278 67 2072
279 67 1885
280 67 1092
281 67 2131
284 67 1576
285 67 1576
287 67 1147
288 67 2618
289 67 806
290 67 85
291 67 2675
292 67 1437
293 67 2656
294 67 1944
295 67 1294
296 67 1491
297 67 1769
298 67 2287
299 67 2042
300 67 1289
301 67 1165
302 67 1747
303 67 2431
304 67 2092
305 67 2746
307 67 1654
308 67 1091
309 67 1919
310 67 1906
311 67 3061
312 67 2303
313 67 1819
314 67 1508
316 67 2921
317 67 3890
318 67 2050
319 67 1409
320 67 1406
321 67 1754
323 67 2721
324 67 2188
325 67 2205
326 67 2348
327 67 894
328 67 1683
330 67 1018
331 67 2353
332 67 1494
334 67 1833
336 67 1059
337 67 1447
338 67 1742
339 67 1203
340 67 1298
342 67 1607
343 67 2295
344 67 1703
345 67 1316
346 67 1479
347 67 1154
348 67 4279
349 67 2770
350 67 1581
351 67 52
352 67 2844
354 67 2269
355 67 2291
356 67 2651
357 67 1442
358 67 1235
359 67 1459
360 67 2728
361 67 2266
362 67 1201
364 67 1345
365 67 1189
366 67 712
367 67 2484
368 67 1560
369 67 2052
370 67 1309
371 67 1617
372 67 2708
373 67 2824
374 67 1664
375 67 3187
377 67 2870
378 67 1307
379 67 1568
380 67 1271
381 67 2219
382 67 1622
383 67 98
384 67 2076
385 67 382
386 67 1539
388 67 1535
389 67 42
390 67 2884
391 67 1771
392 67 335
393 67 1953
394 67 2713
395 67 2011
396 67 1142
397 67 1726
398 67 2095
399 67 1568
400 67 4055
401 67 1832
402 67 1617
403 67 2065
404 67 1537
405 67 2611
411 67 1707
412 67 973
413 67 707
414 67 1402
415 67 716
416 67 2327
417 67 2591
418 67 1950
419 67 973
420 67 2519
423 67 2760
425 67 1435
426 67 1105
427 67 2186
428 67 2149
429 67 1507
430 67 1376
431 67 3563
432 67 1157
433 67 2204
434 67 913
435 67 1965
436 67 878
437 67 1716
439 67 1954
440 67 641
441 67 1347
442 67 1237
443 67 1344
444 67 1109
446 67 733
448 67 1787
449 67 2982
450 67 2848
451 67 1328
452 67 2181
453 67 2078
454 67 4738
455 67 2280
456 67 391
457 67 405
459 67 832
460 67 1848
462 67 1593
463 67 1824
464 67 1164
465 67 2958
466 67 2958
467 67 2437
469 67 1792
471 67 1392
472 67 1309
473 67 3245
474 67 2015
475 67 1918
476 67 1937
477 67 1200
478 67 1492
479 67 2728
480 67 646
481 67 2411
482 67 1689
483 67 2570
485 67 1502
486 67 1973
487 67 2390
488 67 3269
489 67 1107
490 67 1108
491 67 1648
492 67 1443
494 67 1657
496 67 3352
498 67 2894
499 67 1322
500 67 1767
1 68 1935
2 68 1585
3 68 914
5 68 520
6 68 1034
7 68 1218
8 68 1230
9 68 757
10 68 815
11 68 851
12 68 1038
14 68 420
15 68 1614
16 68 1383
17 68 727
18 68 487
19 68 2401
21 68 1267
22 68 690
23 68 867
24 68 1129
26 68 1207
27 68 156
28 68 709
29 68 1173
30 68 2171
31 68 1195
33 68 1267
34 68 1721
36 68 1081
37 68 1268
38 68 2413
39 68 930
40 68 1457
41 68 1136
42 68 2219
43 68 1121
44 68 947
45 68 1713
46 68 2022
47 68 1219
48 68 989
49 68 1432
51 68 1159
52 68 670
53 68 633
54 68 300
55 68 1106
56 68 928
57 68 973
58 68 855
59 68 2145
60 68 1140
61 68 1266
63 68 728
65 68 419
66 68 765
67 68 881
68 68 1648
69 68 957
70 68 1279
72 68 1674
73 68 1151
74 68 985
75 68 2088
76 68 610
77 68 1133
78 68 769
79 68 985
81 68 2096
82 68 5
83 68 764
84 68 1294
85 68 429
86 68 705
87 68 967
88 68 1158
89 68 265
90 68 310
93 68 1185
94 68 1439
95 68 1562
96 68 2046
97 68 798
98 68 403
99 68 1619
100 68 1128
101 68 1709
102 68 674
104 68 896
105 68 889
106 68 2228
108 68 1850
110 68 722
111 68 584
114 68 1592
115 68 345
116 68 1070
117 68 966
118 68 1128
121 68 1198
122 68 970
124 68 1527
125 68 839
126 68 804
127 68 858
128 68 1194
129 68 556
130 68 554
131 68 1105
132 68 1480
133 68 1471
134 68 1650
136 68 515
137 68 427
138 68 941
139 68 1645
140 68 182
141 68 1122
142 68 608
143 68 1516
144 68 351
145 68 1619
146 68 2473
147 68 796
148 68 968
149 68 1530
150 68 1765
151 68 1571
152 68 1054
153 68 1222
154 68 1233
155 68 1303
156 68 988
158 68 1359
159 68 1652
160 68 1317
161 68 695
162 68 706
163 68 789
164 68 864
165 68 2026
166 68 352
168 68 979
169 68 1342
170 68 1719
171 68 316
173 68 1817
174 68 1878
175 68 1628
176 68 1440
177 68 811
178 68 64
179 68 1038
181 68 959
182 68 1291
185 68 1492
186 68 826
187 68 1996
188 68 1490
189 68 466
190 68 698
191 68 1470
193 68 475
194 68 1714
195 68 966
196 68 725
197 68 686
199 68 658
200 68 940
202 68 489
203 68 1453
204 68 1370
205 68 667
206 68 919
207 68 1097
208 68 407
209 68 627
210 68 1006
211 68 875
212 68 1331
213 68 1475
214 68 869
215 68 619
216 68 765
217 68 1789
218 68 559
219 68 5
220 68 788
222 68 1522
224 68 1326
225 68 479
226 68 1799
227 68 2070
229 68 1465
231 68 1049
232 68 544
233 68 1011
234 68 1230
235 68 2353
237 68 877
238 68 968
239 68 1353
240 68 1348
241 68 1433
242 68 1235
243 68 1707
245 68 1173
246 68 2602
247 68 1164
248 68 40
249 68 8
251 68 1034
252 68 1333
253 68 2235
254 68 1022
255 68 1448
256 68 459
257 68 344
258 68 1137
259 68 1478
260 68 955
261 68 201
263 68 1283
264 68 336
265 68 1791
267 68 362
268 68 870
269 68 1055
270 68 1114
271 68 660
272 68 894
273 68 607
274 68 715
275 68 1146
276 68 1019
278 68 1428
279 68 598
280 68 1793
281 68 1013
284 68 1698
285 68 1750
287 68 684
288 68 1809
289 68 1194
290 68 1312
291 68 1051
292 68 1563
293 68 1347
294 68 1268
295 68 1810
296 68 1659
297 68 1574
298 68 2110
299 68 2472
300 68 1537
301 68 681
302 68 1255
303 68 621
304 68 950
305 68 959
307 68 364
308 68 1494
309 68 2125
310 68 1694
311 68 1263
312 68 1205
313 68 634
314 68 2381
316 68 834
317 68 1400
318 68 785
319 68 1022
320 68 1174
321 68 1519
322 68 15
323 68 1137
324 68 1759
325 68 573
326 68 752
327 68 495
328 68 506
330 68 539
331 68 698
332 68 1369
334 68 384
336 68 2033
337 68 1687
338 68 1968
339 68 754
340 68 1056
342 68 494
343 68 1187
344 68 570
345 68 765
346 68 828
347 68 408
348 68 1633
349 68 1214
350 68 488
351 68 293
352 68 946
354 68 1456
355 68 1241
356 68 1424
357 68 1855
358 68 1620
359 68 1980
360 68 1373
361 68 1464
362 68 910
364 68 965
365 68 926
366 68 434
367 68 625
368 68 1111
369 68 1061
370 68 836
371 68 1157
372 68 1396
373 68 910
374 68 2108
375 68 954
377 68 1314
378 68 1011
379 68 1562
380 68 2233
381 68 1434
382 68 1306
383 68 275
384 68 851
385 68 785
386 68 1123
388 68 404
389 68 800
390 68 1385
391 68 1301
392 68 355
393 68 1026
394 68 1193
395 68 970
396 68 867
397 68 695
398 68 1407
399 68 1757
400 68 955
401 68 1213
402 68 1847
403 68 997
404 68 1127
405 68 195
411 68 524
412 68 827
413 68 476
414 68 1701
415 68 1507
416 68 914
417 68 1973
418 68 793
419 68 1095
420 68 1620
423 68 1333
425 68 1144
426 68 1968
427 68 706
428 68 1099
429 68 2375
430 68 1164
431 68 2032
432 68 406
433 68 1256
434 68 1254
435 68 1267
436 68 1167
437 68 786
439 68 1583
440 68 851
441 68 594
442 68 1997
443 68 1376
444 68 2049
446 68 1174
448 68 1460
449 68 1381
450 68 901
451 68 1554
452 68 898
453 68 1708
454 68 718
455 68 692
456 68 882
457 68 1897
459 68 1259
460 68 630
462 68 1701
463 68 1285
464 68 615
465 68 1327
466 68 1269
467 68 1920
469 68 1346
471 68 658
472 68 754
473 68 1611
474 68 1115
475 68 814
476 68 1730
477 68 722
478 68 1739
479 68 1926
480 68 1338
481 68 1011
482 68 1315
483 68 1521
485 68 1693
486 68 1410
487 68 1964
488 68 1601
489 68 946
490 68 695
491 68 759
492 68 1612
494 68 578
496 68 1553
498 68 1571
499 68 732
500 68 2168
1 69 3
5 69 7
7 69 4
8 69 9
16 69 2
18 69 4
26 69 5
27 69 98
28 69 2
32 69 2
35 69 1
41 69 2036
45 69 150
55 69 13
63 69 185
66 69 5
67 69 164
69 69 3
80 69 1
83 69 7
86 69 5
87 69 207
89 69 106
92 69 3
94 69 533
95 69 5
99 69 5
101 69 1814
117 69 2
118 69 69
121 69 1158
126 69 3
127 69 99
128 69 68
133 69 3
143 69 1451
145 69 793
147 69 1125
154 69 5
155 69 913
158 69 1013
161 69 1
164 69 9
165 69 2
169 69 5
173 69 1745
181 69 32
188 69 15
189 69 248
195 69 795
196 69 1
199 69 6
203 69 3135
220 69 8
223 69 2
224 69 3
225 69 3
226 69 6
229 69 1383
232 69 255
234 69 4
240 69 1100
241 69 3
242 69 4
246 69 1158
255 69 1556
257 69 2
260 69 3
261 69 1489
264 69 7
270 69 2
274 69 4
275 69 7
277 69 4
280 69 1616
289 69 3
292 69 58
300 69 474
301 69 8
302 69 417
304 69 5
305 69 286
310 69 4
311 69 3
316 69 15
317 69 589
320 69 6
330 69 9
332 69 10
338 69 11
345 69 3
350 69 4
352 69 6
357 69 4
360 69 120
362 69 2
364 69 2008
367 69 70
372 69 121
373 69 6
380 69 5
385 69 7
396 69 5
398 69 94
399 69 7
400 69 6
401 69 79
408 69 1
412 69 9
414 69 586
417 69 2106
420 69 823
424 69 3
431 69 895
435 69 4
443 69 3
446 69 1
448 69 7
450 69 6
451 69 434
452 69 1
455 69 45
463 69 9
464 69 141
469 69 729
472 69 4
474 69 784
475 69 5
477 69 2
479 69 335
482 69 474
483 69 6
486 69 4
487 69 4
489 69 4
493 69 1
494 69 137
500 69 1321
1 70 103
2 70 117
3 70 166
4 70 152
5 70 167
6 70 345
7 70 75
8 70 83
9 70 123
10 70 14
11 70 177
12 70 19
13 70 66
14 70 173
15 70 34
16 70 66
17 70 83
18 70 65
19 70 309
20 70 32
22 70 303
23 70 271
24 70 311
25 70 71
26 70 77
27 70 217
28 70 9
29 70 282
30 70 302
31 70 429
32 70 59
33 70 165
34 70 173
35 70 145
36 70 198
37 70 93
38 70 28
39 70 146
40 70 3
41 70 171
42 70 72
43 70 80
44 70 99
45 70 46
46 70 54
47 70 357
48 70 92
49 70 231
50 70 118
51 70 50
52 70 162
53 70 104
54 70 38
55 70 172
56 70 119
57 70 110
58 70 66
59 70 304
60 70 81
61 70 43
62 70 130
63 70 231
64 70 157
65 70 81
66 70 51
67 70 189
68 70 124
69 70 45
70 70 64
71 70 145
72 70 254
73 70 111
74 70 207
75 70 304
76 70 329
77 70 478
78 70 340
79 70 542
80 70 45
81 70 85
82 70 52
83 70 126
84 70 3
85 70 15
86 70 135
87 70 206
88 70 158
89 70 111
90 70 95
91 70 46
92 70 24
93 70 52
94 70 172
95 70 34
96 70 1153
97 70 12
98 70 68
99 70 83
100 70 390
101 70 148
102 70 73
103 70 153
104 70 76
105 70 65
106 70 313
107 70 84
108 70 23
109 70 102
110 70 264
111 70 305
112 70 23
113 70 279
114 70 78
115 70 51
116 70 129
117 70 75
118 70 274
119 70 101
120 70 66
121 70 251
122 70 170
123 70 165
124 70 132
125 70 284
126 70 81
127 70 85
128 70 133
129 70 39
130 70 320
131 70 2530
132 70 14
133 70 344
134 70 796
135 70 46
136 70 58
137 70 80
138 70 385
139 70 41
140 70 35
141 70 170
142 70 86
143 70 102
144 70 504
145 70 197
146 70 335
147 70 129
148 70 215
149 70 5
150 70 12
151 70 348
152 70 23
153 70 57
154 70 222
155 70 142
156 70 244
157 70 67
158 70 268
159 70 271
160 70 169
161 70 112
162 70 60
163 70 91
164 70 294
165 70 14
166 70 90
167 70 52
168 70 225
169 70 86
170 70 775
171 70 25
172 70 186
173 70 169
174 70 99
175 70 298
176 70 439
177 70 3
178 70 49
179 70 2583
180 70 228
181 70 168
182 70 95
183 70 212
184 70 131
185 70 696
186 70 6
187 70 62
188 70 12
189 70 232
190 70 138
191 70 119
192 70 54
193 70 94
194 70 71
195 70 77
196 70 84
197 70 63
198 70 67
199 70 3
200 70 127
201 70 48
202 70 78
203 70 332
204 70 78
205 70 1131
206 70 38
207 70 127
208 70 89
209 70 296
210 70 73
211 70 9
212 70 170
213 70 56
215 70 69
216 70 97
217 70 284
218 70 196
219 70 15
220 70 110
221 70 20
222 70 267
223 70 67
224 70 136
225 70 63
226 70 168
227 70 140
228 70 59
229 70 137
230 70 104
231 70 16
232 70 166
233 70 82
234 70 126
235 70 32
236 70 50
237 70 42
238 70 62
239 70 465
240 70 132
241 70 480
242 70 123
243 70 2
244 70 69
245 70 478
246 70 485
247 70 102
248 70 69
249 70 20
250 70 78
251 70 153
252 70 244
253 70 302
254 70 136
255 70 164
256 70 32
257 70 3
258 70 5
259 70 759
260 70 108
261 70 102
262 70 109
263 70 992
264 70 1
265 70 183
266 70 205
267 70 97
268 70 111
269 70 171
270 70 21
271 70 370
272 70 63
273 70 43
274 70 124
275 70 58
276 70 295
277 70 232
278 70 26
279 70 312
280 70 220
281 70 69
282 70 48
283 70 70
284 70 16
285 70 60
286 70 124
287 70 157
288 70 566
289 70 82
290 70 134
291 70 62
292 70 68
293 70 508
294 70 129
295 70 63
296 70 8
297 70 165
298 70 5
299 70 97
300 70 132
301 70 84
302 70 156
304 70 110
305 70 225
306 70 94
307 70 524
308 70 90
309 70 111
310 70 101
311 70 139
312 70 383
313 70 156
314 70 34
315 70 25
316 70 1577
317 70 429
318 70 393
319 70 254
320 70 91
321 70 142
322 70 38
323 70 404
324 70 117
325 70 10
326 70 16
327 70 371
328 70 70
329 70 47
330 70 71
331 70 46
332 70 133
333 70 239
334 70 6
335 70 90
336 70 134
337 70 79
338 70 461
339 70 245
340 70 67
341 70 133
342 70 72
343 70 57
344 70 313
345 70 114
346 70 42
347 70 384
348 70 153
349 70 58
350 70 57
351 70 39
352 70 115
353 70 108
354 70 723
355 70 343
356 70 4
357 70 1021
358 70 148
359 70 75
360 70 146
361 70 749
362 70 82
363 70 74
364 70 132
365 70 379
366 70 392
367 70 78
368 70 106
369 70 264
370 70 55
371 70 146
372 70 123
373 70 1564
374 70 320
375 70 121
376 70 244
377 70 1424
378 70 160
379 70 167
380 70 128
381 70 733
382 70 353
383 70 107
384 70 148
385 70 85
386 70 402
387 70 56
388 70 40
389 70 60
390 70 474
391 70 580
392 70 164
393 70 142
394 70 415
395 70 176
396 70 66
397 70 85
398 70 449
399 70 126
401 70 129
402 70 67
403 70 81
404 70 291
405 70 544
406 70 87
407 70 80
408 70 164
409 70 154
410 70 205
411 70 70
412 70 99
413 70 92
414 70 110
415 70 30
416 70 104
417 70 462
418 70 103
419 70 70
420 70 102
421 70 37
422 70 64
423 70 485
424 70 355
425 70 78
426 70 1248
427 70 8
428 70 255
429 70 28
430 70 43
431 70 147
432 70 414
433 70 37
434 70 301
435 70 132
436 70 304
437 70 120
438 70 166
439 70 67
440 70 59
441 70 62
442 70 117
443 70 138
444 70 1233
445 70 99
446 70 87
447 70 116
448 70 463
449 70 89
450 70 114
451 70 142
452 70 128
453 70 3
454 70 744
455 70 213
456 70 111
457 70 46
458 70 33
459 70 85
460 70 332
461 70 253
462 70 21
463 70 68
464 70 89
465 70 1512
466 70 1476
467 70 18
468 70 8
469 70 143
470 70 143
471 70 135
472 70 123
473 70 276
474 70 284
475 70 61
476 70 53
477 70 125
478 70 46
479 70 97
480 70 76
481 70 89
482 70 131
483 70 131
484 70 38
485 70 60
486 70 54
487 70 89
488 70 263
489 70 305
490 70 153
491 70 56
492 70 307
493 70 109
494 70 82
495 70 80
496 70 265
497 70 226
498 70 36
499 70 50
500 70 130
1 71 392
2 71 653
3 71 783
4 71 310
5 71 1291
6 71 495
7 71 166
8 71 392
9 71 835
10 71 683
11 71 586
12 71 327
13 71 74
14 71 446
15 71 930
16 71 499
17 71 332
18 71 302
19 71 16
20 71 239
21 71 1114
22 71 293
23 71 1138
25 71 525
26 71 160
27 71 1074
28 71 457
29 71 308
30 71 686
32 71 209
33 71 471
34 71 1019
35 71 268
36 71 481
37 71 216
38 71 309
39 71 292
40 71 1438
41 71 285
42 71 913
43 71 1264
44 71 353
45 71 913
46 71 969
47 71 230
48 71 1435
49 71 771
50 71 344
51 71 415
52 71 521
53 71 2
54 71 614
55 71 555
56 71 914
57 71 363
58 71 476
59 71 617
60 71 429
61 71 141
62 71 163
63 71 377
64 71 389
65 71 623
66 71 1177
67 71 588
68 71 1033
69 71 817
70 71 308
71 71 76
72 71 324
73 71 394
74 71 422
75 71 674
76 71 439
77 71 780
78 71 319
79 71 4
80 71 118
81 71 461
82 71 398
83 71 454
84 71 577
85 71 1032
86 71 56
87 71 1316
88 71 290
89 71 964
90 71 1068
91 71 400
92 71 653
93 71 606
94 71 317
95 71 359
96 71 2
97 71 628
98 71 673
99 71 316
101 71 526
102 71 483
103 71 390
104 71 175
105 71 627
106 71 687
107 71 205
108 71 231
109 71 296
110 71 310
111 71 330
112 71 228
113 71 521
114 71 700
115 71 1030
116 71 609
117 71 712
118 71 327
119 71 289
120 71 170
121 71 1125
122 71 800
123 71 303
124 71 547
125 71 482
126 71 783
127 71 200
128 71 413
129 71 120
130 71 346
131 71 7
132 71 657
133 71 729
134 71 602
135 71 557
136 71 1114
137 71 839
138 71 424
139 71 602
140 71 329
141 71 746
142 71 1715
143 71 940
144 71 202
145 71 884
146 71 19
147 71 1019
148 71 430
149 71 684
150 71 635
151 71 147
152 71 573
153 71 502
154 71 702
155 71 955
157 71 558
158 71 520
159 71 309
160 71 344
161 71 58
162 71 498
163 71 551
164 71 614
165 71 249
166 71 458
167 71 449
168 71 1159
169 71 486
170 71 556
171 71 614
172 71 682
173 71 1831
174 71 449
175 71 340
176 71 573
177 71 733
178 71 168
179 71 7
180 71 342
181 71 1025
182 71 760
183 71 1031
184 71 124
185 71 262
186 71 798
187 71 432
188 71 427
189 71 420
190 71 276
191 71 240
192 71 56
193 71 855
194 71 528
195 71 490
196 71 292
197 71 78
198 71 78
199 71 934
200 71 260
201 71 768
202 71 1124
203 71 159
204 71 1021
206 71 548
207 71 838
208 71 852
209 71 309
210 71 330
211 71 1500
212 71 798
213 71 502
214 71 182
215 71 1638
216 71 840
217 71 692
218 71 666
219 71 171
220 71 477
221 71 472
222 71 314
223 71 201
224 71 950
225 71 271
226 71 82
227 71 1426
228 71 539
229 71 1163
230 71 559
231 71 356
232 71 450
233 71 296
234 71 318
235 71 339
236 71 372
237 71 1072
238 71 876
240 71 574
241 71 724
242 71 164
243 71 1181
244 71 439
245 71 721
246 71 921
247 71 1379
248 71 411
249 71 186
250 71 144
251 71 1380
252 71 294
253 71 624
254 71 534
255 71 749
256 71 227
257 71 206
258 71 238
259 71 273
260 71 24
261 71 383
262 71 377
263 71 5
264 71 248
265 71 113
266 71 699
267 71 496
268 71 451
269 71 718
270 71 659
271 71 446
272 71 807
273 71 286
274 71 51
275 71 188
276 71 522
277 71 668
278 71 443
279 71 334
280 71 579
281 71 729
282 71 430
283 71 255
284 71 586
285 71 1527
286 71 840
287 71 551
288 71 690
289 71 150
290 71 299
291 71 1207
292 71 318
294 71 342
295 71 590
296 71 308
297 71 434
298 71 171
299 71 211
300 71 1072
301 71 903
302 71 648
303 71 443
304 71 429
305 71 394
306 71 784
307 71 166
308 71 620
309 71 967
310 71 733
311 71 176
312 71 244
313 71 368
314 71 343
315 71 499
317 71 452
318 71 254
320 71 643
321 71 358
322 71 835
324 71 1097
325 71 436
326 71 321
327 71 802
328 71 1158
329 71 553
330 71 295
331 71 303
332 71 973
333 71 556
334 71 442
335 71 401
336 71 1381
337 71 623
338 71 462
339 71 398
340 71 1364
341 71 513
342 71 1182
343 71 511
344 71 324
345 71 44
346 71 795
347 71 557
348 71 760
349 71 259
350 71 338
351 71 636
352 71 18
353 71 583
354 71 289
355 71 757
356 71 1325
358 71 600
359 71 251
360 71 1115
361 71 311
362 71 576
363 71 559
364 71 506
365 71 453
366 71 683
367 71 861
368 71 228
369 71 999
370 71 310
371 71 590
372 71 1101
374 71 657
375 71 761
376 71 505
378 71 873
379 71 469
380 71 984
381 71 262
382 71 121
383 71 312
384 71 661
385 71 386
386 71 1824
387 71 316
388 71 869
389 71 664
391 71 854
392 71 1047
393 71 567
395 71 700
396 71 925
397 71 1237
398 71 126
399 71 307
400 71 700
401 71 814
402 71 254
403 71 431
404 71 371
405 71 997
406 71 69
407 71 70
408 71 520
409 71 398
410 71 275
411 71 1095
412 71 478
413 71 645
414 71 245
415 71 433
416 71 335
417 71 207
418 71 232
419 71 504
420 71 749
421 71 547
422 71 800
424 71 202
425 71 699
426 71 6
427 71 609
428 71 1037
429 71 352
430 71 627
431 71 1856
432 71 573
433 71 111
434 71 1335
435 71 210
436 71 1274
437 71 484
438 71 693
439 71 763
440 71 265
441 71 1586
442 71 1193
443 71 190
444 71 7
445 71 242
446 71 169
447 71 936
448 71 754
449 71 461
450 71 32
451 71 1068
452 71 1121
453 71 501
455 71 398
456 71 1155
457 71 471
458 71 473
459 71 190
460 71 338
461 71 602
462 71 553
463 71 388
464 71 317
467 71 324
468 71 282
469 71 1079
470 71 257
471 71 1214
472 71 53
473 71 305
474 71 377
475 71 1191
476 71 281
477 71 50
478 71 489
479 71 1118
480 71 200
481 71 643
482 71 701
483 71 389
484 71 254
485 71 543
486 71 975
487 71 149
488 71 296
489 71 353
490 71 941
491 71 514
492 71 641
493 71 296
494 71 562
495 71 474
496 71 340
497 71 580
498 71 582
499 71 198
500 71 570
19 72 747
24 72 708
31 72 176
53 72 346
79 72 892
86 72 6
96 72 1065
100 72 186
131 72 967
146 72 739
156 72 538
161 72 10
179 72 929
205 72 258
239 72 780
260 72 147
263 72 1007
274 72 11
293 72 827
316 72 211
319 72 490
323 72 199
345 72 11
352 72 123
357 72 641
373 72 198
377 72 289
390 72 801
394 72 201
423 72 737
426 72 1096
444 72 1115
450 72 117
454 72 530
465 72 312
466 72 251
472 72 13
477 72 13
19 73 3691
24 73 2222
31 73 1714
53 73 337
79 73 2799
84 73 10
86 73 61
96 73 2799
100 73 1605
131 73 2249
146 73 3950
149 73 5
156 73 1774
161 73 59
179 73 2327
205 73 1647
239 73 1071
260 73 87
263 73 2449
274 73 50
293 73 1083
316 73 2079
319 73 1849
323 73 1659
345 73 65
352 73 88
357 73 2268
373 73 2181
377 73 2351
390 73 1114
394 73 1635
423 73 1131
426 73 2761
444 73 2857
450 73 105
454 73 2382
465 73 2457
466 73 2523
472 73 53
477 73 54
19 74 798
24 74 2940
31 74 1526
53 74 2005
79 74 765
86 74 54
96 74 4634
100 74 1547
131 74 3417
146 74 820
156 74 2178
161 74 57
179 74 3385
205 74 779
239 74 1828
260 74 505
263 74 3064
274 74 44
293 74 1865
316 74 1868
319 74 2191
323 74 1563
345 74 55
352 74 480
357 74 2302
373 74 1876
377 74 1416
390 74 1867
394 74 1501
423 74 1926
426 74 4842
444 74 4833
450 74 469
454 74 2064
465 74 1415
466 74 1461
472 74 56
477 74 66
19 75 2353
24 75 4310
31 75 2386
53 75 1710
72 75 2
79 75 2663
86 75 130
96 75 3263
100 75 2378
131 75 1742
146 75 2362
156 75 1730
159 75 4
161 75 141
175 75 2
179 75 1618
205 75 3139
222 75 4
239 75 1963
260 75 1417
263 75 2528
274 75 152
293 75 1988
316 75 2127
319 75 1727
323 75 2412
345 75 117
352 75 1504
353 75 3
357 75 3047
373 75 2170
377 75 3283
390 75 2021
394 75 2382
423 75 2022
426 75 3514
444 75 3514
450 75 1475
454 75 3384
465 75 3443
466 75 3315
472 75 114
473 75 1
477 75 135
488 75 1
496 75 7
10 76 1587
12 76 1317
15 76 1703
21 76 2388
28 76 2351
38 76 2419
40 76 991
46 76 1806
48 76 55
51 76 1826
61 76 1837
81 76 1689
84 76 2254
85 76 2434
97 76 2802
108 76 992
122 76 85
124 76 1261
126 76 1022
132 76 2545
139 76 1619
149 76 1549
150 76 1113
162 76 1792
165 76 1811
174 76 849
176 76 566
177 76 927
186 76 1350
187 76 1670
188 76 789
199 76 1223
211 76 1758
214 76 2095
224 76 400
231 76 1222
234 76 495
235 76 2319
243 76 3104
256 76 1646
257 76 1647
258 76 1527
264 76 1780
270 76 1541
273 76 1265
278 76 1743
284 76 1406
285 76 1470
296 76 905
298 76 1135
299 76 460
303 76 1375
304 76 294
325 76 763
326 76 1801
332 76 354
334 76 2300
356 76 972
371 76 27
382 76 2682
386 76 1034
399 76 124
400 76 1037
415 76 1486
427 76 1495
433 76 1829
453 76 2715
457 76 2443
462 76 1362
467 76 3417
476 76 1282
498 76 1680
1 77 1284
2 77 660
3 77 325
4 77 295
5 77 932
6 77 1099
7 77 1034
8 77 1010
9 77 1095
10 77 20
11 77 959
12 77 10
13 77 894
14 77 526
16 77 775
17 77 1126
18 77 481
19 77 1416
20 77 134
21 77 3
22 77 1336
23 77 1023
24 77 302
25 77 294
26 77 1013
27 77 654
29 77 682
30 77 101
31 77 1592
32 77 810
33 77 1154
34 77 526
35 77 344
36 77 894
37 77 439
38 77 2
39 77 837
40 77 2
41 77 668
42 77 511
43 77 1063
44 77 886
45 77 896
46 77 2
47 77 1020
48 77 538
49 77 344
50 77 326
52 77 432
53 77 1095
54 77 306
55 77 794
56 77 756
57 77 659
58 77 570
59 77 93
60 77 1006
61 77 40
62 77 177
63 77 861
64 77 498
65 77 1005
66 77 758
67 77 1787
68 77 1115
69 77 251
70 77 525
71 77 571
72 77 1006
73 77 1013
74 77 608
75 77 103
76 77 345
77 77 687
78 77 1194
79 77 1505
80 77 161
81 77 19
82 77 724
83 77 1031
85 77 9
86 77 663
87 77 413
88 77 404
89 77 1329
90 77 671
91 77 374
92 77 204
93 77 710
94 77 931
95 77 1174
96 77 636
98 77 965
99 77 312
100 77 1528
101 77 1662
102 77 272
103 77 235
104 77 527
105 77 482
106 77 125
107 77 178
108 77 17
109 77 798
110 77 823
111 77 341
112 77 808
113 77 704
114 77 431
115 77 157
116 77 948
117 77 291
118 77 1300
119 77 566
120 77 541
121 77 895
122 77 974
123 77 499
124 77 9
125 77 566
126 77 144
127 77 129
128 77 701
129 77 1119
130 77 371
131 77 948
132 77 3
133 77 491
134 77 708
135 77 607
136 77 596
137 77 177
138 77 593
140 77 820
141 77 677
142 77 649
143 77 472
144 77 853
145 77 1240
146 77 1402
147 77 584
148 77 649
150 77 25
151 77 52
152 77 511
153 77 415
154 77 178
155 77 1487
156 77 397
157 77 107
158 77 1342
159 77 999
160 77 847
161 77 663
163 77 769
164 77 1258
165 77 8
166 77 570
167 77 953
168 77 506
169 77 798
170 77 715
171 77 356
172 77 330
173 77 1308
174 77 52
175 77 949
176 77 697
177 77 23
178 77 494
179 77 960
180 77 444
181 77 567
182 77 701
183 77 225
184 77 401
185 77 458
186 77 6
187 77 44
188 77 8
189 77 815
190 77 585
191 77 1051
192 77 994
193 77 171
194 77 436
195 77 574
196 77 585
197 77 300
198 77 237
200 77 635
201 77 447
202 77 242
203 77 1187
204 77 321
205 77 981
206 77 429
207 77 823
208 77 169
209 77 399
210 77 1261
212 77 794
213 77 170
214 77 8
215 77 673
216 77 449
217 77 1548
218 77 724
219 77 245
220 77 1052
221 77 461
222 77 1006
223 77 866
224 77 275
225 77 509
226 77 1255
227 77 381
228 77 645
229 77 236
230 77 367
231 77 12
232 77 738
233 77 660
234 77 582
235 77 4
236 77 600
237 77 462
238 77 640
239 77 272
240 77 1808
241 77 523
242 77 347
244 77 257
245 77 666
246 77 1027
247 77 766
248 77 895
249 77 251
250 77 711
251 77 785
252 77 644
253 77 106
254 77 755
255 77 724
259 77 512
260 77 1001
261 77 1524
262 77 298
263 77 1898
265 77 1153
266 77 347
267 77 545
268 77 899
269 77 602
270 77 9
271 77 469
272 77 1157
274 77 668
275 77 1000
276 77 729
277 77 730
278 77 24
279 77 380
280 77 406
281 77 607
282 77 704
283 77 558
284 77 3
285 77 5
286 77 299
287 77 456
288 77 619
289 77 1002
290 77 215
291 77 1955
292 77 788
293 77 276
294 77 1489
295 77 434
296 77 3
297 77 433
299 77 39
300 77 567
301 77 653
302 77 771
303 77 51
304 77 279
305 77 1269
306 77 437
307 77 823
308 77 809
309 77 314
310 77 748
311 77 349
312 77 1007
313 77 763
314 77 551
315 77 462
316 77 1627
317 77 354
318 77 1270
319 77 322
320 77 1271
321 77 471
322 77 542
323 77 1588
324 77 1152
326 77 2
327 77 710
328 77 672
329 77 372
330 77 585
331 77 1516
332 77 272
333 77 97
334 77 37
335 77 303
336 77 399
337 77 564
338 77 709
339 77 1114
340 77 443
341 77 490
342 77 621
343 77 888
344 77 402
345 77 609
346 77 1083
347 77 209
348 77 628
349 77 716
350 77 484
351 77 333
352 77 946
353 77 954
354 77 449
355 77 853
356 77 3
357 77 1653
358 77 352
359 77 925
360 77 842
361 77 447
362 77 841
363 77 613
364 77 848
365 77 637
366 77 946
367 77 1237
368 77 819
369 77 600
370 77 525
371 77 370
372 77 836
373 77 1655
374 77 109
375 77 309
376 77 411
377 77 712
378 77 1234
379 77 381
380 77 607
381 77 452
383 77 1296
384 77 538
385 77 247
386 77 61
387 77 223
388 77 387
389 77 907
390 77 279
391 77 642
392 77 253
393 77 910
394 77 1563
395 77 371
396 77 614
397 77 200
398 77 703
399 77 1138
400 77 41
401 77 531
402 77 917
403 77 882
404 77 952
405 77 418
406 77 130
407 77 250
408 77 204
409 77 264
410 77 479
411 77 604
412 77 1007
413 77 448
414 77 526
415 77 4
416 77 1300
417 77 1305
418 77 574
419 77 277
420 77 877
421 77 396
422 77 414
423 77 278
424 77 878
425 77 417
426 77 611
427 77 6
428 77 598
429 77 578
430 77 700
431 77 1316
432 77 164
433 77 36
434 77 764
435 77 1248
436 77 735
437 77 911
438 77 202
439 77 397
440 77 606
441 77 641
442 77 621
443 77 699
444 77 582
445 77 282
446 77 1035
447 77 1634
448 77 580
449 77 301
450 77 993
451 77 575
452 77 1408
454 77 743
455 77 791
456 77 432
457 77 9
458 77 215
459 77 1018
460 77 349
461 77 646
462 77 4
463 77 1035
464 77 697
465 77 768
466 77 775
468 77 420
469 77 1435
470 77 372
471 77 965
472 77 652
473 77 1012
474 77 1677
475 77 772
476 77 10
477 77 595
478 77 434
479 77 880
480 77 634
481 77 325
482 77 794
483 77 1874
484 77 783
485 77 428
486 77 512
487 77 581
488 77 953
489 77 515
490 77 1362
491 77 564
492 77 616
493 77 319
494 77 1426
495 77 796
496 77 1002
497 77 95
498 77 6
499 77 599
500 77 474
10 78 637
12 78 604
15 78 1284
21 78 720
28 78 769
37 78 105
38 78 1354
40 78 1451
46 78 1789
48 78 82
51 78 1213
52 78 42
61 78 348
81 78 1191
84 78 1709
85 78 970
97 78 1670
108 78 314
122 78 250
124 78 1073
126 78 471
132 78 727
139 78 538
149 78 258
150 78 2556
162 78 1965
165 78 906
174 78 753
176 78 395
177 78 650
186 78 1224
187 78 1137
188 78 245
190 78 8
191 78 278
199 78 644
207 78 17
211 78 1173
214 78 1154
224 78 1349
231 78 579
234 78 82
235 78 1347
243 78 1952
256 78 1320
257 78 591
258 78 1908
264 78 554
270 78 1249
273 78 1701
278 78 738
284 78 524
285 78 462
287 78 47
291 78 84
296 78 527
298 78 1046
299 78 908
303 78 668
304 78 711
325 78 375
326 78 134
332 78 1308
334 78 1003
356 78 1482
371 78 865
382 78 360
386 78 328
399 78 1014
400 78 553
415 78 963
427 78 851
433 78 355
453 78 387
457 78 968
462 78 547
467 78 1376
476 78 1044
498 78 780
10 79 1442
12 79 1383
15 79 2388
21 79 2335
28 79 2191
38 79 1437
40 79 2104
46 79 1552
48 79 38
51 79 3096
61 79 2824
81 79 268
84 79 1602
85 79 3038
97 79 1654
108 79 1227
122 79 56
124 79 1352
126 79 538
132 79 2615
139 79 2328
149 79 1353
150 79 168
162 79 1881
165 79 2106
174 79 849
176 79 115
177 79 1631
181 79 4
186 79 2825
187 79 259
188 79 1534
199 79 2105
207 79 5
211 79 3048
214 79 3234
224 79 50
231 79 1412
234 79 19
235 79 1492
243 79 1960
256 79 2230
257 79 1347
258 79 1528
264 79 1422
270 79 771
273 79 2067
278 79 1632
284 79 761
285 79 1560
296 79 1403
298 79 1593
299 79 435
303 79 210
304 79 41
325 79 1561
326 79 1603
332 79 36
334 79 1267
356 79 2151
371 79 4
382 79 958
386 79 1319
399 79 7
400 79 1325
415 79 1180
427 79 444
433 79 2919
453 79 2869
457 79 2953
462 79 750
467 79 2378
476 79 1504
492 79 1
498 79 887
1 80 927
2 80 1195
3 80 989
5 80 788
6 80 954
7 80 1462
8 80 999
9 80 1600
10 80 328
11 80 1254
12 80 1188
14 80 545
15 80 1157
16 80 588
17 80 584
18 80 813
19 80 444
21 80 1163
22 80 968
24 80 1705
26 80 1481
27 80 1543
28 80 565
30 80 940
31 80 1296
33 80 1839
34 80 1394
36 80 667
37 80 1673
38 80 1357
39 80 1322
40 80 1254
41 80 1795
42 80 907
43 80 564
44 80 1110
45 80 615
46 80 1125
47 80 1045
48 80 728
49 80 1188
51 80 957
52 80 1045
53 80 1058
55 80 71
56 80 639
57 80 1545
58 80 822
59 80 941
60 80 1214
61 80 589
63 80 1021
65 80 544
66 80 921
67 80 1504
68 80 503
69 80 233
70 80 465
72 80 1015
73 80 840
74 80 864
75 80 938
76 80 778
77 80 563
78 80 296
79 80 1016
81 80 700
83 80 547
84 80 1584
85 80 1682
86 80 1521
87 80 1401
88 80 294
89 80 252
90 80 697
93 80 1034
94 80 2578
95 80 960
96 80 501
97 80 1729
98 80 561
99 80 4
100 80 1274
101 80 1413
102 80 1073
104 80 614
105 80 556
106 80 964
108 80 1388
110 80 594
111 80 1197
114 80 770
115 80 146
116 80 214
117 80 613
118 80 199
121 80 654
122 80 1071
124 80 586
125 80 562
126 80 1487
127 80 401
128 80 769
129 80 514
130 80 1307
131 80 1704
132 80 240
133 80 1584
134 80 337
136 80 1306
137 80 782
138 80 269
139 80 1387
141 80 1317
142 80 1043
143 80 481
144 80 556
145 80 375
146 80 434
147 80 531
148 80 891
149 80 390
150 80 1141
151 80 760
152 80 1108
153 80 172
154 80 836
155 80 421
156 80 579
158 80 1238
159 80 1059
160 80 1010
161 80 1497
162 80 837
163 80 362
164 80 879
165 80 1264
166 80 384
169 80 601
170 80 401
173 80 335
174 80 774
175 80 962
176 80 1729
177 80 980
179 80 1712
181 80 675
182 80 1114
185 80 1113
186 80 757
187 80 657
188 80 174
189 80 988
190 80 1034
191 80 680
193 80 829
194 80 264
195 80 1795
196 80 1642
197 80 103
199 80 1313
200 80 321
202 80 335
203 80 1033
204 80 619
205 80 1817
206 80 407
207 80 591
208 80 720
209 80 1257
210 80 1543
211 80 1093
212 80 971
213 80 1057
214 80 1364
215 80 1043
216 80 466
217 80 1102
218 80 299
220 80 566
222 80 1025
224 80 664
225 80 823
226 80 727
227 80 134
229 80 363
231 80 1156
232 80 415
233 80 254
234 80 391
235 80 1320
237 80 853
238 80 128
239 80 1652
240 80 871
241 80 911
242 80 894
243 80 285
245 80 548
246 80 1365
247 80 1121
251 80 1347
252 80 1052
253 80 1032
254 80 579
255 80 929
256 80 809
257 80 747
258 80 794
259 80 1111
260 80 1495
261 80 641
263 80 1438
264 80 739
265 80 716
267 80 348
268 80 553
269 80 1428
270 80 1468
271 80 936
272 80 318
273 80 861
274 80 1495
275 80 1518
276 80 1482
278 80 1166
279 80 1293
280 80 1386
281 80 461
284 80 637
285 80 2218
287 80 1039
288 80 1611
289 80 1484
291 80 952
292 80 921
293 80 1640
294 80 275
295 80 756
296 80 1137
297 80 1037
298 80 2013
299 80 1150
300 80 864
301 80 3
302 80 796
303 80 697
304 80 713
305 80 1860
307 80 569
308 80 141
309 80 1088
310 80 1712
311 80 900
312 80 941
313 80 1255
314 80 435
316 80 1496
317 80 468
318 80 288
319 80 570
320 80 576
321 80 1035
323 80 1335
324 80 482
325 80 837
326 80 1262
327 80 92
328 80 1229
330 80 663
331 80 1136
332 80 634
334 80 716
336 80 121
337 80 262
338 80 543
339 80 706
340 80 402
342 80 1276
343 80 589
344 80 1266
345 80 1620
346 80 1156
347 80 793
348 80 1252
349 80 1504
350 80 894
352 80 1508
354 80 1133
355 80 1667
356 80 1193
357 80 1297
358 80 30
359 80 381
360 80 1955
361 80 1124
362 80 986
364 80 1208
365 80 282
366 80 1153
367 80 2321
368 80 735
369 80 592
370 80 644
371 80 819
372 80 1954
373 80 1479
374 80 922
375 80 1710
377 80 294
378 80 1804
379 80 775
380 80 597
381 80 1101
382 80 629
384 80 651
385 80 203
386 80 1393
388 80 841
390 80 1666
391 80 118
393 80 206
394 80 1324
395 80 957
396 80 446
397 80 1197
398 80 1070
399 80 845
400 80 608
401 80 609
402 80 375
403 80 225
404 80 859
405 80 800
411 80 1293
412 80 545
413 80 163
414 80 517
415 80 794
416 80 1509
417 80 675
418 80 1643
419 80 1449
420 80 1091
423 80 1642
425 80 295
426 80 512
427 80 451
428 80 581
429 80 441
430 80 1125
431 80 992
432 80 746
433 80 636
434 80 797
435 80 1017
436 80 864
437 80 556
439 80 788
440 80 412
441 80 1025
442 80 81
443 80 191
444 80 506
446 80 1394
448 80 883
449 80 1881
450 80 1482
451 80 909
452 80 808
453 80 651
454 80 1069
455 80 1246
457 80 612
459 80 1514
460 80 1259
462 80 674
463 80 1032
464 80 816
465 80 304
466 80 301
467 80 2941
469 80 2313
471 80 652
472 80 1547
473 80 995
474 80 1855
475 80 941
476 80 1665
477 80 1528
478 80 244
479 80 389
481 80 904
482 80 790
483 80 1994
485 80 268
486 80 762
487 80 639
488 80 1015
489 80 791
490 80 1137
491 80 840
492 80 779
494 80 1445
496 80 931
498 80 1535
499 80 812
500 80 316
3 81 10
4 81 638
9 81 3
10 81 5
11 81 2
12 81 3
13 81 1508
16 81 4
17 81 33
19 81 2
20 81 732
23 81 291
24 81 4
25 81 1006
29 81 1116
32 81 1385
35 81 1237
39 81 2
43 81 1
50 81 2857
52 81 2
54 81 1804
55 81 24
57 81 4
58 81 2
62 81 1584
64 81 1539
66 81 2
68 81 23
69 81 14
71 81 1154
72 81 9
74 81 2
79 81 2
80 81 890
82 81 1612
83 81 12
85 81 2
86 81 2
91 81 961
92 81 1309
97 81 3
98 81 4
99 81 150
103 81 1208
105 81 2
107 81 894
108 81 6
109 81 1224
110 81 6
112 81 1221
113 81 2331
115 81 7
116 81 34
117 81 4
119 81 1100
120 81 1389
123 81 592
125 81 10
126 81 4
134 81 24
135 81 989
139 81 8
140 81 1082
141 81 8
146 81 6
148 81 8
150 81 3
151 81 5
153 81 20
154 81 2
156 81 16
157 81 1200
159 81 5
160 81 11
161 81 2
162 81 2
163 81 17
164 81 5
166 81 3
167 81 1034
168 81 1189
169 81 7
170 81 20
171 81 1840
172 81 1233
174 81 8
175 81 2
176 81 5
178 81 1495
180 81 1931
182 81 6
183 81 1405
184 81 1211
186 81 4
188 81 4
192 81 1272
194 81 16
197 81 9
198 81 1984
199 81 6
200 81 15
201 81 1274
202 81 1
205 81 3
210 81 7
211 81 4
212 81 1
213 81 5
214 81 4
216 81 6
218 81 2
219 81 1228
220 81 9
221 81 757
222 81 2
223 81 1288
224 81 11
227 81 11
228 81 1085
230 81 1427
231 81 8
234 81 6
236 81 1104
237 81 2
238 81 24
243 81 11
244 81 1470
248 81 842
249 81 1252
250 81 1743
252 81 3
262 81 2850
263 81 7
266 81 1154
267 81 7
269 81 15
270 81 10
272 81 3
273 81 18
274 81 4
277 81 1380
282 81 1048
283 81 1606
286 81 1879
287 81 7
288 81 4
290 81 2005
301 81 137
306 81 1276
308 81 13
309 81 2
315 81 797
319 81 13
322 81 1666
324 81 25
325 81 3
326 81 3
327 81 28
329 81 922
330 81 10
332 81 11
333 81 862
334 81 7
335 81 880
336 81 12
337 81 4
340 81 10
341 81 1013
345 81 3
346 81 3
349 81 3
351 81 1827
353 81 993
357 81 8
358 81 54
359 81 7
362 81 4
363 81 1324
368 81 4
369 81 5
370 81 4
371 81 1
376 81 1178
380 81 2
383 81 1338
385 81 3
387 81 995
389 81 1335
391 81 2
392 81 1874
393 81 33
395 81 8
396 81 9
397 81 20
400 81 1
402 81 4
403 81 4
404 81 5
406 81 1187
407 81 1989
408 81 1038
409 81 1212
410 81 1142
412 81 18
413 81 9
416 81 6
421 81 639
422 81 1682
424 81 1084
425 81 20
428 81 4
435 81 4
438 81 1075
442 81 20
443 81 8
445 81 1661
447 81 1078
456 81 1347
457 81 12
458 81 1288
461 81 1405
468 81 845
470 81 1403
471 81 6
472 81 4
473 81 7
475 81 7
477 81 2
478 81 8
480 81 222
484 81 1262
485 81 12
487 81 2
488 81 6
489 81 4
491 81 1
493 81 925
495 81 1031
496 81 4
497 81 845
498 81 4
1 82 397
2 82 709
3 82 1212
5 82 644
6 82 481
7 82 858
8 82 519
9 82 259
10 82 192
11 82 437
12 82 321
14 82 447
15 82 386
16 82 332
17 82 1009
18 82 127
19 82 451
21 82 642
22 82 1016
23 82 374
24 82 129
26 82 872
27 82 565
28 82 390
29 82 813
30 82 948
31 82 561
33 82 971
34 82 1157
36 82 254
37 82 355
38 82 271
39 82 122
40 82 585
41 82 1033
42 82 129
43 82 676
44 82 963
45 82 570
46 82 1459
47 82 269
48 82 805
49 82 366
51 82 300
52 82 516
53 82 350
54 82 75
55 82 182
56 82 75
57 82 581
58 82 277
59 82 978
60 82 816
61 82 704
63 82 633
65 82 377
66 82 443
67 82 767
68 82 248
69 82 655
70 82 939
72 82 406
73 82 210
74 82 575
75 82 928
76 82 283
77 82 676
78 82 108
79 82 329
81 82 321
82 82 4
83 82 291
84 82 703
85 82 770
86 82 180
87 82 1182
88 82 496
89 82 1338
90 82 1981
93 82 916
94 82 238
95 82 219
96 82 394
97 82 491
98 82 373
99 82 490
100 82 592
101 82 785
102 82 745
104 82 1122
105 82 641
106 82 1010
108 82 881
110 82 122
111 82 122
114 82 761
115 82 789
116 82 398
117 82 730
118 82 995
121 82 248
122 82 160
124 82 765
125 82 256
126 82 1118
127 82 551
128 82 956
129 82 1215
130 82 128
131 82 1195
132 82 130
133 82 642
134 82 447
136 82 549
137 82 191
138 82 692
139 82 118
140 82 227
141 82 552
142 82 287
143 82 364
144 82 789
145 82 358
146 82 437
147 82 187
148 82 604
149 82 1274
150 82 725
151 82 425
152 82 995
153 82 573
154 82 273
155 82 187
156 82 1022
158 82 152
159 82 386
160 82 223
161 82 153
162 82 639
163 82 163
164 82 176
165 82 438
166 82 363
168 82 302
169 82 294
170 82 420
171 82 60
173 82 394
174 82 1003
175 82 365
176 82 1374
177 82 945
178 82 4
179 82 1271
181 82 735
182 82 365
185 82 217
186 82 136
187 82 284
188 82 180
189 82 270
190 82 792
191 82 618
193 82 144
194 82 908
195 82 301
196 82 1074
197 82 938
199 82 918
200 82 350
202 82 558
203 82 1272
204 82 664
205 82 1401
206 82 284
207 82 128
208 82 176
209 82 113
210 82 186
211 82 424
212 82 266
213 82 591
214 82 164
215 82 313
216 82 265
217 82 210
218 82 176
220 82 262
222 82 342
224 82 661
225 82 103
226 82 732
227 82 232
229 82 134
231 82 342
232 82 1542
233 82 257
234 82 282
235 82 267
237 82 725
238 82 160
239 82 237
240 82 352
241 82 1534
242 82 446
243 82 283
245 82 705
246 82 410
247 82 1030
248 82 42
251 82 1182
252 82 382
253 82 960
254 82 505
255 82 1479
256 82 454
257 82 1054
258 82 1288
259 82 208
260 82 780
261 82 2392
263 82 291
264 82 1081
265 82 695
267 82 379
268 82 224
269 82 537
270 82 99
271 82 387
272 82 224
273 82 464
274 82 153
275 82 831
276 82 327
278 82 123
279 82 114
280 82 1177
281 82 311
284 82 697
285 82 527
287 82 531
288 82 257
289 82 847
290 82 305
291 82 95
292 82 512
293 82 248
294 82 255
295 82 344
296 82 228
297 82 330
298 82 1247
299 82 402
300 82 966
301 82 569
302 82 223
303 82 636
304 82 753
305 82 154
307 82 826
308 82 561
309 82 281
310 82 737
311 82 454
312 82 258
313 82 965
314 82 276
316 82 972
317 82 660
318 82 144
319 82 1043
320 82 590
321 82 350
322 82 3
323 82 567
324 82 257
325 82 204
326 82 148
327 82 177
328 82 600
330 82 309
331 82 1210
332 82 617
334 82 578
336 82 271
337 82 130
338 82 340
339 82 420
340 82 847
342 82 561
343 82 105
344 82 132
345 82 139
346 82 900
347 82 327
348 82 691
349 82 133
350 82 108
351 82 65
352 82 699
354 82 235
355 82 231
356 82 553
357 82 1238
358 82 115
359 82 165
360 82 1223
361 82 190
362 82 1307
364 82 693
365 82 742
366 82 172
367 82 88
368 82 306
369 82 251
370 82 434
371 82 669
372 82 1212
373 82 987
374 82 938
375 82 1004
377 82 1438
378 82 109
379 82 405
380 82 692
381 82 231
382 82 582
383 82 45
384 82 224
385 82 180
386 82 229
388 82 578
389 82 267
390 82 271
391 82 1221
392 82 251
393 82 399
394 82 568
395 82 1220
396 82 270
397 82 402
398 82 532
399 82 491
400 82 635
401 82 338
402 82 149
403 82 770
404 82 572
405 82 663
411 82 543
412 82 262
413 82 1241
414 82 598
415 82 89
416 82 181
417 82 431
418 82 987
419 82 804
420 82 579
423 82 237
425 82 338
426 82 439
427 82 242
428 82 252
429 82 304
430 82 941
431 82 551
432 82 348
433 82 768
434 82 127
435 82 1114
436 82 116
437 82 234
439 82 753
440 82 424
441 82 302
442 82 565
443 82 664
444 82 413
446 82 882
448 82 1467
449 82 967
450 82 724
451 82 893
452 82 533
453 82 343
454 82 655
455 82 815
456 82 240
457 82 261
459 82 854
460 82 112
462 82 749
463 82 521
464 82 926
465 82 1383
466 82 1498
467 82 362
469 82 440
471 82 248
472 82 143
473 82 401
474 82 857
475 82 454
476 82 448
477 82 142
478 82 921
479 82 1585
480 82 825
481 82 752
482 82 212
483 82 446
485 82 964
486 82 866
487 82 955
488 82 375
489 82 87
490 82 354
491 82 275
492 82 807
494 82 341
496 82 395
498 82 517
499 82 645
500 82 413
1 83 4
2 83 25
4 83 510
5 83 4
6 83 6
7 83 22
8 83 20
9 83 7
10 83 8
11 83 12
12 83 11
13 83 818
14 83 6
16 83 6
19 83 30
20 83 424
21 83 5
22 83 14
23 83 371
24 83 9
25 83 545
26 83 17
27 83 10
28 83 5
29 83 769
30 83 3
31 83 6
32 83 979
34 83 4
35 83 554
36 83 3
38 83 3
39 83 16
40 83 4
41 83 25
42 83 6
43 83 7
44 83 11
45 83 14
46 83 4
47 83 8
48 83 2
49 83 20
50 83 607
52 83 6
54 83 390
55 83 48
56 83 20
57 83 11
58 83 1
59 83 2
60 83 5
62 83 888
64 83 516
65 83 79
67 83 13
68 83 4
69 83 18
71 83 257
73 83 8
74 83 5
75 83 3
76 83 2
77 83 26
78 83 7
79 83 95
80 83 516
81 83 2
82 83 627
83 83 33
84 83 25
86 83 54
87 83 3
88 83 11
89 83 70
91 83 954
92 83 1667
93 83 20
94 83 22
95 83 8
96 83 12
97 83 4
98 83 66
99 83 515
100 83 5
101 83 24
102 83 10
103 83 616
104 83 9
105 83 16
106 83 5
107 83 1088
108 83 2
109 83 1238
110 83 1
111 83 19
112 83 675
113 83 490
114 83 10
115 83 10
116 83 2
117 83 3
118 83 43
119 83 405
120 83 931
121 83 6
123 83 649
125 83 20
127 83 11
128 83 32
129 83 7
130 83 23
131 83 25
132 83 6
134 83 47
135 83 610
136 83 9
137 83 9
138 83 35
140 83 164
142 83 50
143 83 9
144 83 38
145 83 40
146 83 27
147 83 2
148 83 8
149 83 9
150 83 1
152 83 8
153 83 12
154 83 10
155 83 5
156 83 39
157 83 947
158 83 2
160 83 10
161 83 41
162 83 29
163 83 5
165 83 17
166 83 36
167 83 508
168 83 1028
169 83 7
170 83 40
171 83 378
172 83 358
173 83 16
174 83 14
176 83 5
178 83 907
179 83 21
180 83 1290
182 83 7
183 83 858
184 83 711
185 83 3
187 83 8
188 83 11
191 83 10
192 83 569
193 83 6
194 83 54
197 83 63
198 83 994
199 83 19
200 83 26
201 83 795
202 83 13
203 83 18
204 83 13
205 83 21
206 83 20
207 83 5
208 83 11
209 83 25
211 83 10
212 83 8
214 83 3
215 83 53
216 83 23
217 83 14
218 83 18
219 83 1142
220 83 52
221 83 640
223 83 949
224 83 6
226 83 14
227 83 5
228 83 582
229 83 5
230 83 366
231 83 7
232 83 3
233 83 2
234 83 2
235 83 3
236 83 680
237 83 10
238 83 73
239 83 24
241 83 8
242 83 8
243 83 43
244 83 396
245 83 33
246 83 4
248 83 1167
249 83 1170
250 83 1853
251 83 26
252 83 10
253 83 4
254 83 22
255 83 7
256 83 3
257 83 15
258 83 19
259 83 6
260 83 10
261 83 13
262 83 599
263 83 9
264 83 8
265 83 22
266 83 346
267 83 44
268 83 7
270 83 45
271 83 7
272 83 8
273 83 7
274 83 41
275 83 15
276 83 17
277 83 861
278 83 60
279 83 22
280 83 17
281 83 22
282 83 881
283 83 501
284 83 11
286 83 714
287 83 7
288 83 14
289 83 20
290 83 1021
291 83 50
292 83 16
293 83 20
294 83 30
297 83 3
298 83 11
299 83 18
300 83 7
301 83 303
302 83 7
303 83 3
304 83 11
305 83 41
306 83 754
307 83 36
308 83 92
309 83 4
310 83 4
311 83 7
312 83 7
313 83 10
314 83 16
315 83 641
316 83 21
317 83 2
318 83 8
319 83 32
320 83 23
321 83 6
322 83 383
323 83 4
324 83 1
325 83 12
326 83 9
327 83 29
328 83 5
329 83 617
330 83 26
332 83 13
333 83 871
335 83 353
336 83 4
337 83 17
338 83 37
339 83 5
340 83 10
341 83 489
342 83 11
343 83 23
344 83 16
345 83 47
346 83 4
347 83 5
348 83 29
349 83 7
351 83 382
352 83 14
353 83 416
355 83 1
356 83 8
357 83 27
358 83 103
359 83 23
360 83 57
361 83 3
362 83 46
363 83 520
364 83 9
365 83 31
366 83 29
367 83 25
369 83 32
370 83 12
371 83 27
372 83 66
373 83 20
374 83 2
375 83 3
376 83 565
377 83 15
378 83 21
379 83 5
380 83 7
381 83 3
382 83 74
383 83 962
385 83 2
386 83 4
387 83 653
388 83 7
389 83 1241
390 83 23
391 83 39
392 83 1364
393 83 3
394 83 9
396 83 23
397 83 2
399 83 68
400 83 7
402 83 25
403 83 47
404 83 3
405 83 5
406 83 696
407 83 1003
408 83 549
409 83 579
410 83 1068
411 83 8
412 83 51
413 83 10
414 83 1
415 83 12
417 83 26
419 83 3
420 83 38
421 83 549
422 83 455
423 83 21
424 83 536
425 83 13
426 83 7
427 83 2
428 83 36
429 83 13
430 83 11
431 83 111
432 83 3
433 83 4
434 83 14
435 83 20
436 83 5
437 83 12
438 83 819
439 83 5
440 83 23
441 83 54
442 83 53
443 83 66
444 83 13
445 83 907
446 83 19
447 83 1038
448 83 6
450 83 13
451 83 15
452 83 13
454 83 42
455 83 16
456 83 335
458 83 415
459 83 18
460 83 29
461 83 390
462 83 14
463 83 28
464 83 11
465 83 14
466 83 17
467 83 4
468 83 545
469 83 27
470 83 745
471 83 3
472 83 45
474 83 8
476 83 9
477 83 49
478 83 51
479 83 64
480 83 372
482 83 3
483 83 5
484 83 646
485 83 55
486 83 42
487 83 9
489 83 44
491 83 5
492 83 31
493 83 305
494 83 9
495 83 889
497 83 836
498 83 3
499 83 25
500 83 3
1 84 1532
2 84 1826
3 84 748
5 84 1538
6 84 1405
7 84 1721
8 84 1048
9 84 1150
10 84 1556
11 84 1456
12 84 2241
14 84 1825
15 84 2896
16 84 2141
17 84 1196
18 84 968
19 84 3044
21 84 1790
22 84 1295
23 84 23
24 84 2902
26 84 1716
27 84 1959
28 84 2122
29 84 15
30 84 1647
31 84 2231
33 84 1385
34 84 650
36 84 2348
37 84 1152
38 84 1489
39 84 1224
40 84 1972
41 84 1568
42 84 1848
43 84 1264
44 84 1585
45 84 1873
46 84 662
47 84 2175
48 84 1496
49 84 846
51 84 2024
52 84 1594
53 84 1896
55 84 1393
56 84 611
57 84 1460
58 84 399
59 84 1707
60 84 1556
61 84 1501
63 84 3347
65 84 1314
66 84 1386
67 84 1533
68 84 1335
69 84 1471
70 84 1431
72 84 1772
73 84 1822
74 84 1268
75 84 1653
76 84 1653
77 84 1492
78 84 449
79 84 1464
81 84 1654
83 84 995
84 84 2172
85 84 2582
86 84 1693
87 84 1911
88 84 1051
89 84 2119
90 84 2117
93 84 1553
94 84 1739
95 84 952
96 84 1810
97 84 1449
98 84 1318
99 84 53
100 84 2250
101 84 2981
102 84 1541
104 84 869
105 84 1187
106 84 1600
108 84 1778
110 84 1443
111 84 2565
114 84 2041
115 84 948
116 84 1217
117 84 992
118 84 1151
121 84 763
122 84 1330
124 84 2154
125 84 1066
126 84 1553
127 84 1808
128 84 1780
129 84 2165
130 84 2594
131 84 2053
132 84 2009
133 84 2316
134 84 1751
136 84 1470
137 84 2041
138 84 1670
139 84 2332
140 84 6
141 84 1969
142 84 1089
143 84 2036
144 84 1053
145 84 1193
146 84 3080
147 84 2208
148 84 1273
149 84 2985
150 84 2077
151 84 1726
152 84 1673
153 84 1464
154 84 1348
155 84 3620
156 84 1374
158 84 1171
159 84 1718
160 84 1023
161 84 1683
162 84 850
163 84 1287
164 84 1756
165 84 2001
166 84 2042
169 84 2058
170 84 1840
173 84 1557
174 84 2755
175 84 1778
176 84 1698
177 84 4653
179 84 2105
181 84 1717
182 84 2131
185 84 2409
186 84 1503
187 84 1763
188 84 2444
189 84 2413
190 84 2774
191 84 2228
193 84 1994
194 84 983
195 84 1507
196 84 1521
197 84 1454
199 84 1406
200 84 885
202 84 2349
203 84 3038
204 84 2418
205 84 1763
206 84 868
207 84 1199
208 84 2019
209 84 2526
210 84 1298
211 84 2117
212 84 1605
213 84 1159
214 84 2366
215 84 1087
216 84 453
217 84 1165
218 84 1862
220 84 1054
222 84 1741
224 84 2273
225 84 995
226 84 1898
227 84 1579
229 84 2661
231 84 2295
232 84 3914
233 84 1323
234 84 2063
235 84 1465
237 84 991
238 84 713
239 84 1869
240 84 2837
241 84 1961
242 84 2614
243 84 1950
245 84 1462
246 84 3951
247 84 2296
251 84 2689
252 84 1744
253 84 1606
254 84 696
255 84 2146
256 84 3477
257 84 1758
258 84 2459
259 84 2517
260 84 1744
261 84 2079
263 84 3316
264 84 1759
265 84 1902
267 84 2112
268 84 1988
269 84 2005
270 84 1887
271 84 1038
272 84 1129
273 84 2076
274 84 1599
275 84 1786
276 84 1934
278 84 775
279 84 2575
280 84 1209
281 84 1556
284 84 2326
285 84 808
287 84 1538
288 84 2828
289 84 1740
291 84 2188
292 84 1119
293 84 1807
294 84 1314
295 84 1982
296 84 1183
297 84 1678
298 84 846
299 84 2099
300 84 2060
301 84 42
302 84 1527
303 84 1821
304 84 1562
305 84 3204
307 84 981
308 84 1658
309 84 1138
310 84 1887
311 84 2576
312 84 2181
313 84 1149
314 84 545
316 84 2063
317 84 2514
318 84 433
319 84 1355
320 84 1543
321 84 1663
323 84 2294
324 84 1311
325 84 589
326 84 2143
327 84 278
328 84 1498
330 84 1132
331 84 1712
332 84 2079
334 84 2032
336 84 1460
337 84 1229
338 84 573
339 84 588
340 84 2244
342 84 1489
343 84 2476
344 84 2475
345 84 1653
346 84 1386
347 84 1290
348 84 1838
349 84 1745
350 84 1005
352 84 1852
354 84 2546
355 84 1998
356 84 2055
357 84 1669
358 84 667
359 84 1770
360 84 1667
361 84 2471
362 84 1104
364 84 2641
365 84 1580
366 84 1399
367 84 1280
368 84 1761
369 84 1585
370 84 1416
371 84 2267
372 84 1605
373 84 2028
374 84 1698
375 84 1337
377 84 1152
378 84 1511
379 84 1922
380 84 1834
381 84 2408
382 84 1978
384 84 2080
385 84 1135
386 84 2205
388 84 1868
389 84 3
390 84 1913
391 84 1175
393 84 1185
394 84 2303
395 84 737
396 84 1280
397 84 2039
398 84 1369
399 84 1470
400 84 2099
401 84 1020
402 84 1787
403 84 1594
404 84 1541
405 84 811
411 84 1552
412 84 1035
413 84 1275
414 84 1639
415 84 2019
416 84 1251
417 84 2164
418 84 1805
419 84 2159
420 84 3311
423 84 1818
425 84 1209
426 84 1854
427 84 2425
428 84 1585
429 84 580
430 84 1641
431 84 2626
432 84 1287
433 84 1582
434 84 1854
435 84 1891
436 84 1808
437 84 2003
439 84 2029
440 84 567
441 84 1129
442 84 353
443 84 814
444 84 1892
446 84 1751
448 84 2065
449 84 1782
450 84 1652
451 84 2152
452 84 1568
453 84 690
454 84 2830
455 84 1914
457 84 1419
459 84 1704
460 84 2610
462 84 2234
463 84 1019
464 84 2592
465 84 1159
466 84 1090
467 84 2100
469 84 2729
471 84 1606
472 84 1603
473 84 1687
474 84 1541
475 84 1299
476 84 1338
477 84 1659
478 84 923
479 84 1860
480 84 47
481 84 2131
482 84 1510
483 84 1094
485 84 954
486 84 1064
487 84 2038
488 84 1748
489 84 1266
490 84 952
491 84 408
492 84 2182
494 84 2959
496 84 1767
498 84 1671
499 84 2271
500 84 967
1 85 493
2 85 327
3 85 498
4 85 58
5 85 1127
6 85 709
7 85 648
8 85 295
9 85 1039
10 85 1085
11 85 748
12 85 458
13 85 70
14 85 408
15 85 1077
16 85 756
17 85 420
18 85 510
19 85 855
21 85 1886
22 85 767
23 85 1182
24 85 570
25 85 518
26 85 613
27 85 726
28 85 1095
29 85 736
30 85 138
31 85 1007
32 85 509
33 85 734
34 85 712
35 85 165
36 85 160
37 85 938
38 85 497
39 85 626
40 85 1645
41 85 882
42 85 1501
43 85 223
44 85 648
45 85 996
46 85 975
47 85 869
48 85 1397
49 85 957
50 85 106
51 85 1435
52 85 842
53 85 1500
54 85 412
55 85 171
56 85 280
57 85 461
58 85 626
59 85 151
60 85 1264
61 85 1413
62 85 399
63 85 916
64 85 436
65 85 539
66 85 614
67 85 163
68 85 873
69 85 284
70 85 185
71 85 323
72 85 1011
73 85 476
74 85 485
75 85 148
76 85 439
77 85 580
78 85 755
79 85 1025
81 85 456
82 85 502
83 85 724
84 85 225
85 85 856
86 85 2100
87 85 902
88 85 353
89 85 958
90 85 755
91 85 586
92 85 483
93 85 965
94 85 794
95 85 777
96 85 229
97 85 1047
98 85 519
99 85 560
100 85 925
101 85 213
102 85 1021
104 85 126
105 85 570
106 85 138
107 85 50
108 85 197
109 85 230
110 85 220
111 85 802
112 85 568
113 85 526
114 85 1174
115 85 672
116 85 1552
117 85 854
118 85 485
120 85 32
121 85 424
122 85 1075
123 85 195
124 85 755
125 85 858
126 85 394
127 85 78
128 85 1099
129 85 491
130 85 766
131 85 1340
132 85 453
133 85 593
134 85 469
135 85 786
136 85 1009
137 85 792
138 85 454
139 85 897
140 85 648
141 85 412
142 85 1389
143 85 279
144 85 652
145 85 1183
146 85 840
147 85 774
148 85 514
149 85 607
150 85 1302
151 85 596
152 85 782
153 85 508
154 85 353
155 85 628
156 85 792
157 85 2
158 85 613
159 85 1015
160 85 1361
161 85 2105
162 85 1562
163 85 550
164 85 220
165 85 1406
166 85 963
167 85 206
168 85 302
169 85 794
170 85 428
171 85 358
172 85 151
173 85 1514
174 85 684
175 85 960
176 85 1594
177 85 944
178 85 354
179 85 1343
180 85 966
181 85 701
182 85 1338
183 85 3
184 85 242
185 85 366
186 85 952
187 85 432
188 85 509
189 85 729
190 85 1298
191 85 453
192 85 4
193 85 740
194 85 1284
195 85 990
196 85 556
197 85 897
198 85 518
199 85 114
200 85 481
201 85 581
202 85 1046
203 85 597
204 85 396
205 85 1036
206 85 425
207 85 1740
208 85 758
209 85 744
210 85 1583
211 85 282
212 85 417
213 85 1696
214 85 1256
215 85 1364
216 85 185
217 85 1236
218 85 705
219 85 376
220 85 757
222 85 1020
223 85 508
224 85 550
225 85 446
226 85 318
227 85 585
228 85 830
229 85 437
230 85 7
231 85 471
232 85 813
233 85 241
234 85 867
235 85 534
236 85 321
237 85 800
238 85 371
239 85 841
240 85 1029
241 85 980
242 85 873
243 85 1021
244 85 2
245 85 567
246 85 806
247 85 1149
248 85 935
249 85 351
250 85 618
251 85 509
252 85 648
253 85 145
254 85 1556
255 85 372
256 85 755
257 85 732
258 85 608
259 85 398
260 85 1089
261 85 377
262 85 106
263 85 1242
264 85 740
265 85 332
266 85 175
267 85 923
268 85 620
269 85 359
270 85 171
271 85 457
272 85 795
273 85 739
274 85 2164
275 85 632
276 85 214
277 85 746
278 85 1187
279 85 800
280 85 724
281 85 718
282 85 509
283 85 487
284 85 630
285 85 1126
286 85 961
287 85 813
288 85 358
289 85 591
290 85 824
291 85 877
292 85 918
293 85 868
294 85 338
295 85 501
296 85 574
297 85 499
298 85 1129
299 85 423
300 85 1377
301 85 570
302 85 590
303 85 547
304 85 530
305 85 972
306 85 178
307 85 629
308 85 1423
309 85 951
310 85 382
311 85 903
312 85 906
313 85 76
314 85 1579
316 85 1191
317 85 361
318 85 797
319 85 779
320 85 654
321 85 463
322 85 434
323 85 979
324 85 829
325 85 1141
326 85 1134
327 85 142
328 85 1008
329 85 559
330 85 518
331 85 366
332 85 539
333 85 11
334 85 604
336 85 592
337 85 601
338 85 963
339 85 593
340 85 253
342 85 1055
343 85 555
344 85 779
345 85 2024
346 85 443
347 85 298
348 85 273
349 85 650
350 85 511
351 85 411
352 85 1033
353 85 788
354 85 394
355 85 891
356 85 1709
357 85 1259
358 85 745
359 85 142
360 85 929
361 85 396
362 85 788
363 85 901
364 85 1604
365 85 460
366 85 922
367 85 1339
368 85 513
369 85 560
370 85 449
371 85 370
372 85 919
373 85 1110
374 85 151
375 85 1258
376 85 632
377 85 890
378 85 1692
379 85 701
380 85 201
381 85 387
382 85 292
383 85 602
384 85 1145
385 85 721
386 85 361
387 85 83
388 85 611
389 85 458
390 85 849
391 85 639
392 85 892
393 85 1581
394 85 985
395 85 471
396 85 557
397 85 668
398 85 743
399 85 853
400 85 628
401 85 710
402 85 139
403 85 458
404 85 564
405 85 325
406 85 164
407 85 546
408 85 145
410 85 301
411 85 1043
412 85 675
413 85 1030
414 85 1058
415 85 689
416 85 1520
417 85 1866
418 85 620
419 85 151
420 85 566
422 85 745
423 85 850
424 85 527
425 85 1051
426 85 221
427 85 810
428 85 500
429 85 1588
430 85 997
431 85 2431
432 85 277
433 85 1407
434 85 663
435 85 595
436 85 729
437 85 592
439 85 1190
440 85 360
441 85 1431
442 85 252
443 85 485
444 85 204
445 85 8
446 85 624
447 85 651
448 85 924
449 85 842
450 85 1046
451 85 1433
452 85 967
453 85 883
454 85 1649
455 85 904
456 85 650
457 85 1567
458 85 145
459 85 589
460 85 799
461 85 3
462 85 535
463 85 292
464 85 1185
465 85 922
466 85 898
467 85 782
468 85 159
469 85 460
470 85 1139
471 85 1196
472 85 2040
473 85 1029
474 85 612
475 85 630
476 85 1056
477 85 2098
478 85 1273
479 85 212
480 85 503
481 85 525
482 85 604
483 85 459
484 85 35
485 85 1286
486 85 610
487 85 1158
488 85 1092
489 85 568
490 85 435
491 85 673
492 85 592
493 85 775
494 85 1118
495 85 66
496 85 1013
497 85 10
498 85 800
499 85 1065
500 85 1446
1 86 1907
2 86 1991
3 86 538
4 86 944
5 86 2101
6 86 920
7 86 858
8 86 2166
9 86 2466
10 86 1757
11 86 1313
12 86 1356
13 86 832
14 86 1281
15 86 2303
16 86 1109
17 86 1042
18 86 1305
19 86 35
20 86 698
21 86 871
22 86 1148
23 86 1478
24 86 28
25 86 728
26 86 855
27 86 2214
28 86 2088
29 86 1581
30 86 43
31 86 22
32 86 933
33 86 2022
34 86 2296
35 86 793
36 86 1190
37 86 1875
38 86 1575
39 86 1680
40 86 1327
41 86 1967
42 86 1932
43 86 1295
44 86 1287
45 86 2238
46 86 1184
47 86 1204
48 86 1400
49 86 1933
50 86 846
51 86 1805
52 86 1807
53 86 11
54 86 996
55 86 967
56 86 935
57 86 1662
58 86 1667
59 86 48
60 86 1163
61 86 1930
62 86 1227
63 86 2072
64 86 866
65 86 1155
66 86 893
67 86 2384
68 86 750
69 86 1172
70 86 1143
71 86 452
72 86 56
73 86 693
74 86 1812
75 86 47
76 86 1165
77 86 1494
78 86 1458
79 86 76
80 86 210
81 86 1714
82 86 750
83 86 1279
84 86 2488
85 86 1288
86 86 104
87 86 2006
88 86 931
89 86 1780
90 86 1943
91 86 803
92 86 1333
93 86 1712
94 86 1853
95 86 1480
96 86 17
97 86 1395
98 86 1117
99 86 1157
100 86 23
101 86 1700
102 86 1827
103 86 523
104 86 2034
105 86 831
106 86 29
107 86 1031
108 86 3225
109 86 1288
110 86 1270
111 86 663
112 86 764
113 86 1348
114 86 1839
115 86 1745
116 86 2969
117 86 986
118 86 850
119 86 876
120 86 881
121 86 2161
122 86 1125
123 86 822
124 86 3357
125 86 1325
126 86 1525
127 86 2009
128 86 2027
129 86 1824
130 86 657
131 86 81
132 86 1622
133 86 1583
134 86 1274
135 86 823
136 86 1231
137 86 1206
138 86 1550
139 86 953
140 86 457
141 86 1812
142 86 1099
143 86 1567
144 86 1120
145 86 1144
146 86 29
147 86 1114
148 86 1819
149 86 1816
150 86 1120
151 86 540
152 86 1108
153 86 1075
154 86 1237
155 86 2816
156 86 56
157 86 648
158 86 2605
159 86 42
160 86 1830
161 86 102
162 86 2031
163 86 1589
164 86 626
165 86 1506
166 86 1408
167 86 588
168 86 815
169 86 1027
170 86 1283
171 86 1027
172 86 740
173 86 2008
174 86 890
175 86 53
176 86 1916
177 86 1235
178 86 656
179 86 72
180 86 1375
181 86 1691
182 86 1101
183 86 689
184 86 779
185 86 726
186 86 2821
187 86 1726
188 86 2588
189 86 2056
190 86 1859
191 86 1273
192 86 836
193 86 1315
194 86 1486
195 86 1393
196 86 1395
197 86 1638
198 86 1104
199 86 906
200 86 507
201 86 1180
202 86 1212
203 86 1795
204 86 1478
205 86 26
206 86 1550
207 86 1350
208 86 1220
209 86 600
210 86 1897
211 86 1212
212 86 1657
213 86 1223
214 86 1619
215 86 1084
216 86 1254
217 86 1591
218 86 1329
219 86 615
220 86 1347
221 86 416
222 86 60
223 86 1000
224 86 844
225 86 1276
226 86 1018
227 86 1296
228 86 846
229 86 2705
230 86 796
231 86 1409
232 86 1956
233 86 1392
234 86 2750
235 86 1530
236 86 832
237 86 2387
238 86 1028
239 86 5
240 86 2614
241 86 581
242 86 1390
243 86 1984
244 86 533
245 86 1429
246 86 1692
247 86 1136
248 86 894
249 86 672
250 86 1283
251 86 1192
252 86 1293
253 86 45
254 86 1832
255 86 1321
256 86 1552
257 86 1855
258 86 1499
259 86 684
260 86 24
261 86 2984
262 86 848
263 86 30
264 86 1863
265 86 1020
266 86 701
267 86 1411
268 86 1490
269 86 1865
270 86 1105
271 86 1286
272 86 1011
273 86 1206
274 86 94
275 86 850
276 86 592
277 86 1343
278 86 2134
279 86 614
280 86 2514
281 86 2161
282 86 756
283 86 1136
284 86 1026
285 86 1670
286 86 809
287 86 1770
288 86 1696
289 86 814
290 86 1481
291 86 1698
292 86 887
293 86 3
294 86 2017
295 86 2184
296 86 2370
297 86 1654
298 86 1327
299 86 726
300 86 2400
301 86 1124
302 86 2238
303 86 1352
304 86 1536
305 86 2208
306 86 731
307 86 1189
308 86 1516
309 86 95
310 86 2375
311 86 1453
312 86 1239
313 86 863
314 86 1621
315 86 413
317 86 1079
318 86 1418
319 86 52
320 86 1161
321 86 1657
322 86 859
323 86 28
324 86 753
325 86 1535
326 86 1608
327 86 1428
328 86 1187
329 86 1116
330 86 495
331 86 1857
332 86 745
333 86 727
334 86 1545
335 86 549
336 86 1260
337 86 1461
338 86 1513
339 86 1045
340 86 1877
341 86 1351
342 86 1195
343 86 2144
344 86 616
345 86 103
346 86 1692
347 86 2096
348 86 2105
349 86 1835
350 86 1359
351 86 959
352 86 17
353 86 694
354 86 713
355 86 946
356 86 1312
357 86 6
358 86 1466
359 86 1465
360 86 978
361 86 711
362 86 969
363 86 1118
364 86 882
365 86 1492
366 86 1551
367 86 1755
368 86 1469
369 86 2020
370 86 977
371 86 1600
372 86 1007
374 86 50
375 86 1593
376 86 431
377 86 18
378 86 1254
379 86 1129
380 86 806
381 86 734
382 86 1562
383 86 946
384 86 1653
385 86 1144
386 86 1674
387 86 616
388 86 1542
389 86 1576
390 86 5
391 86 2223
392 86 1002
393 86 3026
394 86 25
395 86 593
396 86 1606
397 86 1578
398 86 2545
399 86 1474
400 86 628
401 86 1283
402 86 1532
403 86 1138
404 86 590
405 86 1775
406 86 807
407 86 1083
408 86 875
409 86 568
410 86 673
411 86 1172
412 86 1288
413 86 1019
414 86 2375
415 86 1731
416 86 1847
417 86 1209
418 86 1526
419 86 1048
420 86 1787
421 86 376
422 86 226
423 86 3
424 86 797
425 86 1815
426 86 15
427 86 1487
428 86 2045
429 86 1568
430 86 1696
431 86 2404
432 86 2115
433 86 1912
434 86 824
435 86 890
436 86 850
437 86 1519
438 86 970
439 86 1802
440 86 1596
441 86 1053
442 86 1636
443 86 1443
444 86 9
445 86 494
446 86 884
447 86 1065
448 86 558
449 86 1338
450 86 22
451 86 2248
452 86 924
453 86 1069
454 86 72
455 86 2177
456 86 1054
457 86 1798
458 86 644
459 86 875
460 86 629
461 86 566
462 86 960
463 86 2157
464 86 2081
465 86 21
466 86 24
467 86 2730
468 86 525
469 86 1042
470 86 978
471 86 2005
472 86 108
473 86 63
474 86 1241
475 86 881
476 86 1855
477 86 86
478 86 1436
479 86 2205
480 86 1467
481 86 1784
482 86 2244
483 86 1592
484 86 480
485 86 1412
486 86 1173
487 86 1654
488 86 58
489 86 1431
490 86 995
491 86 1668
492 86 1689
493 86 491
494 86 2583
495 86 984
496 86 50
497 86 765
498 86 2232
499 86 1921
500 86 1537
1 87 1058
2 87 179
3 87 887
4 87 30
5 87 299
6 87 382
7 87 628
8 87 1231
9 87 290
10 87 713
11 87 545
12 87 331
13 87 12
14 87 607
15 87 741
16 87 102
17 87 963
18 87 330
19 87 2371
21 87 857
22 87 1016
23 87 1111
24 87 1256
25 87 456
26 87 633
27 87 462
28 87 537
29 87 520
30 87 1576
31 87 1880
32 87 424
33 87 240
34 87 181
35 87 172
36 87 159
37 87 1085
38 87 127
39 87 85
40 87 911
41 87 743
42 87 514
43 87 843
44 87 734
45 87 467
46 87 1206
47 87 1390
48 87 522
49 87 1053
50 87 517
51 87 1380
52 87 371
53 87 1960
54 87 640
55 87 770
56 87 122
57 87 302
58 87 782
59 87 1579
60 87 340
61 87 465
62 87 88
63 87 842
64 87 196
65 87 1222
66 87 1304
67 87 407
68 87 384
69 87 545
70 87 158
71 87 164
72 87 857
73 87 1770
74 87 408
75 87 1546
76 87 1146
77 87 606
78 87 468
79 87 3087
81 87 119
82 87 884
83 87 1342
84 87 980
85 87 179
86 87 811
87 87 839
88 87 356
89 87 128
90 87 512
91 87 162
92 87 215
93 87 203
94 87 1435
95 87 1854
96 87 2930
97 87 473
98 87 1194
99 87 460
100 87 1897
101 87 1040
102 87 796
104 87 519
105 87 760
106 87 1560
107 87 80
108 87 835
109 87 605
110 87 225
111 87 1107
112 87 75
113 87 165
114 87 712
115 87 454
116 87 1566
117 87 679
118 87 1509
120 87 21
121 87 1350
122 87 580
123 87 8
124 87 1311
125 87 924
126 87 951
127 87 675
128 87 552
129 87 444
130 87 1082
131 87 2254
132 87 394
133 87 1091
134 87 582
135 87 339
136 87 224
137 87 532
138 87 127
139 87 126
140 87 358
141 87 1751
142 87 518
143 87 102
144 87 675
145 87 947
146 87 2380
147 87 1790
148 87 426
149 87 1145
150 87 754
151 87 81
152 87 986
153 87 804
154 87 635
155 87 1312
156 87 880
158 87 847
159 87 880
160 87 401
161 87 795
162 87 624
163 87 736
164 87 1050
165 87 425
166 87 161
167 87 156
168 87 299
169 87 91
170 87 631
171 87 632
172 87 84
173 87 261
174 87 1055
175 87 941
176 87 813
177 87 983
178 87 899
179 87 2327
180 87 500
181 87 693
182 87 814
184 87 46
185 87 1011
186 87 492
187 87 109
188 87 1675
189 87 782
190 87 381
191 87 357
193 87 486
194 87 755
195 87 266
196 87 469
197 87 192
198 87 730
199 87 1271
200 87 480
201 87 962
202 87 221
203 87 447
204 87 414
205 87 579
206 87 1024
207 87 484
208 87 545
209 87 1035
210 87 393
211 87 742
212 87 1265
213 87 136
214 87 541
215 87 480
216 87 597
217 87 847
218 87 734
219 87 658
220 87 1405
222 87 869
223 87 397
224 87 627
225 87 364
226 87 1263
227 87 425
228 87 386
229 87 803
230 87 13
231 87 321
232 87 578
233 87 1160
234 87 375
235 87 124
236 87 32
237 87 413
238 87 322
239 87 1259
240 87 671
241 87 254
242 87 877
243 87 443
245 87 533
246 87 1519
247 87 321
248 87 415
249 87 582
250 87 596
251 87 866
252 87 189
253 87 1608
254 87 795
255 87 1154
256 87 368
257 87 858
258 87 914
259 87 991
260 87 1930
261 87 538
262 87 547
263 87 1590
264 87 903
265 87 1346
266 87 80
267 87 171
268 87 1487
269 87 1722
270 87 800
271 87 417
272 87 301
273 87 935
274 87 804
275 87 598
276 87 736
277 87 249
278 87 466
279 87 1078
280 87 359
281 87 568
282 87 73
283 87 264
284 87 1518
285 87 719
286 87 554
287 87 364
288 87 822
289 87 641
290 87 353
291 87 391
292 87 1230
293 87 1236
294 87 185
295 87 337
296 87 734
297 87 289
298 87 653
299 87 522
300 87 162
301 87 923
302 87 506
303 87 626
304 87 272
305 87 566
306 87 307
307 87 724
308 87 657
309 87 837
310 87 265
311 87 897
312 87 1299
313 87 790
314 87 263
316 87 1614
317 87 912
318 87 483
319 87 935
320 87 507
321 87 286
322 87 459
323 87 1817
324 87 409
325 87 484
326 87 637
327 87 452
328 87 205
329 87 795
330 87 509
331 87 638
332 87 652
333 87 20
334 87 799
336 87 452
337 87 722
338 87 222
339 87 729
340 87 660
342 87 206
343 87 92
344 87 1072
345 87 852
346 87 673
347 87 947
348 87 202
349 87 1306
350 87 361
351 87 622
352 87 1908
353 87 249
354 87 993
355 87 897
356 87 879
357 87 1195
358 87 317
359 87 213
360 87 532
361 87 1077
362 87 874
363 87 88
364 87 493
365 87 120
366 87 1179
367 87 762
368 87 247
369 87 604
370 87 692
371 87 1381
372 87 546
373 87 1723
374 87 1569
375 87 1215
376 87 353
377 87 1551
378 87 613
379 87 154
380 87 1024
381 87 1045
382 87 495
383 87 846
384 87 70
385 87 848
386 87 149
387 87 16
388 87 398
389 87 751
390 87 1276
391 87 1254
392 87 721
393 87 1524
394 87 1806
395 87 885
396 87 643
397 87 374
398 87 1651
399 87 1240
400 87 849
401 87 284
402 87 201
403 87 276
404 87 407
405 87 754
406 87 214
407 87 708
408 87 39
410 87 877
411 87 192
412 87 1362
413 87 147
414 87 946
415 87 1140
416 87 354
417 87 1700
418 87 243
419 87 555
420 87 877
422 87 551
423 87 1190
424 87 346
425 87 734
426 87 2978
427 87 447
428 87 576
429 87 275
430 87 213
431 87 975
432 87 957
433 87 435
434 87 1277
435 87 1163
436 87 1233
437 87 1457
438 87 4
439 87 781
440 87 838
441 87 471
442 87 778
443 87 570
444 87 2980
445 87 1
446 87 590
447 87 1125
448 87 257
449 87 1545
450 87 1966
451 87 199
452 87 1491
453 87 960
454 87 2527
455 87 893
456 87 749
457 87 740
459 87 645
460 87 1001
461 87 1
462 87 1559
463 87 1234
464 87 1146
465 87 1636
466 87 1536
467 87 847
468 87 97
469 87 433
470 87 554
471 87 269
472 87 834
473 87 911
474 87 1142
475 87 1331
476 87 243
477 87 841
478 87 785
479 87 760
480 87 192
481 87 612
482 87 498
483 87 1078
484 87 22
485 87 764
486 87 764
487 87 182
488 87 910
489 87 289
490 87 756
491 87 817
492 87 327
493 87 40
494 87 529
495 87 52
496 87 864
497 87 22
498 87 494
499 87 297
500 87 835
1 88 214
2 88 101
3 88 63
4 88 55
5 88 154
6 88 390
7 88 200
8 88 105
9 88 159
10 88 196
11 88 90
12 88 95
13 88 103
14 88 235
15 88 133
16 88 80
17 88 45
18 88 95
20 88 112
21 88 205
22 88 80
23 88 78
25 88 141
26 88 242
27 88 186
28 88 234
29 88 32
32 88 114
33 88 95
34 88 85
35 88 24
36 88 104
37 88 73
38 88 196
39 88 88
40 88 103
41 88 206
42 88 218
43 88 79
44 88 150
45 88 412
46 88 203
47 88 89
48 88 212
49 88 207
50 88 100
51 88 114
52 88 224
54 88 78
55 88 35
56 88 78
57 88 49
58 88 289
60 88 56
61 88 104
62 88 188
63 88 81
64 88 37
65 88 94
66 88 71
67 88 233
68 88 76
69 88 221
70 88 125
71 88 99
73 88 122
74 88 212
76 88 111
77 88 54
78 88 58
80 88 26
81 88 167
82 88 149
83 88 154
84 88 312
85 88 102
86 88 3
87 88 299
88 88 368
89 88 150
90 88 71
91 88 295
92 88 37
93 88 309
94 88 276
95 88 69
96 88 7
97 88 191
98 88 97
99 88 172
101 88 97
102 88 59
103 88 49
104 88 183
105 88 226
107 88 77
108 88 131
109 88 98
110 88 60
111 88 59
112 88 30
113 88 47
114 88 35
115 88 99
116 88 79
117 88 77
118 88 154
119 88 17
120 88 23
121 88 143
122 88 131
123 88 41
124 88 46
125 88 121
126 88 138
127 88 112
128 88 218
129 88 277
130 88 75
132 88 116
133 88 95
134 88 64
135 88 193
136 88 92
137 88 174
138 88 66
139 88 191
140 88 148
141 88 113
142 88 221
143 88 98
144 88 120
145 88 345
147 88 229
148 88 212
149 88 86
150 88 142
151 88 69
152 88 71
153 88 55
154 88 83
155 88 67
157 88 72
158 88 150
160 88 105
161 88 3
162 88 158
163 88 137
164 88 49
165 88 56
166 88 130
167 88 78
168 88 35
169 88 74
170 88 75
171 88 89
172 88 162
173 88 153
174 88 130
176 88 264
177 88 104
178 88 117
180 88 118
181 88 81
182 88 270
183 88 49
184 88 70
185 88 232
186 88 137
187 88 177
188 88 99
189 88 145
190 88 85
191 88 95
192 88 35
193 88 158
194 88 64
195 88 87
196 88 137
197 88 203
198 88 60
199 88 95
200 88 30
201 88 98
202 88 105
203 88 162
204 88 78
206 88 97
207 88 86
208 88 179
209 88 75
210 88 157
211 88 157
212 88 45
213 88 31
214 88 117
215 88 219
216 88 63
217 88 106
218 88 33
219 88 35
220 88 164
221 88 56
223 88 102
224 88 144
225 88 75
226 88 125
227 88 68
228 88 203
229 88 253
230 88 45
231 88 103
232 88 131
233 88 164
234 88 208
235 88 180
236 88 27
237 88 51
238 88 71
240 88 91
241 88 47
242 88 122
243 88 117
244 88 57
245 88 56
246 88 184
247 88 94
248 88 123
249 88 52
250 88 68
251 88 155
252 88 145
254 88 96
255 88 112
256 88 77
257 88 68
258 88 94
259 88 235
261 88 156
262 88 130
264 88 63
265 88 118
266 88 154
267 88 144
268 88 131
269 88 91
270 88 357
271 88 57
272 88 94
273 88 97
274 88 4
275 88 203
276 88 118
277 88 177
278 88 90
279 88 55
280 88 27
281 88 87
282 88 40
283 88 84
284 88 89
285 88 138
286 88 79
287 88 192
288 88 118
289 88 228
290 88 68
291 88 100
292 88 288
294 88 84
295 88 124
296 88 87
297 88 91
298 88 261
299 88 71
300 88 119
301 88 82
302 88 86
303 88 101
304 88 239
305 88 168
306 88 70
307 88 120
308 88 68
309 88 63
310 88 140
311 88 90
312 88 81
313 88 144
314 88 31
315 88 63
317 88 141
318 88 77
320 88 256
321 88 104
322 88 201
324 88 85
325 88 97
326 88 302
327 88 94
328 88 106
329 88 97
330 88 162
331 88 184
332 88 162
333 88 68
334 88 217
335 88 48
336 88 84
337 88 59
338 88 99
339 88 117
340 88 83
341 88 49
342 88 119
343 88 421
344 88 75
345 88 6
346 88 89
347 88 162
348 88 104
349 88 79
350 88 78
351 88 79
353 88 116
354 88 208
355 88 93
356 88 94
357 88 8
358 88 99
359 88 95
360 88 113
361 88 213
362 88 132
363 88 25
364 88 44
365 88 71
366 88 631
367 88 231
368 88 403
369 88 252
370 88 48
371 88 390
372 88 119
375 88 172
376 88 148
378 88 303
379 88 121
380 88 87
381 88 215
382 88 490
383 88 30
384 88 283
385 88 59
386 88 167
387 88 61
388 88 70
389 88 72
391 88 208
392 88 48
393 88 76
395 88 78
396 88 32
397 88 108
398 88 182
399 88 131
400 88 281
401 88 67
402 88 102
403 88 82
404 88 212
405 88 118
406 88 90
407 88 52
408 88 31
409 88 48
410 88 39
411 88 118
412 88 142
413 88 37
414 88 220
415 88 99
416 88 152
417 88 197
418 88 58
419 88 169
420 88 73
421 88 74
422 88 63
424 88 69
425 88 131
426 88 5
427 88 95
428 88 259
429 88 28
430 88 352
431 88 109
432 88 169
433 88 117
434 88 106
435 88 85
436 88 107
437 88 161
438 88 32
439 88 45
440 88 271
441 88 217
442 88 202
443 88 70
444 88 4
445 88 11
446 88 215
447 88 299
448 88 41
449 88 279
451 88 116
452 88 66
453 88 122
455 88 48
456 88 80
457 88 85
458 88 48
459 88 238
460 88 70
461 88 131
462 88 117
463 88 114
464 88 135
467 88 109
468 88 35
469 88 134
470 88 41
471 88 121
472 88 4
474 88 112
475 88 53
476 88 150
477 88 3
478 88 64
479 88 43
480 88 104
481 88 274
482 88 82
483 88 231
484 88 46
485 88 70
486 88 107
487 88 180
489 88 83
490 88 160
491 88 315
492 88 53
493 88 77
494 88 150
495 88 52
497 88 60
498 88 105
499 88 49
500 88 207
19 89 1718
24 89 1836
30 89 943
31 89 2324
53 89 1743
59 89 984
72 89 1256
75 89 1012
79 89 1725
86 89 2027
96 89 2699
100 89 2236
106 89 953
111 89 186
130 89 183
131 89 2686
146 89 1755
156 89 1866
159 89 1215
161 89 2241
175 89 1211
179 89 2622
185 89 744
205 89 2177
209 89 164
222 89 1290
226 89 8
239 89 1275
253 89 993
259 89 749
260 89 2560
263 89 2257
265 89 13
274 89 2103
279 89 190
293 89 1284
309 89 1514
316 89 1772
319 89 1776
323 89 2287
344 89 165
345 89 2132
352 89 2560
354 89 768
357 89 1075
361 89 679
373 89 1735
374 89 979
377 89 2454
381 89 700
390 89 1302
394 89 2176
423 89 1303
426 89 2865
444 89 2787
450 89 2706
454 89 2814
460 89 184
465 89 2443
466 89 2460
472 89 2112
473 89 1175
477 89 2221
488 89 1186
496 89 1230
1 90 355
2 90 682
3 90 422
4 90 292
5 90 760
6 90 565
7 90 251
8 90 722
9 90 295
10 90 362
11 90 759
12 90 570
13 90 299
14 90 402
15 90 661
16 90 270
17 90 423
18 90 1145
20 90 215
21 90 611
22 90 553
23 90 39
25 90 444
26 90 246
27 90 185
28 90 338
29 90 579
30 90 6
32 90 346
33 90 915
34 90 205
35 90 710
36 90 452
37 90 537
38 90 309
39 90 301
40 90 277
41 90 481
42 90 434
43 90 298
44 90 599
45 90 535
46 90 209
47 90 510
48 90 899
49 90 524
50 90 396
51 90 111
52 90 354
54 90 250
55 90 372
56 90 1325
57 90 604
58 90 92
59 90 5
60 90 548
61 90 186
62 90 436
63 90 1403
64 90 184
65 90 442
66 90 824
67 90 169
68 90 566
69 90 197
70 90 751
71 90 219
72 90 13
73 90 318
74 90 299
75 90 3
76 90 93
77 90 480
78 90 417
80 90 179
81 90 135
82 90 628
83 90 454
84 90 343
85 90 1509
87 90 895
88 90 472
89 90 487
90 90 345
91 90 156
92 90 466
93 90 858
94 90 207
95 90 409
96 90 8
97 90 232
98 90 388
99 90 851
101 90 608
102 90 441
103 90 215
104 90 203
105 90 286
106 90 3
107 90 267
108 90 515
109 90 584
110 90 657
111 90 375
112 90 333
113 90 116
114 90 167
115 90 613
116 90 150
117 90 93
118 90 862
119 90 103
120 90 405
121 90 228
122 90 664
123 90 619
124 90 460
125 90 362
126 90 1219
127 90 558
128 90 596
129 90 777
130 90 382
132 90 396
133 90 143
134 90 425
135 90 338
136 90 724
137 90 132
138 90 738
139 90 274
140 90 737
141 90 723
142 90 222
143 90 624
144 90 303
145 90 959
147 90 714
148 90 293
149 90 595
150 90 321
151 90 532
152 90 509
153 90 397
154 90 404
155 90 1526
157 90 478
158 90 669
159 90 14
160 90 796
162 90 119
163 90 462
164 90 237
165 90 741
166 90 716
167 90 354
168 90 572
169 90 293
170 90 451
171 90 263
172 90 436
173 90 269
174 90 1006
175 90 15
176 90 202
177 90 427
178 90 525
180 90 78
181 90 425
182 90 192
183 90 353
184 90 307
185 90 428
186 90 510
187 90 139
188 90 1976
189 90 1153
190 90 819
191 90 361
192 90 456
193 90 134
194 90 404
195 90 314
196 90 515
197 90 460
198 90 204
199 90 600
200 90 220
201 90 209
202 90 290
203 90 1063
204 90 530
206 90 239
207 90 279
208 90 150
209 90 377
210 90 558
211 90 868
212 90 431
213 90 300
214 90 85
215 90 214
216 90 218
217 90 179
218 90 792
219 90 212
220 90 460
221 90 251
222 90 14
223 90 357
224 90 559
225 90 1160
226 90 344
227 90 790
228 90 325
229 90 164
230 90 383
231 90 592
232 90 1269
233 90 676
234 90 748
235 90 314
236 90 116
237 90 196
238 90 271
240 90 651
241 90 601
242 90 269
243 90 1000
244 90 117
245 90 522
246 90 2045
247 90 308
248 90 486
249 90 228
250 90 116
251 90 1042
252 90 436
253 90 4
254 90 805
255 90 589
256 90 1084
257 90 514
258 90 1394
259 90 397
261 90 835
262 90 414
264 90 575
265 90 301
266 90 418
267 90 712
268 90 702
269 90 733
270 90 426
271 90 607
272 90 322
273 90 762
275 90 317
276 90 215
277 90 497
278 90 348
279 90 359
280 90 258
281 90 263
282 90 276
283 90 183
284 90 357
285 90 531
286 90 249
287 90 367
288 90 981
289 90 261
290 90 319
291 90 1028
292 90 211
294 90 295
295 90 574
296 90 554
297 90 636
298 90 1041
299 90 444
300 90 109
301 90 257
302 90 1040
303 90 820
304 90 500
305 90 629
306 90 315
307 90 317
308 90 503
309 90 3
310 90 89
311 90 255
312 90 469
313 90 869
314 90 959
315 90 235
317 90 352
318 90 464
320 90 578
321 90 642
322 90 354
324 90 636
325 90 657
326 90 798
327 90 458
328 90 740
329 90 416
330 90 129
331 90 728
332 90 588
333 90 291
334 90 509
335 90 651
336 90 809
337 90 1145
338 90 755
339 90 642
340 90 226
341 90 416
342 90 739
343 90 1399
344 90 362
346 90 639
347 90 996
348 90 677
349 90 676
350 90 1113
351 90 253
353 90 136
354 90 391
355 90 423
356 90 267
357 90 1
358 90 187
359 90 815
360 90 319
361 90 406
362 90 1213
363 90 858
364 90 126
365 90 718
366 90 458
367 90 722
368 90 417
369 90 482
370 90 236
371 90 604
372 90 330
374 90 7
375 90 673
376 90 514
378 90 703
379 90 482
380 90 383
381 90 391
382 90 1566
383 90 282
384 90 463
385 90 317
386 90 144
387 90 91
388 90 690
389 90 511
391 90 1251
392 90 277
393 90 128
395 90 416
396 90 214
397 90 110
398 90 321
399 90 446
400 90 346
401 90 256
402 90 814
403 90 398
404 90 777
405 90 672
406 90 284
407 90 197
408 90 145
409 90 259
410 90 158
411 90 689
412 90 470
413 90 705
414 90 1532
415 90 457
416 90 553
417 90 691
418 90 945
419 90 495
420 90 368
421 90 233
422 90 126
424 90 346
425 90 661
426 90 2
427 90 684
428 90 528
429 90 971
430 90 845
431 90 422
432 90 1004
433 90 197
434 90 198
435 90 569
436 90 196
437 90 758
438 90 589
439 90 153
440 90 1780
441 90 217
442 90 297
443 90 208
444 90 7
445 90 130
446 90 271
447 90 704
448 90 552
449 90 638
451 90 99
452 90 185
453 90 743
455 90 777
456 90 758
457 90 1091
458 90 543
459 90 274
460 90 399
461 90 556
462 90 294
463 90 714
464 90 584
467 90 240
468 90 309
469 90 190
470 90 249
471 90 164
473 90 10
474 90 388
475 90 801
476 90 646
478 90 379
479 90 659
480 90 127
481 90 151
482 90 1011
483 90 324
484 90 353
485 90 358
486 90 338
487 90 471
488 90 7
489 90 519
490 90 188
491 90 96
492 90 451
493 90 163
494 90 491
495 90 595
496 90 11
497 90 256
498 90 811
499 90 160
500 90 130
1 91 613
2 91 172
3 91 344
4 91 498
5 91 889
6 91 140
7 91 250
8 91 1298
9 91 585
10 91 717
11 91 1127
12 91 279
13 91 563
14 91 446
15 91 698
16 91 179
17 91 252
18 91 846
19 91 2264
20 91 188
21 91 1082
22 91 778
23 91 650
24 91 1486
25 91 164
26 91 272
27 91 303
28 91 174
29 91 237
30 91 547
31 91 1190
32 91 853
33 91 1182
34 91 873
35 91 129
36 91 279
37 91 636
38 91 550
39 91 273
40 91 376
41 91 346
42 91 312
43 91 285
44 91 945
45 91 707
46 91 1308
47 91 1305
48 91 453
49 91 461
50 91 653
51 91 853
52 91 327
53 91 737
54 91 288
55 91 363
56 91 765
57 91 643
58 91 121
59 91 521
60 91 1114
61 91 565
62 91 435
63 91 373
64 91 449
65 91 742
66 91 443
67 91 1443
68 91 776
69 91 808
70 91 1183
71 91 227
72 91 274
73 91 1027
74 91 662
75 91 547
76 91 639
77 91 361
78 91 855
79 91 398
80 91 389
81 91 170
82 91 370
83 91 302
84 91 1243
85 91 760
86 91 925
87 91 1189
88 91 915
89 91 604
90 91 179
91 91 697
92 91 133
93 91 784
94 91 181
95 91 281
96 91 938
97 91 254
98 91 698
99 91 83
100 91 1256
101 91 479
102 91 901
103 91 155
104 91 894
105 91 840
106 91 543
107 91 386
108 91 328
109 91 296
110 91 1039
111 91 422
112 91 170
113 91 565
114 91 386
115 91 362
116 91 854
117 91 748
118 91 593
119 91 354
120 91 582
121 91 1662
122 91 616
123 91 259
124 91 605
125 91 693
126 91 492
127 91 464
128 91 847
129 91 195
130 91 440
131 91 733
132 91 485
133 91 767
134 91 598
135 91 400
136 91 152
137 91 603
138 91 146
139 91 280
140 91 391
141 91 1002
142 91 502
143 91 660
144 91 111
145 91 442
146 91 2305
147 91 227
148 91 607
149 91 518
150 91 862
151 91 192
152 91 763
153 91 412
154 91 240
155 91 302
156 91 982
157 91 522
158 91 741
159 91 263
160 91 1084
161 91 904
162 91 1008
163 91 779
164 91 440
165 91 1479
166 91 235
167 91 103
168 91 419
169 91 182
170 91 586
171 91 228
172 91 610
173 91 483
174 91 561
175 91 272
176 91 441
177 91 1080
178 91 572
179 91 730
180 91 533
181 91 304
182 91 841
183 91 413
184 91 323
185 91 221
186 91 481
187 91 195
188 91 944
189 91 754
190 91 873
191 91 498
192 91 735
193 91 561
194 91 847
195 91 993
196 91 1139
197 91 315
198 91 499
199 91 945
200 91 1064
201 91 418
202 91 613
203 91 647
204 91 591
205 91 980
206 91 527
207 91 890
208 91 588
209 91 448
210 91 617
211 91 891
212 91 662
213 91 471
214 91 134
215 91 522
216 91 280
217 91 929
218 91 1262
219 91 220
220 91 294
221 91 251
222 91 262
223 91 814
224 91 1019
225 91 742
226 91 457
227 91 360
228 91 434
229 91 494
230 91 123
231 91 287
232 91 428
233 91 363
234 91 407
235 91 531
236 91 540
237 91 591
238 91 833
239 91 177
240 91 889
241 91 336
242 91 1166
243 91 611
244 91 101
245 91 364
246 91 1582
247 91 715
248 91 471
249 91 221
250 91 567
251 91 659
252 91 611
253 91 495
254 91 78
255 91 1938
256 91 973
257 91 312
258 91 574
259 91 226
260 91 767
261 91 384
262 91 617
263 91 321
264 91 286
265 91 513
266 91 582
267 91 228
268 91 266
269 91 952
270 91 1088
271 91 873
272 91 489
273 91 636
274 91 877
275 91 257
276 91 880
277 91 336
278 91 325
279 91 434
280 91 1005
281 91 817
282 91 461
283 91 360
284 91 1280
285 91 570
286 91 764
287 91 317
288 91 1191
289 91 268
290 91 481
291 91 1003
292 91 699
293 91 166
294 91 626
295 91 327
296 91 424
297 91 494
298 91 1227
299 91 682
300 91 751
301 91 650
302 91 1371
303 91 381
304 91 854
305 91 1111
306 91 237
307 91 99
308 91 864
309 91 212
310 91 764
311 91 1178
312 91 1274
313 91 250
314 91 1050
315 91 261
316 91 1118
317 91 785
318 91 897
319 91 1016
320 91 510
321 91 434
322 91 274
323 91 1115
324 91 759
325 91 467
326 91 480
327 91 667
328 91 150
329 91 478
330 91 408
331 91 598
332 91 1042
333 91 122
334 91 217
335 91 167
336 91 364
337 91 1019
338 91 848
339 91 526
340 91 397
341 91 599
342 91 143
343 91 769
344 91 441
345 91 930
346 91 1212
347 91 603
348 91 191
349 91 541
350 91 781
351 91 246
352 91 743
353 91 620
354 91 243
355 91 173
356 91 361
357 91 914
358 91 735
359 91 324
360 91 268
361 91 249
362 91 703
363 91 423
364 91 801
365 91 150
366 91 264
367 91 237
368 91 386
369 91 597
370 91 815
371 91 217
372 91 302
373 91 1088
374 91 529
375 91 1576
376 91 438
377 91 710
378 91 1124
379 91 986
380 91 277
381 91 209
382 91 757
383 91 340
384 91 191
385 91 216
386 91 389
387 91 176
388 91 583
389 91 461
390 91 179
391 91 371
392 91 186
393 91 889
394 91 1189
395 91 336
396 91 119
397 91 311
398 91 1224
399 91 911
400 91 462
401 91 661
402 91 296
403 91 674
404 91 1164
405 91 975
406 91 421
407 91 530
408 91 476
409 91 131
410 91 268
411 91 191
412 91 328
413 91 408
414 91 510
415 91 153
416 91 626
417 91 1377
418 91 242
419 91 854
420 91 910
421 91 149
422 91 154
423 91 175
424 91 828
425 91 847
426 91 1098
427 91 108
428 91 571
429 91 1073
430 91 839
431 91 735
432 91 620
433 91 511
434 91 333
435 91 1234
436 91 333
437 91 293
438 91 1195
439 91 359
440 91 767
441 91 507
442 91 1167
443 91 697
444 91 1080
445 91 375
446 91 295
447 91 580
448 91 298
449 91 194
450 91 712
451 91 806
452 91 217
453 91 163
454 91 1670
455 91 964
456 91 572
457 91 582
458 91 705
459 91 257
460 91 425
461 91 83
462 91 1294
463 91 1326
464 91 324
465 91 730
466 91 785
467 91 1148
468 91 153
469 91 381
470 91 242
471 91 223
472 91 944
473 91 275
474 91 326
475 91 433
476 91 640
477 91 913
478 91 861
479 91 174
480 91 171
481 91 728
482 91 1371
483 91 1088
484 91 483
485 91 826
486 91 782
487 91 152
488 91 273
489 91 238
490 91 558
491 91 73
492 91 346
493 91 337
494 91 432
495 91 87
496 91 282
497 91 118
498 91 439
499 91 370
500 91 865
1 92 1760
2 92 1809
3 92 2608
4 92 521
5 92 1155
6 92 1653
7 92 1543
8 92 2029
9 92 1499
10 92 1682
11 92 1556
12 92 2218
13 92 799
14 92 994
15 92 2511
16 92 2464
17 92 1018
18 92 773
19 92 2587
20 92 846
21 92 1667
22 92 1575
23 92 1331
24 92 2079
25 92 861
26 92 1575
27 92 2476
28 92 2977
29 92 1180
30 92 2118
31 92 3022
32 92 1140
33 92 2196
34 92 1876
35 92 545
36 92 1482
37 92 1463
38 92 1913
39 92 2057
40 92 3290
41 92 4056
42 92 1915
43 92 1705
44 92 1698
45 92 2861
46 92 3833
47 92 2052
48 92 1226
49 92 1190
50 92 741
51 92 1296
52 92 1472
53 92 1142
54 92 763
55 92 1291
56 92 1542
57 92 2144
58 92 2060
59 92 2041
60 92 1177
61 92 2808
62 92 1442
63 92 1236
64 92 532
65 92 1415
66 92 2164
67 92 1867
68 92 1186
69 92 1795
70 92 2036
71 92 820
72 92 1893
73 92 1893
74 92 1318
75 92 2141
76 92 1421
77 92 1381
78 92 2458
79 92 1802
80 92 452
81 92 2556
82 92 604
83 92 2012
84 92 2003
85 92 2456
86 92 1696
87 92 1896
88 92 1140
89 92 2307
90 92 1364
91 92 1426
92 92 572
93 92 1297
94 92 2164
95 92 1684
96 92 1501
97 92 2681
98 92 1497
99 92 1264
100 92 3076
101 92 3122
102 92 1487
103 92 1066
104 92 1145
105 92 2965
106 92 2167
107 92 468
108 92 1240
109 92 807
110 92 1169
111 92 1235
112 92 827
113 92 442
114 92 1104
115 92 1410
116 92 1330
117 92 808
118 92 2130
119 92 401
120 92 1737
121 92 1484
122 92 1403
123 92 989
124 92 1130
125 92 1268
126 92 2601
127 92 1790
128 92 1830
129 92 2411
130 92 1252
131 92 3166
132 92 1190
133 92 1176
134 92 832
135 92 1015
136 92 1848
137 92 907
138 92 2059
139 92 3262
140 92 1669
141 92 2161
142 92 2300
143 92 1360
144 92 1490
145 92 3495
146 92 2604
147 92 1753
148 92 1249
149 92 1967
150 92 2352
151 92 2091
152 92 1141
153 92 1881
154 92 975
155 92 1163
156 92 1791
157 92 1386
158 92 1370
159 92 1792
160 92 953
161 92 1601
162 92 1699
163 92 986
164 92 1112
165 92 2890
166 92 2119
167 92 635
168 92 1508
169 92 2345
170 92 889
171 92 779
172 92 751
173 92 2293
174 92 1526
175 92 1884
176 92 1976
177 92 3171
178 92 928
179 92 3109
180 92 1694
181 92 2091
182 92 1808
183 92 718
184 92 790
185 92 1799
186 92 1677
187 92 2602
188 92 2272
189 92 2669
190 92 1498
191 92 1914
192 92 1276
193 92 918
194 92 2061
195 92 1475
196 92 699
197 92 1466
198 92 1003
199 92 2224
200 92 821
201 92 960
202 92 1546
203 92 2253
204 92 1803
205 92 1707
206 92 1595
207 92 1783
208 92 922
209 92 1285
210 92 2113
211 92 2531
212 92 2039
213 92 770
214 92 2797
215 92 2338
216 92 1648
217 92 1264
218 92 1333
219 92 1186
220 92 2027
221 92 446
222 92 1836
223 92 1194
224 92 1841
225 92 817
226 92 1843
227 92 1411
228 92 965
229 92 948
230 92 1505
231 92 2104
232 92 2115
233 92 745
234 92 1839
235 92 1898
236 92 810
237 92 992
238 92 1551
239 92 2891
240 92 2425
241 92 1565
242 92 1969
243 92 2182
244 92 1458
245 92 1419
246 92 1609
247 92 2101
248 92 1061
249 92 1204
250 92 1963
251 92 1236
252 92 1431
253 92 2139
254 92 1236
255 92 2772
256 92 2537
257 92 2347
258 92 2343
259 92 1896
260 92 3354
261 92 2832
262 92 804
263 92 1683
264 92 2356
265 92 1989
266 92 722
267 92 2139
268 92 1560
269 92 2075
270 92 2770
271 92 1111
272 92 1158
273 92 1198
274 92 1706
275 92 1568
276 92 1375
277 92 1422
278 92 2113
279 92 1340
280 92 4223
281 92 1905
282 92 534
283 92 1309
284 92 1950
285 92 1389
286 92 1203
287 92 1507
288 92 1760
289 92 1586
290 92 2258
291 92 700
292 92 2189
293 92 2889
294 92 1951
295 92 1604
296 92 2215
297 92 610
298 92 2458
299 92 1597
300 92 1826
301 92 1256
302 92 2337
303 92 2486
304 92 1088
305 92 1446
306 92 1491
307 92 1601
308 92 1251
309 92 1273
310 92 1470
311 92 1972
312 92 2058
313 92 2290
314 92 978
315 92 396
316 92 1895
317 92 1871
318 92 2463
319 92 1803
320 92 1611
321 92 617
322 92 1330
323 92 3095
324 92 1190
325 92 758
326 92 1488
327 92 1423
328 92 1948
329 92 773
330 92 461
331 92 648
332 92 1837
333 92 1199
334 92 3017
335 92 663
336 92 1374
337 92 2114
338 92 2656
339 92 1555
340 92 1985
341 92 656
342 92 1837
343 92 1538
344 92 1349
345 92 1638
346 92 2006
347 92 1086
348 92 1803
349 92 1990
350 92 826
351 92 762
352 92 3337
353 92 1137
354 92 1784
355 92 1358
356 92 3272
357 92 2612
358 92 1081
359 92 2893
360 92 1769
361 92 1801
362 92 1613
363 92 884
364 92 1348
365 92 2121
366 92 1961
367 92 1681
368 92 1913
369 92 1974
370 92 2320
371 92 1910
372 92 1853
373 92 1776
374 92 2198
375 92 1236
376 92 1098
377 92 2792
378 92 1259
379 92 1031
380 92 1418
381 92 1824
382 92 2176
383 92 1666
384 92 2159
385 92 1087
386 92 2650
387 92 760
388 92 1883
389 92 683
390 92 2787
391 92 1713
392 92 1896
393 92 1291
394 92 3078
395 92 2557
396 92 2072
397 92 2000
398 92 1512
399 92 2497
400 92 1712
401 92 1660
402 92 2976
403 92 1514
404 92 1623
405 92 3058
406 92 922
407 92 1086
408 92 968
409 92 1080
410 92 687
411 92 1865
412 92 2003
413 92 1119
414 92 2286
415 92 722
416 92 2110
417 92 1401
418 92 952
419 92 2347
420 92 2556
421 92 683
422 92 638
423 92 2753
424 92 918
425 92 1348
426 92 1574
427 92 1994
428 92 1858
429 92 991
430 92 1299
431 92 1423
432 92 1204
433 92 2837
434 92 1319
435 92 1413
436 92 1349
437 92 1595
438 92 957
439 92 1147
440 92 2324
441 92 2294
442 92 1818
443 92 1472
444 92 1545
445 92 676
446 92 1555
447 92 975
448 92 1662
449 92 1902
450 92 3246
451 92 1773
452 92 1842
453 92 2684
454 92 1996
455 92 2033
456 92 1050
457 92 2021
458 92 1137
459 92 1600
460 92 1318
461 92 1240
462 92 1874
463 92 1993
464 92 3232
465 92 2891
466 92 2971
467 92 2773
468 92 476
469 92 3549
470 92 840
471 92 2870
472 92 1645
473 92 1814
474 92 1661
475 92 2230
476 92 1490
477 92 1615
478 92 1953
479 92 2316
480 92 1889
481 92 1909
482 92 2286
483 92 3365
484 92 1212
485 92 1984
486 92 2231
487 92 1572
488 92 1830
489 92 1977
490 92 2111
491 92 2066
492 92 2313
493 92 560
494 92 4253
495 92 1321
496 92 1863
497 92 1163
498 92 1219
499 92 1903
500 92 3377
1 93 1316
2 93 167
3 93 315
4 93 661
5 93 857
6 93 937
7 93 688
8 93 657
9 93 460
10 93 751
11 93 1909
12 93 131
13 93 798
14 93 171
15 93 559
16 93 467
17 93 671
18 93 119
19 93 1103
20 93 66
21 93 771
22 93 362
23 93 705
24 93 796
25 93 542
26 93 705
27 93 282
28 93 548
29 93 693
30 93 270
31 93 437
32 93 763
33 93 668
34 93 751
35 93 305
36 93 766
37 93 256
38 93 1303
39 93 227
40 93 419
41 93 270
42 93 1065
43 93 733
44 93 797
45 93 395
46 93 308
47 93 742
48 93 1041
49 93 599
50 93 1049
51 93 120
52 93 520
53 93 1095
54 93 46
55 93 652
56 93 1201
57 93 639
58 93 532
59 93 267
60 93 732
61 93 766
62 93 202
63 93 725
64 93 266
65 93 1053
66 93 749
67 93 759
68 93 843
69 93 957
70 93 1261
71 93 174
72 93 458
73 93 589
74 93 484
75 93 258
76 93 358
77 93 484
78 93 711
79 93 230
80 93 158
81 93 1034
82 93 115
83 93 242
84 93 1180
85 93 139
86 93 448
87 93 475
88 93 723
89 93 345
90 93 1184
91 93 348
92 93 472
93 93 593
94 93 608
95 93 347
96 93 875
97 93 365
98 93 1023
99 93 756
100 93 464
101 93 430
102 93 283
103 93 145
104 93 107
105 93 1197
106 93 253
107 93 285
108 93 332
109 93 186
110 93 481
111 93 362
112 93 365
113 93 503
114 93 565
115 93 537
116 93 1142
117 93 324
118 93 266
119 93 343
120 93 274
121 93 993
122 93 255
123 93 204
124 93 470
125 93 627
126 93 180
127 93 554
128 93 589
129 93 320
130 93 387
131 93 442
132 93 426
133 93 629
134 93 379
135 93 336
136 93 499
137 93 898
138 93 347
139 93 103
140 93 534
141 93 1365
142 93 940
143 93 494
144 93 205
145 93 1325
146 93 1158
147 93 1544
148 93 496
149 93 275
150 93 324
151 93 568
152 93 205
153 93 718
154 93 272
155 93 1436
156 93 176
157 93 594
158 93 412
159 93 449
160 93 613
161 93 481
162 93 241
163 93 602
164 93 332
165 93 786
166 93 530
167 93 425
168 93 393
169 93 492
170 93 372
171 93 47
172 93 278
173 93 526
174 93 1482
175 93 462
176 93 309
177 93 480
178 93 522
179 93 439
180 93 414
181 93 790
182 93 302
183 93 221
184 93 363
185 93 289
186 93 98
187 93 1111
188 93 936
189 93 155
190 93 1284
191 93 261
192 93 65
193 93 955
194 93 379
195 93 420
196 93 355
197 93 320
198 93 805
199 93 357
200 93 636
201 93 769
202 93 366
203 93 1089
204 93 888
205 93 798
206 93 402
207 93 302
208 93 983
209 93 336
210 93 401
211 93 398
212 93 588
213 93 436
214 93 636
215 93 977
216 93 679
217 93 128
218 93 1150
219 93 675
220 93 226
221 93 145
222 93 487
223 93 762
224 93 195
225 93 124
226 93 961
227 93 438
228 93 340
229 93 141
230 93 367
231 93 157
232 93 827
233 93 222
234 93 632
235 93 1244
236 93 313
237 93 531
238 93 271
239 93 392
240 93 314
241 93 505
242 93 470
243 93 754
244 93 447
245 93 501
246 93 476
247 93 786
248 93 300
249 93 665
250 93 488
251 93 561
252 93 384
253 93 256
254 93 1130
255 93 919
256 93 1194
257 93 293
258 93 249
259 93 306
260 93 723
261 93 1400
262 93 998
263 93 1677
264 93 272
265 93 906
266 93 301
267 93 502
268 93 1309
269 93 1316
270 93 177
271 93 878
272 93 799
273 93 209
274 93 447
275 93 738
276 93 709
277 93 80
278 93 1186
279 93 384
280 93 300
281 93 860
282 93 259
283 93 641
284 93 267
285 93 323
286 93 129
287 93 554
288 93 395
289 93 625
290 93 341
291 93 354
292 93 222
293 93 405
294 93 538
295 93 218
296 93 746
297 93 1070
298 93 976
299 93 775
300 93 761
301 93 913
302 93 434
303 93 335
304 93 707
305 93 738
306 93 629
307 93 216
308 93 551
309 93 907
310 93 651
311 93 477
312 93 688
313 93 821
314 93 1240
315 93 113
316 93 942
317 93 386
318 93 767
319 93 148
320 93 248
321 93 1065
322 93 400
323 93 472
324 93 883
325 93 517
326 93 573
327 93 329
328 93 511
329 93 57
330 93 714
331 93 562
332 93 235
333 93 271
334 93 438
335 93 288
336 93 433
337 93 419
338 93 138
339 93 857
340 93 578
341 93 441
342 93 504
343 93 775
344 93 354
345 93 444
346 93 452
347 93 583
348 93 142
349 93 311
350 93 135
351 93 54
352 93 703
353 93 336
354 93 349
355 93 696
356 93 462
357 93 433
358 93 291
359 93 386
360 93 524
361 93 329
362 93 1316
363 93 326
364 93 666
365 93 350
366 93 874
367 93 659
368 93 1286
369 93 784
370 93 371
371 93 157
372 93 544
373 93 937
374 93 280
375 93 419
376 93 511
377 93 610
378 93 709
379 93 1041
380 93 775
381 93 343
382 93 267
383 93 119
384 93 394
385 93 674
386 93 566
387 93 764
388 93 276
389 93 346
390 93 412
391 93 1033
392 93 426
393 93 1123
394 93 469
395 93 310
396 93 957
397 93 1532
398 93 919
399 93 518
400 93 597
401 93 905
402 93 382
403 93 621
404 93 861
405 93 407
406 93 102
407 93 825
408 93 377
409 93 130
410 93 344
411 93 486
412 93 243
413 93 74
414 93 1531
415 93 803
416 93 367
417 93 430
418 93 143
419 93 782
420 93 373
421 93 217
422 93 279
423 93 388
424 93 397
425 93 114
426 93 885
427 93 369
428 93 723
429 93 1160
430 93 552
431 93 542
432 93 631
433 93 747
434 93 448
435 93 222
436 93 439
437 93 1430
438 93 241
439 93 542
440 93 703
441 93 974
442 93 116
443 93 800
444 93 969
445 93 624
446 93 689
447 93 454
448 93 529
449 93 341
450 93 687
451 93 787
452 93 127
453 93 1407
454 93 745
455 93 719
456 93 404
457 93 1451
458 93 298
459 93 657
460 93 406
461 93 159
462 93 217
463 93 706
464 93 873
465 93 671
466 93 635
467 93 365
468 93 123
469 93 672
470 93 477
471 93 88
472 93 459
473 93 463
474 93 996
475 93 683
476 93 94
477 93 484
478 93 399
479 93 675
480 93 354
481 93 551
482 93 423
483 93 1190
484 93 291
485 93 374
486 93 546
487 93 715
488 93 440
489 93 375
490 93 588
491 93 521
492 93 799
493 93 232
494 93 720
495 93 638
496 93 430
497 93 292
498 93 432
499 93 264
500 93 513
1 94 249
2 94 217
3 94 398
4 94 36
5 94 459
6 94 169
7 94 230
8 94 206
9 94 442
10 94 379
11 94 145
12 94 201
13 94 32
14 94 571
15 94 150
16 94 158
17 94 145
18 94 195
19 94 190
20 94 3
21 94 333
22 94 326
23 94 272
24 94 798
25 94 73
26 94 216
27 94 889
28 94 291
29 94 97
30 94 228
31 94 194
32 94 52
33 94 106
34 94 335
35 94 471
36 94 159
37 94 136
38 94 159
39 94 174
40 94 1089
41 94 449
42 94 207
43 94 206
44 94 344
45 94 257
46 94 1145
47 94 226
48 94 315
49 94 217
50 94 266
51 94 291
52 94 70
53 94 876
54 94 64
55 94 566
56 94 231
57 94 1038
58 94 349
59 94 230
60 94 826
61 94 352
62 94 376
63 94 133
64 94 249
65 94 633
66 94 569
67 94 256
68 94 697
69 94 982
70 94 276
71 94 63
72 94 333
73 94 121
74 94 557
75 94 194
76 94 214
77 94 169
78 94 147
79 94 984
80 94 5
81 94 117
82 94 212
83 94 271
84 94 189
85 94 262
86 94 184
87 94 94
88 94 172
89 94 682
90 94 518
91 94 294
92 94 216
93 94 228
94 94 351
95 94 418
96 94 221
97 94 138
98 94 648
99 94 157
100 94 181
101 94 483
102 94 176
104 94 1208
105 94 399
106 94 204
107 94 53
108 94 203
109 94 257
110 94 391
111 94 250
112 94 80
113 94 667
114 94 371
115 94 149
116 94 266
117 94 122
118 94 591
120 94 19
121 94 286
122 94 205
123 94 24
124 94 240
125 94 243
126 94 406
127 94 285
128 94 198
129 94 278
130 94 298
131 94 159
132 94 1138
133 94 112
134 94 256
135 94 114
136 94 693
137 94 181
138 94 101
139 94 146
140 94 190
141 94 342
142 94 162
143 94 139
144 94 150
145 94 534
146 94 188
147 94 137
148 94 544
149 94 206
150 94 102
151 94 326
152 94 246
153 94 69
154 94 505
155 94 1455
156 94 137
157 94 6
158 94 258
159 94 336
160 94 482
161 94 156
162 94 502
163 94 682
164 94 335
165 94 141
166 94 359
167 94 112
168 94 430
169 94 175
170 94 251
171 94 56
172 94 23
173 94 175
174 94 113
175 94 332
176 94 202
177 94 339
178 94 332
179 94 171
180 94 152
181 94 238
182 94 58
183 94 13
184 94 44
185 94 160
186 94 145
187 94 113
188 94 1015
189 94 265
190 94 195
191 94 617
192 94 6
193 94 160
194 94 856
195 94 189
196 94 93
197 94 75
198 94 48
199 94 858
200 94 612
201 94 156
202 94 178
203 94 361
204 94 97
205 94 460
206 94 85
207 94 404
208 94 169
209 94 283
210 94 157
211 94 585
212 94 180
213 94 450
214 94 233
215 94 164
216 94 556
217 94 137
218 94 686
219 94 594
220 94 295
222 94 346
223 94 42
224 94 626
225 94 218
226 94 181
227 94 241
228 94 123
229 94 328
231 94 210
232 94 279
233 94 825
234 94 439
235 94 138
236 94 17
237 94 389
238 94 397
239 94 409
240 94 681
241 94 707
242 94 392
243 94 165
245 94 173
246 94 241
247 94 130
248 94 126
249 94 591
250 94 450
251 94 399
252 94 543
253 94 207
254 94 244
255 94 512
256 94 247
257 94 217
258 94 739
259 94 182
260 94 197
261 94 263
262 94 252
263 94 206
264 94 216
265 94 155
266 94 24
267 94 337
268 94 190
269 94 319
270 94 276
271 94 433
272 94 192
273 94 803
274 94 144
275 94 188
276 94 218
277 94 220
278 94 663
279 94 294
280 94 111
281 94 91
282 94 136
283 94 49
284 94 327
285 94 172
286 94 137
287 94 72
288 94 140
289 94 234
290 94 79
291 94 168
292 94 156
293 94 397
294 94 364
295 94 505
296 94 184
297 94 126
298 94 958
299 94 104
300 94 414
301 94 238
302 94 283
303 94 359
304 94 56
305 94 290
306 94 183
307 94 145
308 94 468
309 94 109
310 94 416
311 94 417
312 94 193
313 94 189
314 94 295
316 94 423
317 94 484
318 94 138
319 94 96
320 94 335
321 94 132
322 94 614
323 94 142
324 94 688
325 94 181
326 94 146
327 94 217
328 94 720
329 94 127
330 94 89
331 94 455
332 94 650
334 94 119
336 94 188
337 94 330
338 94 1122
339 94 133
340 94 94
341 94 3
342 94 781
343 94 86
344 94 256
345 94 171
346 94 543
347 94 343
348 94 224
349 94 588
350 94 203
351 94 56
352 94 198
353 94 400
354 94 176
355 94 462
356 94 1089
357 94 506
358 94 335
359 94 253
360 94 139
361 94 182
362 94 56
363 94 64
364 94 135
365 94 114
366 94 902
367 94 671
368 94 55
369 94 307
370 94 216
371 94 230
372 94 136
373 94 444
374 94 214
375 94 332
376 94 132
377 94 481
378 94 162
379 94 74
380 94 68
381 94 174
382 94 126
383 94 592
384 94 481
385 94 419
386 94 134
387 94 37
388 94 247
389 94 447
390 94 435
391 94 175
392 94 141
393 94 264
394 94 160
395 94 395
396 94 373
397 94 85
398 94 146
399 94 1064
400 94 849
401 94 218
402 94 246
403 94 309
404 94 201
405 94 293
406 94 261
407 94 40
408 94 20
410 94 326
411 94 716
412 94 256
413 94 587
414 94 516
415 94 315
416 94 148
417 94 561
418 94 172
419 94 336
420 94 757
422 94 326
423 94 411
424 94 106
425 94 193
426 94 259
427 94 489
428 94 328
429 94 289
430 94 198
431 94 870
432 94 335
433 94 443
434 94 525
435 94 91
436 94 500
437 94 197
438 94 2
439 94 360
440 94 252
441 94 167
442 94 221
443 94 158
444 94 273
445 94 23
446 94 221
447 94 201
448 94 688
449 94 839
450 94 212
451 94 392
452 94 323
453 94 597
454 94 393
455 94 136
456 94 291
457 94 173
459 94 198
460 94 235
462 94 332
463 94 199
464 94 426
465 94 454
466 94 489
467 94 153
468 94 55
469 94 839
470 94 268
471 94 500
472 94 172
473 94 346
474 94 401
475 94 620
476 94 580
477 94 164
478 94 850
479 94 470
480 94 251
481 94 1196
482 94 301
483 94 465
485 94 810
486 94 78
487 94 114
488 94 323
489 94 226
490 94 166
491 94 396
492 94 233
493 94 124
494 94 585
495 94 22
496 94 317
498 94 206
499 94 127
500 94 750
1 95 1033
2 95 1019
3 95 1207
4 95 278
5 95 991
6 95 623
7 95 876
8 95 1061
9 95 822
10 95 705
11 95 342
12 95 1843
13 95 537
14 95 504
15 95 1076
16 95 1653
17 95 1461
18 95 1121
19 95 1279
21 95 1997
22 95 942
23 95 683
24 95 1077
25 95 435
26 95 901
27 95 766
28 95 958
29 95 833
30 95 1406
31 95 1164
32 95 593
33 95 530
34 95 1066
35 95 593
36 95 551
37 95 961
38 95 1913
39 95 666
40 95 768
41 95 869
42 95 925
43 95 922
44 95 637
45 95 1043
46 95 539
47 95 844
48 95 380
49 95 878
50 95 879
51 95 1120
52 95 195
53 95 1068
54 95 605
55 95 770
56 95 596
57 95 1103
58 95 682
59 95 1366
60 95 963
61 95 221
62 95 1099
63 95 456
64 95 716
65 95 1419
66 95 337
67 95 1337
68 95 457
69 95 1066
70 95 1336
71 95 692
72 95 1728
73 95 996
74 95 762
75 95 1307
76 95 550
77 95 638
78 95 767
79 95 1968
81 95 935
82 95 1036
83 95 313
84 95 994
85 95 1696
86 95 455
87 95 1154
88 95 256
89 95 773
90 95 852
91 95 988
92 95 664
93 95 1074
94 95 1325
95 95 664
96 95 1980
97 95 923
98 95 1448
99 95 681
100 95 1183
101 95 995
102 95 1912
103 95 428
104 95 807
105 95 223
106 95 1357
107 95 338
108 95 1340
109 95 803
110 95 182
111 95 1536
112 95 483
113 95 827
114 95 1088
115 95 792
116 95 279
117 95 857
118 95 1464
119 95 70
120 95 348
121 95 860
122 95 1393
123 95 376
124 95 1818
125 95 794
126 95 1382
127 95 824
128 95 1648
129 95 1105
130 95 1502
131 95 561
132 95 820
133 95 425
134 95 963
135 95 286
136 95 670
137 95 385
138 95 547
139 95 801
140 95 291
141 95 1219
142 95 206
143 95 721
144 95 458
145 95 542
146 95 1210
147 95 1326
148 95 773
149 95 898
150 95 703
151 95 1046
152 95 619
153 95 892
154 95 373
155 95 499
156 95 1369
157 95 923
158 95 799
159 95 1753
160 95 1224
161 95 442
162 95 237
163 95 247
164 95 240
165 95 669
166 95 966
167 95 1140
168 95 324
169 95 1651
170 95 971
171 95 530
172 95 325
173 95 1185
174 95 398
175 95 1754
176 95 790
177 95 742
178 95 578
179 95 518
180 95 795
181 95 1110
182 95 812
183 95 524
184 95 183
185 95 1060
186 95 1760
187 95 886
188 95 1759
189 95 896
190 95 528
191 95 752
192 95 585
193 95 393
194 95 1221
195 95 1007
196 95 834
197 95 1017
198 95 648
199 95 340
200 95 488
201 95 354
202 95 1005
203 95 1153
204 95 1451
205 95 896
206 95 1033
207 95 796
208 95 374
209 95 1505
210 95 1050
211 95 645
212 95 1285
213 95 1156
214 95 480
215 95 211
216 95 381
217 95 372
218 95 659
219 95 649
220 95 302
222 95 1762
223 95 495
224 95 813
225 95 1077
226 95 338
227 95 890
228 95 309
229 95 923
230 95 276
231 95 1898
232 95 593
233 95 1088
234 95 277
235 95 1961
236 95 299
237 95 504
238 95 913
239 95 743
240 95 1590
241 95 882
242 95 634
243 95 864
244 95 34
245 95 649
246 95 440
247 95 1166
248 95 601
249 95 631
250 95 332
251 95 614
252 95 954
253 95 1270
254 95 597
255 95 1432
256 95 1024
257 95 753
258 95 2308
259 95 1010
260 95 1629
261 95 1001
262 95 927
263 95 602
264 95 766
265 95 357
266 95 325
267 95 928
268 95 657
269 95 1075
270 95 934
271 95 560
272 95 1036
273 95 963
274 95 474
275 95 853
276 95 1648
277 95 779
278 95 729
279 95 1392
280 95 765
281 95 309
282 95 228
283 95 495
284 95 422
285 95 1095
286 95 738
287 95 213
288 95 949
289 95 873
290 95 977
291 95 495
292 95 1267
293 95 774
294 95 628
295 95 1668
296 95 198
297 95 699
298 95 666
299 95 1231
300 95 1270
301 95 1202
302 95 605
303 95 983
304 95 874
305 95 1054
306 95 325
307 95 413
308 95 1130
309 95 745
310 95 421
311 95 620
312 95 765
313 95 936
314 95 1710
316 95 888
317 95 567
318 95 811
319 95 1306
320 95 408
321 95 706
322 95 511
323 95 1212
324 95 455
325 95 565
326 95 643
327 95 240
328 95 616
329 95 572
330 95 341
331 95 1009
332 95 830
333 95 212
334 95 1095
335 95 49
336 95 892
337 95 1067
338 95 1533
339 95 745
340 95 591
341 95 111
342 95 685
343 95 997
344 95 1488
345 95 518
346 95 630
347 95 628
348 95 998
349 95 555
350 95 1166
351 95 532
352 95 1603
353 95 610
354 95 1012
355 95 1107
356 95 790
357 95 1542
358 95 846
359 95 991
360 95 996
361 95 1047
362 95 1193
363 95 413
364 95 1221
365 95 538
366 95 893
367 95 650
368 95 201
369 95 1325
370 95 238
371 95 799
372 95 908
373 95 847
374 95 1294
375 95 693
376 95 1310
377 95 392
378 95 673
379 95 944
380 95 1090
381 95 1022
382 95 991
383 95 560
384 95 1169
385 95 945
386 95 930
387 95 148
388 95 1180
389 95 196
390 95 781
391 95 821
392 95 398
393 95 241
394 95 1238
395 95 1272
396 95 665
397 95 924
398 95 1320
399 95 769
400 95 532
401 95 263
402 95 919
403 95 475
404 95 1024
405 95 925
406 95 202
407 95 568
408 95 347
409 95 443
410 95 951
411 95 646
412 95 331
413 95 1365
414 95 1165
415 95 758
416 95 1055
417 95 81
418 95 347
419 95 1579
420 95 735
422 95 764
423 95 811
424 95 873
425 95 312
426 95 1943
427 95 884
428 95 1340
429 95 1605
430 95 1100
431 95 1282
432 95 693
433 95 232
434 95 598
435 95 316
436 95 625
437 95 627
438 95 714
439 95 1106
440 95 998
441 95 196
442 95 1053
443 95 958
444 95 2087
445 95 40
446 95 881
447 95 516
448 95 882
449 95 569
450 95 1582
451 95 1263
452 95 1494
453 95 610
454 95 1075
455 95 513
456 95 523
457 95 1321
458 95 544
459 95 861
460 95 1500
461 95 370
462 95 409
463 95 1035
464 95 1030
465 95 421
466 95 410
467 95 1052
468 95 303
469 95 1035
470 95 350
471 95 450
472 95 451
473 95 1723
474 95 579
475 95 328
476 95 878
477 95 466
478 95 1212
479 95 945
480 95 856
481 95 1081
482 95 546
483 95 322
484 95 535
485 95 1212
486 95 816
487 95 1113
488 95 1760
489 95 572
490 95 1199
491 95 659
492 95 300
493 95 265
494 95 976
495 95 468
496 95 1706
497 95 228
498 95 804
499 95 813
500 95 800
1 96 857
2 96 986
3 96 1478
4 96 662
5 96 530
6 96 1775
7 96 1889
8 96 939
9 96 1501
10 96 2338
11 96 1839
12 96 2168
13 96 870
14 96 1118
15 96 884
16 96 1665
17 96 1516
18 96 1270
19 96 2336
21 96 3179
22 96 675
23 96 1298
24 96 2643
25 96 1179
26 96 1979
27 96 2015
28 96 1684
29 96 1032
30 96 2801
31 96 566
32 96 1489
33 96 1649
34 96 1115
35 96 1228
36 96 1042
37 96 2014
38 96 2397
39 96 1992
40 96 823
41 96 1177
42 96 1736
43 96 982
44 96 417
45 96 2334
46 96 468
47 96 2277
48 96 2220
49 96 1011
50 96 762
51 96 1073
52 96 492
53 96 1118
54 96 1240
55 96 1625
56 96 1031
57 96 1099
58 96 799
59 96 2746
60 96 894
61 96 2140
62 96 893
63 96 1242
64 96 773
65 96 1126
66 96 791
67 96 924
68 96 1601
69 96 1627
70 96 988
71 96 860
72 96 2025
73 96 1760
74 96 927
75 96 2802
76 96 1592
77 96 941
78 96 1802
79 96 2258
81 96 1545
82 96 1414
83 96 1786
84 96 1183
85 96 1312
86 96 1331
87 96 1544
88 96 2081
89 96 1325
90 96 2195
91 96 1618
92 96 657
93 96 1049
94 96 2577
95 96 1477
96 96 1452
97 96 1339
98 96 1145
99 96 1093
100 96 552
101 96 2587
102 96 783
103 96 876
104 96 1100
105 96 1243
106 96 2775
107 96 379
108 96 1746
109 96 705
110 96 1453
111 96 701
112 96 632
113 96 916
114 96 869
115 96 2164
116 96 2385
117 96 1832
118 96 1345
119 96 240
120 96 618
121 96 992
122 96 1334
123 96 336
124 96 2155
125 96 1759
126 96 1390
127 96 2013
128 96 1989
129 96 2162
130 96 716
131 96 1143
132 96 3209
133 96 616
134 96 925
135 96 359
136 96 1232
137 96 1268
138 96 1663
139 96 1194
140 96 553
141 96 1478
142 96 1749
143 96 2497
144 96 1957
145 96 3505
146 96 2257
147 96 981
148 96 889
149 96 1103
150 96 1718
151 96 1567
152 96 949
153 96 701
154 96 1055
155 96 2782
156 96 1597
157 96 771
158 96 2182
159 96 2028
160 96 1216
161 96 1371
162 96 801
163 96 1391
164 96 1727
165 96 1391
166 96 702
167 96 1131
168 96 659
169 96 1688
170 96 940
171 96 1291
172 96 1045
173 96 1187
174 96 1312
175 96 1983
176 96 1551
177 96 1311
178 96 1128
179 96 1160
180 96 977
181 96 2062
182 96 1642
183 96 427
184 96 1004
185 96 1237
186 96 1334
187 96 1554
188 96 1630
189 96 1612
190 96 620
191 96 1784
192 96 663
193 96 1309
194 96 1215
195 96 1384
196 96 199
197 96 1553
198 96 1369
199 96 427
200 96 629
201 96 903
202 96 750
203 96 2395
204 96 1340
205 96 1673
206 96 738
207 96 1409
208 96 1286
209 96 675
210 96 1447
211 96 1293
212 96 1748
213 96 1676
214 96 3429
215 96 1711
216 96 1176
217 96 1170
218 96 1378
219 96 960
220 96 1793
222 96 1978
223 96 1434
224 96 1833
225 96 1315
226 96 1428
227 96 1039
228 96 393
229 96 2183
230 96 464
231 96 2187
232 96 1282
233 96 2109
234 96 1197
235 96 2471
236 96 1097
237 96 654
238 96 2038
239 96 1651
240 96 1815
241 96 2381
242 96 1177
243 96 2214
244 96 118
245 96 955
246 96 2218
247 96 1864
248 96 1010
249 96 938
250 96 1275
251 96 1744
252 96 704
253 96 2795
254 96 665
255 96 2454
256 96 2232
257 96 2149
258 96 1402
259 96 1246
260 96 1033
261 96 2936
262 96 827
263 96 3182
264 96 2276
265 96 1529
266 96 1039
267 96 769
268 96 2375
269 96 1557
270 96 1086
271 96 521
272 96 2175
273 96 1984
274 96 1461
275 96 1883
276 96 1075
277 96 1161
278 96 2806
279 96 666
280 96 955
281 96 1336
282 96 1194
283 96 1234
284 96 1251
285 96 574
286 96 1049
287 96 519
288 96 519
289 96 1926
290 96 1218
291 96 1483
292 96 936
293 96 1763
294 96 1597
295 96 1842
296 96 657
297 96 1109
298 96 1121
299 96 1448
300 96 1226
301 96 898
302 96 1329
303 96 1123
304 96 1198
305 96 1929
306 96 1321
307 96 1989
308 96 2144
309 96 1093
310 96 2065
311 96 1202
312 96 2377
313 96 1924
314 96 1525
316 96 2474
317 96 1909
318 96 1771
319 96 1570
320 96 2357
321 96 1144
322 96 1310
323 96 584
324 96 1635
325 96 1164
326 96 738
327 96 1394
328 96 1169
329 96 747
330 96 318
331 96 1775
332 96 1834
333 96 970
334 96 3108
335 96 77
336 96 1087
337 96 1478
338 96 2922
339 96 1531
340 96 579
341 96 740
342 96 1185
343 96 1538
344 96 669
345 96 1388
346 96 1647
347 96 2008
348 96 914
349 96 1441
350 96 1358
351 96 1296
352 96 1029
353 96 700
354 96 1190
355 96 1079
356 96 870
357 96 2005
358 96 778
359 96 1817
360 96 1588
361 96 1246
362 96 1108
363 96 1159
364 96 1443
365 96 1724
366 96 1013
367 96 2370
368 96 1582
369 96 1606
370 96 1620
371 96 1255
372 96 1626
373 96 2453
374 96 2764
375 96 2096
376 96 1214
377 96 1449
378 96 1050
379 96 2037
380 96 800
381 96 1218
382 96 1259
383 96 1490
384 96 1412
385 96 1357
386 96 1806
387 96 440
388 96 1489
389 96 1129
390 96 1691
391 96 1611
392 96 830
393 96 2366
394 96 596
395 96 1452
396 96 1726
397 96 1753
398 96 867
399 96 616
400 96 982
401 96 1722
402 96 1855
403 96 894
404 96 903
405 96 1705
406 96 860
407 96 1453
408 96 745
409 96 899
410 96 610
411 96 1210
412 96 1819
413 96 1263
414 96 1700
415 96 1188
416 96 1507
417 96 1869
418 96 1045
419 96 1764
420 96 1542
422 96 515
423 96 1717
424 96 1164
425 96 914
426 96 1588
427 96 1281
428 96 1574
429 96 1489
430 96 1158
431 96 1919
432 96 2031
433 96 2041
434 96 1716
435 96 1113
436 96 1795
437 96 2279
438 96 1117
439 96 883
440 96 462
441 96 1758
442 96 1117
443 96 1520
444 96 1573
445 96 569
446 96 1978
447 96 822
448 96 2418
449 96 1379
450 96 1078
451 96 1227
452 96 2620
453 96 1740
454 96 1908
455 96 1913
456 96 1020
457 96 1790
458 96 485
459 96 1938
460 96 710
461 96 835
462 96 1392
463 96 908
464 96 2052
465 96 1435
466 96 1443
467 96 2019
468 96 487
469 96 2308
470 96 1020
471 96 1228
472 96 1413
473 96 2002
474 96 1396
475 96 801
476 96 2038
477 96 1426
478 96 1154
479 96 2763
480 96 1257
481 96 1503
482 96 1413
483 96 2946
484 96 711
485 96 1151
486 96 1245
487 96 2315
488 96 2092
489 96 2579
490 96 1325
491 96 816
492 96 1008
493 96 601
494 96 2463
495 96 1057
496 96 2029
497 96 1065
498 96 2283
499 96 762
500 96 969
1 97 1977
2 97 3194
3 97 2834
4 97 1111
5 97 1180
6 97 3003
7 97 2488
8 97 2138
9 97 2166
10 97 2525
11 97 1520
12 97 2966
13 97 1548
14 97 1955
15 97 2053
16 97 2487
17 97 1885
18 97 1047
19 97 4143
21 97 3953
22 97 1596
23 97 1963
24 97 3546
25 97 2157
26 97 2372
27 97 3389
28 97 2018
29 97 1795
30 97 1761
31 97 1597
32 97 1516
33 97 2615
34 97 724
35 97 982
36 97 1433
37 97 2604
38 97 2781
39 97 1636
40 97 1349
41 97 2306
42 97 1509
43 97 2719
44 97 1903
45 97 2961
46 97 2277
47 97 2699
48 97 2089
49 97 2831
50 97 890
51 97 2949
52 97 1535
53 97 2509
54 97 1026
55 97 1407
56 97 1804
57 97 1408
58 97 2739
59 97 1798
60 97 2663
61 97 2363
62 97 1782
63 97 792
64 97 1390
65 97 2996
66 97 1278
67 97 2184
68 97 1800
69 97 1439
70 97 1341
71 97 1418
72 97 1483
73 97 4059
74 97 1852
75 97 1851
76 97 2656
77 97 2076
78 97 1867
79 97 3394
81 97 1515
82 97 1143
83 97 2424
84 97 1805
85 97 3109
86 97 2051
87 97 3001
88 97 2820
89 97 1445
90 97 1968
91 97 1036
92 97 1321
93 97 2232
94 97 2099
95 97 1019
96 97 4039
97 97 1794
98 97 3016
99 97 1847
100 97 1644
101 97 2004
102 97 2300
103 97 832
104 97 1826
105 97 1924
106 97 1860
107 97 1641
108 97 2169
109 97 1535
110 97 1416
111 97 2811
112 97 907
113 97 718
114 97 1820
115 97 897
116 97 3761
117 97 1768
118 97 1579
119 97 1080
120 97 1438
121 97 2136
122 97 1856
123 97 1298
124 97 3015
125 97 2055
126 97 2134
127 97 1660
128 97 1274
129 97 1466
130 97 2744
131 97 4396
132 97 3149
133 97 2335
134 97 3015
135 97 853
136 97 1951
137 97 2109
138 97 799
139 97 1376
140 97 917
141 97 2766
142 97 1859
143 97 2940
144 97 2137
145 97 2054
146 97 4209
147 97 2439
148 97 1909
149 97 1818
150 97 3199
151 97 1059
152 97 2529
153 97 923
154 97 2003
155 97 2360
156 97 1591
157 97 1194
158 97 3185
159 97 1541
160 97 2810
161 97 2092
162 97 2281
163 97 2322
164 97 1746
165 97 2417
166 97 2390
167 97 1185
168 97 1254
169 97 2507
170 97 3218
171 97 961
172 97 994
173 97 3100
174 97 2674
175 97 1439
176 97 1721
177 97 3349
178 97 1584
179 97 4347
180 97 1476
181 97 1998
182 97 2263
183 97 2320
184 97 1544
185 97 1884
186 97 2398
187 97 1463
188 97 2519
189 97 1253
190 97 2524
191 97 2369
192 97 1083
193 97 2201
194 97 2670
195 97 861
196 97 587
197 97 1544
198 97 1191
199 97 3307
200 97 1337
201 97 1243
202 97 2517
203 97 2151
204 97 1899
205 97 2154
206 97 1992
207 97 1905
208 97 2205
209 97 2767
210 97 2017
211 97 4177
212 97 2347
213 97 1948
214 97 1962
215 97 1835
216 97 3360
217 97 2558
218 97 2349
219 97 956
220 97 2507
222 97 1445
223 97 1476
224 97 1230
225 97 1103
226 97 661
227 97 2676
228 97 885
229 97 1856
230 97 789
231 97 2965
232 97 2411
233 97 2339
234 97 1790
235 97 2782
236 97 895
237 97 1322
238 97 991
239 97 1784
240 97 1546
241 97 2465
242 97 1087
243 97 1866
244 97 744
245 97 2210
246 97 3351
247 97 2155
248 97 810
249 97 1082
250 97 1715
251 97 1637
252 97 2501
253 97 1893
254 97 1928
255 97 3371
256 97 4401
257 97 3836
258 97 1434
259 97 1818
260 97 1480
261 97 2592
262 97 843
263 97 3179
264 97 3963
265 97 668
266 97 1042
267 97 2487
268 97 1484
269 97 2826
270 97 2071
271 97 372
272 97 2019
273 97 2278
274 97 2031
275 97 2446
276 97 1426
277 97 1750
278 97 2416
279 97 2692
280 97 2881
281 97 2387
282 97 1468
283 97 1382
284 97 4023
285 97 1986
286 97 1346
287 97 1398
288 97 2423
289 97 2405
290 97 2156
291 97 2205
292 97 1478
293 97 1749
294 97 2029
295 97 3033
296 97 2890
297 97 3262
298 97 3514
299 97 1587
300 97 4244
301 97 1834
302 97 2226
303 97 2167
304 97 1422
305 97 2313
306 97 1596
307 97 2062
308 97 2016
309 97 1932
310 97 1533
311 97 1066
312 97 2704
313 97 1524
314 97 2955
316 97 4042
317 97 2734
318 97 1908
319 97 1609
320 97 1693
321 97 3215
322 97 1429
323 97 1742
324 97 1829
325 97 3196
326 97 2153
327 97 1376
328 97 1900
329 97 1310
330 97 1792
331 97 1558
332 97 1225
333 97 1618
334 97 2135
335 97 620
336 97 2769
337 97 2599
338 97 3332
339 97 1309
340 97 2437
341 97 885
342 97 1844
343 97 2223
344 97 2778
345 97 2021
346 97 1982
347 97 2033
348 97 3232
349 97 2251
350 97 1036
351 97 1027
352 97 1493
353 97 2043
354 97 1840
355 97 1661
356 97 1367
357 97 3206
358 97 1724
359 97 2209
360 97 1901
361 97 1810
362 97 1976
363 97 917
364 97 3307
365 97 791
366 97 1145
367 97 2047
368 97 2908
369 97 1643
370 97 1690
371 97 3159
372 97 1886
373 97 4127
374 97 1857
375 97 3118
376 97 891
377 97 3794
378 97 2510
379 97 3881
380 97 3329
381 97 1895
382 97 2393
383 97 1783
384 97 1369
385 97 1829
386 97 1220
387 97 1261
388 97 1102
389 97 1104
390 97 1765
391 97 2053
392 97 1670
393 97 3682
394 97 1618
395 97 2804
396 97 1724
397 97 1677
398 97 974
399 97 2459
400 97 2632
401 97 1077
402 97 2130
403 97 1418
404 97 2329
405 97 1979
406 97 595
407 97 1296
408 97 1279
409 97 723
410 97 1395
411 97 1865
412 97 2532
413 97 2991
414 97 2766
415 97 1371
416 97 2067
417 97 3424
418 97 2569
419 97 1552
420 97 1919
422 97 1219
423 97 1690
424 97 1352
425 97 3782
426 97 4153
427 97 730
428 97 1651
429 97 2940
430 97 2157
431 97 3351
432 97 1999
433 97 2459
434 97 1493
435 97 2179
436 97 1479
437 97 1548
438 97 1722
439 97 1676
440 97 1118
441 97 1942
442 97 2050
443 97 2225
444 97 4187
445 97 1165
446 97 2323
447 97 2072
448 97 2517
449 97 2434
450 97 1446
451 97 4200
452 97 3663
453 97 1873
454 97 2829
455 97 1913
456 97 937
457 97 3549
458 97 822
459 97 2367
460 97 2734
461 97 1047
462 97 4041
463 97 2056
464 97 2884
465 97 3693
466 97 3809
467 97 2989
468 97 1195
469 97 3465
470 97 696
471 97 2914
472 97 2073
473 97 1472
474 97 1948
475 97 1331
476 97 1439
477 97 2017
478 97 2603
479 97 1662
480 97 1977
481 97 3087
482 97 2288
483 97 3262
484 97 1648
485 97 2603
486 97 2844
487 97 2166
488 97 1472
489 97 1430
490 97 1840
491 97 2747
492 97 5192
493 97 1094
494 97 1749
495 97 639
496 97 1544
497 97 1632
498 97 2347
499 97 1581
500 97 2079
1 98 840
2 98 995
3 98 420
4 98 112
5 98 166
6 98 1370
7 98 150
8 98 1068
9 98 1533
10 98 617
11 98 626
12 98 1309
13 98 700
14 98 1144
15 98 2456
16 98 337
17 98 706
18 98 1284
19 98 572
21 98 1693
22 98 289
23 98 486
24 98 499
25 98 375
26 98 144
27 98 1174
28 98 932
29 98 521
30 98 1049
31 98 1647
32 98 983
33 98 955
34 98 821
35 98 240
36 98 1450
37 98 633
38 98 807
39 98 676
40 98 1337
41 98 2093
42 98 474
43 98 506
44 98 603
45 98 431
46 98 196
47 98 944
48 98 640
49 98 1016
50 98 902
51 98 1713
52 98 832
53 98 1483
54 98 287
55 98 913
56 98 550
57 98 837
58 98 973
59 98 1055
60 98 710
61 98 1719
62 98 839
63 98 1603
64 98 404
65 98 232
66 98 624
67 98 539
68 98 865
69 98 598
70 98 261
71 98 801
72 98 627
73 98 1341
74 98 1005
75 98 1046
76 98 366
77 98 137
78 98 426
79 98 981
81 98 736
82 98 1038
83 98 138
84 98 1822
85 98 640
86 98 1337
87 98 680
88 98 1050
89 98 672
90 98 1347
91 98 427
92 98 352
93 98 845
94 98 306
95 98 728
96 98 2262
97 98 127
98 98 245
99 98 714
100 98 1746
101 98 1235
102 98 1695
103 98 156
104 98 160
105 98 723
106 98 1038
107 98 278
108 98 370
109 98 841
110 98 248
111 98 940
112 98 417
113 98 698
114 98 713
115 98 331
116 98 272
117 98 217
118 98 948
120 98 496
121 98 441
122 98 234
123 98 638
124 98 771
125 98 219
126 98 351
127 98 1449
128 98 1176
129 98 1239
130 98 1000
131 98 378
132 98 342
133 98 197
134 98 528
135 98 354
136 98 1325
137 98 1349
138 98 137
139 98 319
140 98 347
141 98 663
142 98 175
143 98 1195
144 98 760
145 98 690
146 98 532
147 98 873
148 98 1065
149 98 530
150 98 360
151 98 442
152 98 598
153 98 616
154 98 671
155 98 686
156 98 639
157 98 240
158 98 1324
159 98 615
160 98 729
161 98 1399
162 98 629
163 98 891
164 98 545
165 98 1542
166 98 609
167 98 404
168 98 562
169 98 341
170 98 516
171 98 325
172 98 181
173 98 1258
174 98 225
175 98 644
176 98 1225
177 98 207
178 98 400
179 98 397
180 98 749
181 98 726
182 98 207
183 98 8
184 98 295
185 98 1412
186 98 1459
187 98 773
188 98 737
189 98 1662
190 98 277
191 98 1201
192 98 25
193 98 1292
194 98 1993
195 98 446
196 98 472
197 98 332
198 98 176
199 98 640
200 98 628
201 98 304
202 98 504
203 98 1695
204 98 341
205 98 1104
206 98 1246
207 98 1099
208 98 1348
209 98 1008
210 98 820
211 98 806
212 98 1068
213 98 632
214 98 1306
215 98 173
216 98 880
217 98 1349
218 98 664
219 98 715
220 98 125
222 98 587
223 98 1011
224 98 553
225 98 1329
226 98 604
227 98 682
228 98 346
229 98 1144
230 98 212
231 98 1294
232 98 1032
233 98 658
234 98 2115
235 98 839
236 98 295
237 98 644
238 98 336
239 98 594
240 98 1538
241 98 710
242 98 608
243 98 965
245 98 149
246 98 759
247 98 469
248 98 340
249 98 731
250 98 327
251 98 675
252 98 877
253 98 1092
254 98 771
255 98 626
256 98 583
257 98 398
258 98 876
259 98 1430
260 98 309
261 98 324
262 98 971
263 98 2322
264 98 434
265 98 570
266 98 201
267 98 705
268 98 394
269 98 738
270 98 880
271 98 1152
272 98 573
273 98 1017
274 98 1341
275 98 142
276 98 1221
277 98 323
278 98 844
279 98 977
280 98 1910
281 98 536
282 98 519
283 98 188
284 98 757
285 98 541
286 98 622
287 98 863
288 98 268
289 98 147
290 98 871
291 98 703
292 98 375
293 98 598
294 98 1026
295 98 632
296 98 1222
297 98 472
298 98 841
299 98 205
300 98 1229
301 98 1604
302 98 682
303 98 408
304 98 450
305 98 1361
306 98 898
307 98 794
308 98 356
309 98 873
310 98 439
311 98 665
312 98 966
313 98 271
314 98 620
316 98 251
317 98 1606
318 98 420
319 98 621
320 98 692
321 98 440
322 98 329
323 98 1658
324 98 848
325 98 169
326 98 632
327 98 532
328 98 1306
329 98 204
330 98 350
331 98 655
332 98 558
333 98 354
334 98 844
336 98 636
337 98 658
338 98 556
339 98 978
340 98 1184
341 98 461
342 98 1259
343 98 611
344 98 935
345 98 1361
346 98 419
347 98 359
348 98 1018
349 98 905
350 98 1248
351 98 298
352 98 319
353 98 651
354 98 1521
355 98 1363
356 98 1336
357 98 1341
358 98 821
359 98 1013
360 98 515
361 98 1389
362 98 1214
363 98 238
364 98 832
365 98 143
366 98 881
367 98 1056
368 98 770
369 98 898
370 98 205
371 98 388
372 98 533
373 98 243
374 98 1040
375 98 172
376 98 807
377 98 1408
378 98 1116
379 98 464
380 98 566
381 98 1434
382 98 1216
383 98 651
384 98 586
385 98 489
386 98 632
387 98 245
388 98 1124
389 98 213
390 98 631
391 98 903
392 98 655
393 98 262
394 98 1637
395 98 407
396 98 1016
397 98 320
398 98 736
399 98 370
400 98 619
401 98 1757
402 98 944
403 98 409
404 98 1005
405 98 1194
406 98 213
407 98 172
408 98 152
409 98 150
410 98 405
411 98 1304
412 98 148
413 98 240
414 98 920
415 98 1100
416 98 824
417 98 287
418 98 439
419 98 834
420 98 171
422 98 396
423 98 597
424 98 133
425 98 1007
426 98 2349
427 98 888
428 98 920
429 98 638
430 98 887
431 98 509
432 98 363
433 98 1720
434 98 908
435 98 1143
436 98 889
437 98 406
438 98 387
439 98 704
440 98 1239
441 98 153
442 98 915
443 98 704
444 98 2382
445 98 3
446 98 129
447 98 437
448 98 737
449 98 544
450 98 338
451 98 1345
452 98 1158
453 98 943
454 98 1097
455 98 1013
456 98 400
457 98 1000
458 98 395
459 98 166
460 98 989
461 98 508
462 98 758
463 98 1035
464 98 1378
465 98 1403
466 98 1381
467 98 403
468 98 457
469 98 1957
470 98 333
471 98 597
472 98 1299
473 98 608
474 98 115
475 98 628
476 98 1010
477 98 1290
478 98 2014
479 98 680
480 98 1119
481 98 460
482 98 710
483 98 239
484 98 654
485 98 1964
486 98 718
487 98 864
488 98 646
489 98 413
490 98 375
491 98 949
492 98 875
493 98 199
494 98 1740
495 98 541
496 98 637
497 98 352
498 98 331
499 98 116
500 98 580
1 99 2701
2 99 2178
3 99 2240
4 99 1339
5 99 1576
6 99 1479
7 99 1807
8 99 3382
9 99 2506
10 99 5184
11 99 1722
12 99 2687
13 99 2100
14 99 1220
15 99 1858
16 99 4214
17 99 2360
18 99 2114
20 99 1108
21 99 1958
22 99 1729
23 99 1790
24 99 8
25 99 1618
26 99 1966
27 99 2357
28 99 4879
29 99 3430
30 99 150
31 99 26
32 99 1216
33 99 2475
34 99 5508
35 99 1191
36 99 2539
37 99 2553
38 99 1515
39 99 1622
40 99 3286
41 99 3950
42 99 2135
43 99 1327
44 99 2456
45 99 2968
46 99 3001
47 99 3124
48 99 5032
49 99 2513
50 99 1889
51 99 1711
52 99 1800
53 99 33
54 99 2664
55 99 2350
56 99 2220
57 99 3029
58 99 1454
59 99 136
60 99 2067
61 99 2307
62 99 1778
63 99 2421
64 99 1277
65 99 1381
66 99 3431
67 99 4613
68 99 1515
69 99 1734
70 99 2443
71 99 1826
72 99 59
73 99 1482
74 99 2184
75 99 147
76 99 3397
77 99 3175
78 99 1794
80 99 763
81 99 2676
82 99 2257
83 99 2637
84 99 2280
85 99 2595
86 99 9
87 99 2091
88 99 2025
89 99 3588
90 99 1687
91 99 1713
92 99 2206
93 99 3426
94 99 3634
95 99 1574
96 99 7
97 99 1775
98 99 1361
99 99 2354
100 99 26
101 99 1690
102 99 2814
103 99 1093
104 99 2375
105 99 1661
106 99 150
107 99 1127
108 99 2275
109 99 1742
110 99 1988
111 99 768
112 99 920
113 99 2888
114 99 1765
115 99 1538
116 99 1158
117 99 2760
118 99 2662
119 99 1920
120 99 1564
121 99 2392
122 99 2624
123 99 1542
124 99 2546
125 99 2905
126 99 3655
127 99 2777
128 99 3276
129 99 2207
130 99 804
131 99 7
132 99 1751
133 99 2258
134 99 3091
135 99 1153
136 99 1891
137 99 1679
138 99 1659
139 99 2098
140 99 1370
141 99 3891
142 99 2093
143 99 1247
144 99 2536
145 99 2401
147 99 1405
148 99 2227
149 99 2330
150 99 3114
151 99 2860
152 99 3795
153 99 2599
154 99 1647
155 99 3071
157 99 1511
158 99 2276
159 99 38
160 99 3945
161 99 7
162 99 3358
163 99 3617
164 99 1946
165 99 3449
166 99 2778
167 99 1550
168 99 1134
169 99 4265
170 99 3092
171 99 2650
172 99 1120
173 99 2603
174 99 1969
175 99 48
176 99 2914
177 99 2797
178 99 1765
179 99 8
180 99 1888
181 99 1766
182 99 1450
183 99 2276
184 99 1199
185 99 3290
186 99 3140
187 99 2760
188 99 2788
189 99 3282
190 99 3122
191 99 1892
192 99 1206
193 99 1687
194 99 2065
195 99 3724
196 99 3153
197 99 1867
198 99 2298
199 99 3220
200 99 1595
201 99 2138
202 99 2059
203 99 2646
204 99 4146
206 99 2688
207 99 1460
208 99 1703
209 99 794
210 99 2840
211 99 3067
212 99 2611
213 99 2118
214 99 3816
215 99 2082
216 99 3045
217 99 2672
218 99 2277
219 99 1949
220 99 2763
221 99 1102
222 99 61
223 99 1214
224 99 1607
225 99 2218
226 99 1955
227 99 1570
228 99 1249
229 99 4216
230 99 1393
231 99 2663
232 99 1362
233 99 2572
234 99 2963
235 99 1465
236 99 651
237 99 1416
238 99 2336
240 99 3698
241 99 1615
242 99 3023
243 99 2399
244 99 2217
245 99 3201
246 99 2369
247 99 2494
248 99 2167
249 99 1951
250 99 2483
251 99 1839
252 99 1402
253 99 156
254 99 2512
255 99 1627
256 99 1128
257 99 2870
258 99 3337
259 99 3220
260 99 5
261 99 3492
262 99 1961
263 99 5
264 99 2799
265 99 1921
266 99 1176
267 99 2825
268 99 2397
269 99 3955
270 99 2559
271 99 2070
272 99 2316
273 99 2234
274 99 11
275 99 1903
276 99 1881
277 99 997
278 99 2663
279 99 754
280 99 2670
281 99 1821
282 99 1090
283 99 3153
284 99 1986
285 99 2803
286 99 1844
287 99 1842
288 99 3041
289 99 1826
290 99 2958
291 99 2678
292 99 2610
294 99 4232
295 99 3532
296 99 2084
297 99 4299
298 99 1062
299 99 4480
300 99 1900
301 99 1377
302 99 3305
303 99 2962
304 99 2643
305 99 1884
306 99 1342
307 99 2486
308 99 1679
309 99 2138
310 99 4019
311 99 3000
312 99 3312
313 99 3290
314 99 2344
315 99 1151
317 99 2264
318 99 1692
320 99 1903
321 99 4268
322 99 1897
323 99 26
324 99 1536
325 99 2963
326 99 1695
327 99 1733
328 99 1807
329 99 1715
330 99 2080
331 99 2975
332 99 1499
333 99 1147
334 99 1923
335 99 1640
336 99 1555
337 99 1955
338 99 3574
339 99 1512
340 99 2343
341 99 1129
342 99 1836
343 99 2676
344 99 761
345 99 9
346 99 2565
347 99 1256
348 99 2170
349 99 2005
350 99 2228
351 99 2723
352 99 2
353 99 2152
354 99 3222
355 99 2667
356 99 3327
357 99 6
358 99 2351
359 99 1712
360 99 2042
361 99 3235
362 99 2330
363 99 2301
364 99 2033
365 99 1742
366 99 3818
367 99 4079
368 99 2733
369 99 1880
370 99 1814
371 99 2161
372 99 1972
374 99 172
375 99 2373
376 99 1454
377 99 1
378 99 2804
379 99 2392
380 99 2598
381 99 3389
382 99 2597
383 99 2047
384 99 3270
385 99 1776
386 99 2770
387 99 1069
388 99 2399
389 99 1523
391 99 3883
392 99 2441
393 99 1107
394 99 21
395 99 2354
396 99 1530
397 99 2350
398 99 1894
399 99 1995
400 99 1350
401 99 2474
402 99 1682
403 99 2366
404 99 1142
405 99 2641
406 99 1828
407 99 2394
408 99 1267
409 99 1109
410 99 1362
411 99 1878
412 99 2667
413 99 2979
414 99 5356
415 99 2623
416 99 2712
417 99 4051
418 99 2471
419 99 1738
420 99 3398
421 99 1117
422 99 2322
424 99 1793
425 99 1732
426 99 4
427 99 2891
428 99 1916
429 99 2405
430 99 3289
431 99 3553
432 99 1207
433 99 2347
434 99 2293
435 99 2423
436 99 2354
437 99 2407
438 99 1407
439 99 1814
440 99 1866
441 99 2136
442 99 2204
443 99 1700
444 99 5
445 99 1337
446 99 1961
447 99 2006
448 99 1676
449 99 2644
450 99 4
451 99 1871
452 99 2453
453 99 3583
454 99 5
455 99 3845
456 99 1190
457 99 3232
458 99 1616
459 99 1919
460 99 796
461 99 1364
462 99 1924
463 99 3376
464 99 3332
465 99 6
466 99 3
467 99 2955
468 99 1883
469 99 3947
470 99 1269
471 99 2777
472 99 11
473 99 54
474 99 4330
475 99 3453
476 99 1398
477 99 13
478 99 2125
479 99 2633
480 99 1666
481 99 2154
482 99 3499
483 99 2994
484 99 2058
485 99 2108
486 99 2901
487 99 2982
488 99 47
489 99 2585
490 99 3557
491 99 1440
492 99 1955
493 99 1154
494 99 1576
495 99 1157
496 99 51
497 99 1201
498 99 2595
499 99 2231
500 99 3235
1 100 1079
2 100 1630
3 100 1157
4 100 839
5 100 1338
6 100 1662
7 100 1473
8 100 1700
9 100 802
10 100 1752
11 100 1073
12 100 2052
13 100 1112
14 100 1428
15 100 897
16 100 768
17 100 1423
18 100 1469
19 100 2138
20 100 852
21 100 3018
22 100 758
23 100 1129
24 100 1613
25 100 825
26 100 1424
27 100 1779
28 100 2363
29 100 721
30 100 1228
31 100 937
32 100 638
33 100 714
34 100 1376
35 100 1105
36 100 1476
37 100 666
38 100 1356
39 100 988
40 100 1802
41 100 2268
42 100 1033
43 100 743
44 100 998
45 100 1367
46 100 1527
47 100 1199
48 100 1399
49 100 1540
50 100 1177
51 100 1017
52 100 2227
53 100 1918
54 100 836
55 100 801
56 100 928
57 100 1079
58 100 1744
59 100 1278
60 100 2159
61 100 2205
62 100 1010
63 100 1008
64 100 735
65 100 1123
66 100 1455
67 100 2336
68 100 740
69 100 1065
70 100 1318
71 100 265
72 100 1490
73 100 370
74 100 681
75 100 1209
76 100 1675
77 100 1014
78 100 1138
79 100 1373
80 100 374
81 100 2167
82 100 1699
83 100 1583
84 100 1498
85 100 2458
86 100 1684
87 100 1747
88 100 1547
89 100 2394
90 100 1116
91 100 1566
92 100 877
93 100 1504
94 100 1946
95 100 2186
96 100 1450
97 100 1005
98 100 1108
99 100 1111
100 100 995
101 100 3549
102 100 1135
103 100 645
104 100 1309
105 100 1956
106 100 1267
107 100 1297
108 100 859
109 100 557
110 100 1236
111 100 1015
112 100 806
113 100 902
114 100 990
115 100 2638
116 100 1350
117 100 1152
118 100 1653
119 100 795
120 100 711
121 100 1484
122 100 303
123 100 741
124 100 818
125 100 2159
126 100 1374
127 100 1413
128 100 1893
129 100 1523
130 100 1026
131 100 1647
132 100 1282
133 100 743
134 100 1263
135 100 721
136 100 878
137 100 1919
138 100 1275
139 100 1811
140 100 1656
141 100 1964
142 100 958
143 100 1244
144 100 1019
145 100 1560
146 100 2021
147 100 1081
148 100 661
149 100 1931
150 100 1351
151 100 1321
152 100 926
153 100 973
154 100 527
155 100 3241
156 100 1344
157 100 840
158 100 4023
159 100 1493
160 100 963
161 100 1608
162 100 1829
163 100 1716
164 100 1247
165 100 2366
166 100 365
167 100 939
168 100 1217
169 100 817
170 100 1299
171 100 885
172 100 714
173 100 2194
174 100 2711
175 100 1516
176 100 1476
177 100 1147
178 100 352
179 100 1615
180 100 1340
181 100 561
182 100 1288
183 100 1123
184 100 794
185 100 330
186 100 2060
187 100 2120
188 100 2565
189 100 2147
190 100 960
191 100 1156
192 100 729
193 100 1888
194 100 1566
195 100 2737
196 100 1564
197 100 1416
198 100 917
199 100 1568
200 100 1050
201 100 511
202 100 939
203 100 1669
204 100 935
205 100 1892
206 100 1462
207 100 918
208 100 1896
209 100 975
210 100 1625
211 100 1881
212 100 1466
213 100 1494
214 100 2772
215 100 996
216 100 2239
217 100 2092
218 100 1113
219 100 1491
220 100 1627
221 100 994
222 100 1475
223 100 655
224 100 1093
225 100 1561
226 100 1915
227 100 727
228 100 657
229 100 1308
230 100 311
231 100 2077
232 100 3408
233 100 1734
234 100 1059
235 100 1418
236 100 619
237 100 977
238 100 1132
239 100 2189
240 100 1340
241 100 1538
242 100 1225
243 100 2619
244 100 866
245 100 983
246 100 1897
247 100 1326
248 100 659
249 100 1462
250 100 778
251 100 1709
252 100 824
253 100 1263
254 100 1787
255 100 749
256 100 1137
257 100 1734
258 100 909
259 100 347
260 100 1933
261 100 2161
262 100 1254
263 100 995
264 100 1783
265 100 2041
266 100 775
267 100 379
268 100 1902
269 100 1905
270 100 1104
271 100 1409
272 100 1257
273 100 2316
274 100 1692
275 100 1455
276 100 1348
277 100 2040
278 100 2973
279 100 996
280 100 464
281 100 1382
282 100 1049
283 100 956
284 100 1502
285 100 1428
286 100 1092
287 100 2267
288 100 3112
289 100 1486
290 100 1348
291 100 2460
292 100 2127
293 100 2254
294 100 1431
295 100 1379
296 100 2545
297 100 933
298 100 1450
299 100 1353
300 100 1541
301 100 1428
302 100 2703
303 100 1383
304 100 1167
305 100 850
306 100 1250
307 100 990
308 100 640
309 100 3427
310 100 1105
311 100 1201
312 100 1178
313 100 808
314 100 463
315 100 930
316 100 1226
317 100 2338
318 100 1221
319 100 1373
320 100 1086
321 100 950
322 100 948
323 100 923
324 100 766
325 100 1170
326 100 1609
327 100 1527
328 100 888
329 100 654
330 100 1416
331 100 1301
332 100 1067
333 100 760
334 100 987
335 100 523
336 100 736
337 100 2063
338 100 1271
339 100 1048
340 100 2002
341 100 1275
342 100 934
343 100 2316
344 100 941
345 100 1637
346 100 1123
347 100 1502
348 100 1570
349 100 1566
350 100 1535
351 100 883
352 100 1946
353 100 752
354 100 313
355 100 1658
356 100 1851
357 100 1363
358 100 1212
359 100 643
360 100 1916
361 100 359
362 100 740
363 100 1050
364 100 1676
365 100 1238
366 100 1347
367 100 2560
368 100 1695
369 100 1990
370 100 881
371 100 1105
372 100 1925
373 100 1253
374 100 1260
375 100 1287
376 100 670
377 100 2094
378 100 1300
379 100 1305
380 100 1758
381 100 321
382 100 1122
383 100 1122
384 100 1704
385 100 857
386 100 1892
387 100 497
388 100 703
389 100 563
390 100 2262
391 100 2340
392 100 1226
393 100 1300
394 100 963
395 100 1201
396 100 601
397 100 1293
398 100 1984
399 100 1610
400 100 1052
401 100 1224
402 100 656
403 100 1440
404 100 1350
405 100 907
406 100 465
407 100 884
408 100 717
409 100 621
410 100 1349
411 100 894
412 100 1564
413 100 1043
414 100 929
415 100 1107
416 100 1547
417 100 1697
418 100 1153
419 100 2057
420 100 1514
421 100 718
422 100 916
423 100 2191
424 100 562
425 100 490
426 100 1540
427 100 1435
428 100 2110
429 100 517
430 100 1510
431 100 2610
432 100 1323
433 100 2285
434 100 1136
435 100 832
436 100 1158
437 100 1857
438 100 1103
439 100 1065
440 100 549
441 100 942
442 100 1568
443 100 1448
444 100 1602
445 100 566
446 100 1523
447 100 617
448 100 1527
449 100 1919
450 100 1905
451 100 1517
452 100 1927
453 100 2099
454 100 1792
455 100 1380
456 100 1423
457 100 2865
458 100 592
459 100 1477
460 100 1021
461 100 637
462 100 1634
463 100 1663
464 100 581
465 100 2085
466 100 2183
467 100 2488
468 100 856
469 100 1508
470 100 1239
471 100 1088
472 100 1615
473 100 1503
474 100 1201
475 100 1426
476 100 1995
477 100 1555
478 100 1653
479 100 1756
480 100 926
481 100 1625
482 100 2600
483 100 954
484 100 987
485 100 1644
486 100 2077
487 100 1232
488 100 1595
489 100 1441
490 100 1443
491 100 1694
492 100 1170
493 100 759
494 100 792
495 100 757
496 100 1579
497 100 757
498 100 2533
499 100 1919
500 100 1441
1 101 1880
2 101 692
3 101 1758
4 101 585
5 101 842
6 101 1675
7 101 2059
8 101 1126
9 101 1079
10 101 2313
11 101 1361
12 101 1312
13 101 477
14 101 1648
15 101 1929
16 101 1505
17 101 1271
18 101 593
19 101 2101
20 101 711
21 101 1537
22 101 1029
23 101 1010
24 101 1097
25 101 432
26 101 2011
27 101 1821
28 101 1479
29 101 2273
30 101 302
31 101 1944
32 101 759
33 101 2147
34 101 1479
35 101 840
36 101 1412
37 101 855
38 101 1557
39 101 2256
40 101 1936
41 101 1914
42 101 1068
43 101 1933
44 101 1883
45 101 1322
46 101 2374
47 101 1178
48 101 1513
49 101 1258
50 101 1515
51 101 745
52 101 1017
53 101 1813
54 101 811
55 101 945
56 101 1102
57 101 1627
58 101 2066
59 101 333
60 101 382
61 101 819
62 101 965
63 101 1676
64 101 676
65 101 1590
66 101 1660
67 101 2185
68 101 1034
69 101 1182
70 101 1638
71 101 814
72 101 694
73 101 1157
74 101 1522
75 101 336
76 101 743
77 101 896
78 101 647
79 101 3301
80 101 549
81 101 1154
82 101 601
83 101 1326
84 101 2100
85 101 633
86 101 2501
87 101 1007
88 101 564
89 101 2955
90 101 881
91 101 804
92 101 615
93 101 558
94 101 1908
95 101 1349
96 101 3841
97 101 1252
98 101 1628
99 101 800
100 101 1946
101 101 1590
102 101 2253
103 101 964
104 101 876
105 101 799
106 101 274
107 101 404
108 101 910
109 101 1417
110 101 957
111 101 786
112 101 420
113 101 654
114 101 1675
115 101 750
116 101 692
117 101 1050
118 101 1282
119 101 344
120 101 314
121 101 1349
122 101 1236
123 101 694
124 101 630
125 101 1239
126 101 1027
127 101 2220
128 101 1467
129 101 1545
130 101 749
131 101 3452
132 101 1285
133 101 1664
134 101 2071
135 101 638
136 101 1634
137 101 2385
138 101 245
139 101 1632
140 101 610
141 101 1529
142 101 1634
143 101 2052
144 101 1015
145 101 2776
146 101 2045
147 101 535
148 101 1672
149 101 1243
150 101 1691
151 101 1077
152 101 1726
153 101 1269
154 101 897
155 101 3125
156 101 2090
157 101 532
158 101 470
159 101 718
160 101 1945
161 101 2506
162 101 582
163 101 373
164 101 1630
165 101 2042
166 101 704
167 101 544
168 101 838
169 101 1453
170 101 2063
171 101 814
172 101 475
173 101 2421
174 101 1518
175 101 748
176 101 1237
177 101 1444
178 101 944
179 101 3372
180 101 1170
181 101 1219
182 101 1947
183 101 836
184 101 874
185 101 297
186 101 1955
187 101 1248
188 101 1650
189 101 2102
190 101 819
191 101 1648
192 101 1120
193 101 2290
194 101 1111
195 101 1889
196 101 1297
197 101 889
198 101 863
199 101 1598
200 101 927
201 101 1197
202 101 1375
203 101 848
204 101 554
205 101 1188
206 101 716
207 101 1684
208 101 2265
209 101 688
210 101 1826
211 101 2612
212 101 747
213 101 1453
214 101 996
215 101 1736
216 101 1625
217 101 682
218 101 1708
219 101 950
220 101 1322
221 101 687
222 101 733
223 101 764
224 101 1231
225 101 551
226 101 1352
227 101 1126
228 101 734
229 101 1218
230 101 603
231 101 1232
232 101 957
233 101 1281
234 101 1502
235 101 1627
236 101 729
237 101 686
238 101 860
239 101 597
240 101 1555
241 101 994
242 101 1695
243 101 1264
244 101 765
245 101 920
246 101 2094
247 101 1267
248 101 620
249 101 1005
250 101 849
251 101 1273
252 101 1231
253 101 329
254 101 1985
255 101 1235
256 101 1068
257 101 1959
258 101 2204
259 101 346
260 101 427
261 101 975
262 101 1459
263 101 2411
264 101 2017
265 101 1342
266 101 460
267 101 708
268 101 1557
269 101 1505
270 101 1120
271 101 1079
272 101 363
273 101 1235
274 101 2514
275 101 2088
276 101 1221
277 101 907
278 101 2299
279 101 693
280 101 494
281 101 1075
282 101 233
283 101 690
284 101 1952
285 101 1201
286 101 301
287 101 1079
288 101 652
289 101 2029
290 101 435
291 101 1706
292 101 499
293 101 693
294 101 1561
295 101 1092
296 101 1567
297 101 1078
298 101 1780
299 101 1556
300 101 906
301 101 1148
302 101 1694
303 101 1703
304 101 1984
305 101 831
306 101 945
307 101 960
308 101 1029
309 101 1405
310 101 1088
311 101 1682
312 101 1184
313 101 690
314 101 1931
315 101 740
316 101 2820
317 101 977
318 101 595
319 101 2063
320 101 1644
321 101 1107
322 101 1024
323 101 2010
324 101 1032
325 101 2692
326 101 1401
327 101 1616
328 101 1575
329 101 490
330 101 527
331 101 1100
332 101 1221
333 101 814
334 101 2046
335 101 455
336 101 1113
337 101 1233
338 101 592
339 101 1169
340 101 1103
341 101 154
342 101 1612
343 101 753
344 101 698
345 101 2527
346 101 1493
347 101 1378
348 101 684
349 101 1663
350 101 571
351 101 814
352 101 398
353 101 1385
354 101 323
355 101 718
356 101 1969
357 101 994
358 101 837
359 101 860
360 101 1112
361 101 284
362 101 1035
363 101 455
364 101 220
365 101 262
366 101 1715
367 101 2042
368 101 1072
369 101 439
370 101 1210
371 101 2053
372 101 1136
373 101 2762
374 101 306
375 101 1161
376 101 468
377 101 1132
378 101 855
379 101 2159
380 101 985
381 101 320
382 101 1533
383 101 1112
384 101 582
385 101 1278
386 101 1605
387 101 608
388 101 247
389 101 892
390 101 670
391 101 1515
392 101 1031
393 101 661
394 101 1935
395 101 1790
396 101 421
397 101 1172
398 101 1993
399 101 1306
400 101 932
401 101 946
402 101 804
403 101 2139
404 101 1606
405 101 441
406 101 635
407 101 880
408 101 726
409 101 887
410 101 1328
411 101 1653
412 101 1319
413 101 1631
414 101 1357
415 101 675
416 101 1839
417 101 870
418 101 1165
419 101 1911
420 101 1516
421 101 1295
422 101 1300
423 101 637
424 101 460
425 101 979
426 101 3970
427 101 1427
428 101 428
429 101 1917
430 101 565
431 101 3108
432 101 1377
433 101 799
434 101 995
435 101 1021
436 101 1044
437 101 1544
438 101 513
439 101 1826
440 101 897
441 101 1633
442 101 1623
443 101 867
444 101 4046
445 101 463
446 101 2013
447 101 920
448 101 923
449 101 239
450 101 375
451 101 951
452 101 1224
453 101 1395
454 101 1869
455 101 330
456 101 1642
457 101 505
458 101 642
459 101 2045
460 101 697
461 101 1556
462 101 1858
463 101 1125
464 101 811
465 101 1141
466 101 1156
467 101 810
468 101 646
469 101 2328
470 101 692
471 101 1235
472 101 2552
473 101 694
474 101 370
475 101 1565
476 101 1247
477 101 2496
478 101 1064
479 101 1345
480 101 779
481 101 1100
482 101 1624
483 101 2138
484 101 799
485 101 1139
486 101 1455
487 101 1866
488 101 702
489 101 1298
490 101 1398
491 101 2125
492 101 1072
493 101 534
494 101 1804
495 101 762
496 101 771
497 101 809
498 101 1940
499 101 818
500 101 1819
52 102 4
71 102 4
80 102 3
96 102 3
120 102 1
158 102 12
172 102 1
192 102 1
213 102 4
229 102 6
266 102 5
281 102 2
287 102 3
296 102 2
299 102 4
325 102 3
358 102 2
359 102 5
402 102 4
408 102 6
422 102 2
424 102 4
426 102 5
444 102 5
494 102 3
1 103 979
2 103 671
3 103 1004
4 103 98
5 103 343
6 103 738
7 103 1263
8 103 1323
9 103 349
10 103 2115
11 103 560
12 103 192
13 103 824
14 103 989
15 103 1538
16 103 1012
17 103 1129
18 103 1292
19 103 2505
20 103 574
21 103 832
22 103 427
23 103 690
24 103 1048
25 103 696
26 103 1242
27 103 1542
28 103 538
29 103 871
30 103 863
31 103 1926
32 103 1003
33 103 1117
34 103 2459
35 103 346
36 103 589
37 103 529
38 103 1517
39 103 402
40 103 1469
41 103 1031
42 103 1297
43 103 1296
44 103 915
45 103 2146
46 103 877
47 103 713
48 103 1679
49 103 1153
50 103 738
51 103 2106
52 103 304
53 103 1478
54 103 649
55 103 995
56 103 594
57 103 967
58 103 1171
59 103 841
60 103 907
61 103 760
62 103 812
63 103 268
64 103 478
65 103 541
66 103 444
67 103 625
68 103 1263
69 103 1336
70 103 1011
71 103 420
72 103 1476
73 103 713
74 103 163
75 103 836
76 103 1963
77 103 846
78 103 1285
79 103 1394
80 103 348
81 103 585
82 103 1405
83 103 1153
84 103 657
85 103 2006
86 103 584
87 103 1761
88 103 1259
89 103 786
90 103 662
91 103 447
92 103 787
93 103 475
94 103 862
95 103 1253
96 103 215
97 103 308
98 103 594
99 103 1171
100 103 1865
101 103 1197
102 103 911
103 103 673
104 103 711
105 103 1604
106 103 903
107 103 732
108 103 906
109 103 968
110 103 378
111 103 1950
112 103 746
113 103 533
114 103 818
115 103 965
116 103 1253
117 103 1852
118 103 2526
119 103 714
120 103 918
121 103 2182
122 103 908
123 103 619
124 103 1616
125 103 1458
126 103 1264
127 103 890
128 103 1796
129 103 1024
130 103 1980
131 103 1841
132 103 496
133 103 798
134 103 1217
135 103 404
136 103 1012
137 103 1500
138 103 1103
139 103 806
140 103 766
141 103 867
142 103 492
143 103 1505
144 103 1283
145 103 995
146 103 2475
147 103 1192
148 103 163
149 103 1265
150 103 220
151 103 469
152 103 569
153 103 452
154 103 681
155 103 1518
156 103 1197
157 103 753
158 103 1811
159 103 1460
160 103 1452
161 103 558
162 103 766
163 103 486
164 103 1243
165 103 750
166 103 1278
167 103 480
168 103 1692
169 103 1117
170 103 1275
171 103 656
172 103 479
173 103 934
174 103 2268
175 103 1589
176 103 1099
177 103 729
178 103 1051
179 103 1867
180 103 415
181 103 1534
182 103 674
183 103 505
184 103 529
185 103 834
186 103 321
187 103 615
188 103 1205
189 103 396
190 103 788
191 103 513
192 103 847
193 103 1404
194 103 643
195 103 1742
196 103 1505
197 103 562
198 103 1170
199 103 1113
200 103 869
201 103 572
202 103 341
203 103 1819
204 103 731
205 103 718
206 103 949
207 103 1723
208 103 1430
209 103 2069
210 103 1088
211 103 2323
212 103 1455
213 103 1642
214 103 1942
215 103 515
216 103 924
217 103 1521
218 103 1391
219 103 620
220 103 1223
221 103 81
222 103 1544
223 103 992
224 103 644
225 103 1239
226 103 1160
227 103 1037
228 103 418
229 103 498
230 103 365
231 103 192
232 103 445
233 103 1110
234 103 482
235 103 1457
236 103 752
237 103 120
238 103 649
239 103 1243
240 103 814
241 103 1902
242 103 1085
243 103 1174
244 103 629
245 103 859
246 103 2110
247 103 1396
248 103 880
249 103 672
250 103 581
251 103 466
252 103 621
253 103 893
254 103 1172
255 103 1257
256 103 1705
257 103 1006
258 103 1203
259 103 788
260 103 1108
261 103 640
262 103 744
263 103 2010
264 103 967
265 103 1214
266 103 527
267 103 1281
268 103 197
269 103 905
270 103 877
271 103 741
272 103 733
273 103 1280
274 103 569
275 103 1320
276 103 526
277 103 764
278 103 1194
279 103 1990
280 103 904
281 103 1123
282 103 533
283 103 385
284 103 888
285 103 824
286 103 468
287 103 317
288 103 1151
289 103 1304
290 103 505
291 103 441
292 103 1575
293 103 1278
294 103 725
295 103 1321
296 103 636
297 103 553
298 103 759
299 103 882
300 103 1601
301 103 1151
302 103 2208
303 103 1630
304 103 547
305 103 1060
306 103 1231
307 103 1282
308 103 808
309 103 713
310 103 854
311 103 1076
312 103 682
313 103 1741
314 103 407
315 103 73
316 103 665
317 103 1809
318 103 1237
319 103 1186
320 103 353
321 103 560
322 103 640
323 103 1863
324 103 1308
325 103 582
326 103 1009
327 103 1363
328 103 1051
329 103 858
330 103 723
331 103 499
332 103 614
333 103 1120
334 103 1201
335 103 531
336 103 1004
337 103 719
338 103 1296
339 103 824
340 103 1402
341 103 913
342 103 1032
343 103 561
344 103 1929
345 103 543
346 103 1062
347 103 1168
348 103 719
349 103 1269
350 103 1308
351 103 594
352 103 1227
353 103 688
354 103 855
355 103 1842
356 103 1457
357 103 2060
358 103 784
359 103 813
360 103 777
361 103 872
362 103 571
363 103 413
364 103 1246
365 103 1052
366 103 918
367 103 1551
368 103 548
369 103 802
370 103 991
371 103 1575
372 103 799
373 103 709
374 103 875
375 103 691
376 103 1494
377 103 1741
378 103 993
379 103 1044
380 103 1232
381 103 866
382 103 890
383 103 633
384 103 431
385 103 525
386 103 1736
387 103 351
388 103 1638
389 103 981
390 103 1285
391 103 1066
392 103 640
393 103 1198
394 103 1934
395 103 938
396 103 145
397 103 395
398 103 625
399 103 1354
400 103 825
401 103 1327
402 103 816
403 103 1196
404 103 1084
405 103 652
406 103 355
407 103 1094
408 103 738
409 103 695
410 103 438
411 103 1036
412 103 1225
413 103 230
414 103 1398
415 103 1106
416 103 1071
417 103 1416
418 103 593
419 103 775
420 103 1657
421 103 286
422 103 1273
423 103 1182
424 103 315
425 103 789
426 103 249
427 103 976
428 103 736
429 103 417
430 103 474
431 103 1115
432 103 1252
433 103 774
434 103 279
435 103 574
436 103 288
437 103 183
438 103 804
439 103 758
440 103 1511
441 103 477
442 103 1114
443 103 832
444 103 217
445 103 351
446 103 1294
447 103 979
448 103 2013
449 103 477
450 103 1126
451 103 1671
452 103 1058
453 103 471
454 103 1864
455 103 938
456 103 858
457 103 267
458 103 349
459 103 1269
460 103 2031
461 103 114
462 103 933
463 103 1371
464 103 774
465 103 1714
466 103 1801
467 103 1603
468 103 337
469 103 1557
470 103 629
471 103 931
472 103 531
473 103 1521
474 103 550
475 103 447
476 103 1255
477 103 568
478 103 693
479 103 1565
480 103 553
481 103 587
482 103 2202
483 103 1472
484 103 747
485 103 686
486 103 796
487 103 581
488 103 1540
489 103 775
490 103 425
491 103 1172
492 103 262
493 103 599
494 103 950
495 103 276
496 103 1516
497 103 1161
498 103 1335
499 103 423
500 103 1568
5 104 5
7 104 1221
9 104 2
11 104 15
16 104 841
18 104 877
19 104 1333
24 104 427
26 104 1258
30 104 1589
31 104 1592
33 104 456
39 104 455
53 104 1148
56 104 6
59 104 1621
72 104 1043
75 104 1606
79 104 753
86 104 555
93 104 44
96 104 1520
100 104 1488
106 104 1629
111 104 1551
124 104 3
130 104 1538
131 104 1613
137 104 1081
138 104 352
146 104 1313
151 104 66
154 104 64
156 104 956
159 104 1031
161 104 563
169 104 803
175 104 1046
179 104 1630
182 104 18
185 104 629
193 104 1028
196 104 36
200 104 7
205 104 805
206 104 10
208 104 1096
209 104 1622
222 104 1024
225 104 887
226 104 568
239 104 685
252 104 14
253 104 1720
259 104 601
260 104 750
263 104 1078
265 104 583
274 104 526
275 104 1172
279 104 1500
289 104 1257
293 104 631
309 104 358
316 104 1398
319 104 1064
323 104 1614
344 104 1577
345 104 517
350 104 927
352 104 733
354 104 606
357 104 1337
361 104 621
365 104 351
369 104 29
373 104 1359
374 104 1656
377 104 1000
381 104 638
390 104 695
394 104 1562
396 104 5
404 104 1
423 104 671
426 104 1659
428 104 43
430 104 23
435 104 4
444 104 1685
446 104 1217
450 104 766
454 104 2437
459 104 1248
460 104 1600
465 104 996
466 104 1008
472 104 545
473 104 983
477 104 570
488 104 1008
490 104 5
496 104 959
1 105 1636
2 105 1345
3 105 1973
4 105 976
5 105 1162
6 105 1144
7 105 1337
8 105 1162
9 105 1618
10 105 23
11 105 1203
13 105 1130
14 105 1383
16 105 1863
17 105 1494
18 105 1864
19 105 1735
20 105 829
21 105 1
22 105 1392
23 105 965
24 105 1652
25 105 579
26 105 1321
27 105 571
28 105 11
29 105 1215
30 105 1977
31 105 1228
32 105 823
33 105 1384
34 105 2084
35 105 334
36 105 1727
37 105 216
38 105 5
39 105 1150
40 105 19
41 105 650
42 105 1260
43 105 1638
44 105 1049
45 105 2239
46 105 2
47 105 1277
48 105 148
49 105 2941
50 105 1760
51 105 8
52 105 1597
53 105 1541
54 105 817
55 105 1109
56 105 1032
57 105 1341
58 105 1486
59 105 1971
60 105 1530
62 105 627
63 105 798
64 105 1221
65 105 785
66 105 1679
67 105 1346
68 105 1366
69 105 1670
70 105 1672
71 105 1196
72 105 768
73 105 1280
74 105 1294
75 105 1943
76 105 1198
77 105 1249
78 105 558
79 105 1686
80 105 860
81 105 11
82 105 914
83 105 1451
84 105 28
85 105 4
86 105 839
87 105 1622
88 105 1467
89 105 1496
90 105 1928
91 105 963
92 105 1410
93 105 1143
94 105 3799
95 105 1441
96 105 1508
98 105 823
99 105 1412
100 105 1194
101 105 687
102 105 972
103 105 857
104 105 1196
105 105 1720
106 105 1959
107 105 757
108 105 8
109 105 2135
110 105 837
111 105 2161
112 105 341
113 105 416
114 105 266
115 105 654
116 105 1121
117 105 888
118 105 1969
119 105 439
120 105 671
121 105 384
122 105 5
123 105 805
124 105 12
125 105 1928
127 105 2054
128 105 664
129 105 2176
130 105 2278
131 105 1758
132 105 3
133 105 1381
134 105 1592
135 105 580
136 105 1233
137 105 2224
138 105 1147
140 105 937
141 105 1001
142 105 1208
143 105 2570
144 105 1506
145 105 2154
146 105 1823
147 105 461
148 105 1297
149 105 63
150 105 4
151 105 1297
152 105 204
153 105 1040
154 105 1513
155 105 1482
156 105 1923
157 105 721
158 105 3453
159 105 802
160 105 1653
161 105 812
162 105 296
163 105 1623
164 105 980
165 105 3
166 105 1165
167 105 554
168 105 771
169 105 1766
170 105 1581
171 105 816
172 105 677
173 105 1291
174 105 7
175 105 787
176 105 29
178 105 868
179 105 1643
180 105 1119
181 105 1008
182 105 1695
183 105 657
184 105 778
185 105 849
187 105 15
188 105 16
189 105 1028
190 105 873
191 105 15
192 105 919
193 105 2214
194 105 1295
195 105 1261
196 105 1111
197 105 1039
198 105 1056
200 105 940
201 105 1989
202 105 600
203 105 2021
204 105 1704
205 105 1278
206 105 1090
207 105 129
208 105 2249
209 105 2210
210 105 1147
211 105 2
212 105 1068
213 105 1962
214 105 1
215 105 1259
216 105 1116
217 105 1975
218 105 1331
219 105 1132
220 105 1503
221 105 976
222 105 826
223 105 820
224 105 5
225 105 1924
226 105 1357
227 105 2327
228 105 621
229 105 672
230 105 497
232 105 1844
233 105 664
234 105 406
236 105 1097
237 105 613
238 105 1492
239 105 1983
240 105 2086
241 105 1406
242 105 2203
243 105 31
244 105 1002
245 105 1279
246 105 2969
247 105 516
248 105 474
249 105 1149
250 105 1329
251 105 1199
252 105 571
253 105 2002
254 105 1750
255 105 1349
259 105 849
260 105 1515
261 105 642
262 105 1790
263 105 1101
265 105 1277
266 105 718
267 105 1186
268 105 1709
269 105 994
271 105 1014
272 105 1260
274 105 756
275 105 1261
276 105 720
277 105 1871
278 105 66
279 105 2162
280 105 1224
281 105 1250
282 105 858
283 105 527
284 105 2
285 105 3
286 105 1374
287 105 1587
288 105 1555
289 105 1312
290 105 1573
291 105 110
292 105 987
293 105 2017
294 105 878
295 105 623
297 105 1289
298 105 6
299 105 10
300 105 1203
301 105 1002
302 105 687
303 105 14
305 105 1767
306 105 517
307 105 1488
308 105 1016
309 105 1474
310 105 1883
311 105 2250
312 105 1213
313 105 1223
314 105 1062
315 105 1012
316 105 2064
317 105 2714
318 105 601
319 105 1949
320 105 1681
321 105 1398
322 105 1007
323 105 1205
324 105 1383
325 105 3
326 105 3
327 105 1270
328 105 1239
329 105 924
330 105 794
331 105 1176
332 105 2
333 105 1119
334 105 23
335 105 437
336 105 2315
337 105 1195
338 105 1379
339 105 772
340 105 1849
341 105 810
342 105 1172
343 105 2140
344 105 2220
345 105 835
346 105 1790
347 105 502
348 105 1256
349 105 594
350 105 1900
351 105 802
352 105 1452
353 105 1360
354 105 866
355 105 1571
356 105 22
357 105 1675
358 105 437
359 105 1696
360 105 1912
361 105 764
362 105 1351
363 105 849
364 105 1390
365 105 1095
366 105 1241
367 105 1310
368 105 2152
369 105 2491
370 105 999
371 105 1
372 105 1887
373 105 2100
374 105 1977
375 105 855
376 105 584
377 105 1656
378 105 1210
379 105 1359
380 105 1415
381 105 734
382 105 2
383 105 1095
384 105 2261
385 105 887
386 105 17
387 105 810
388 105 2400
389 105 698
390 105 2027
391 105 1372
392 105 1285
393 105 1144
394 105 1229
395 105 1982
396 105 818
397 105 1010
398 105 1870
399 105 6
400 105 23
401 105 2433
402 105 1711
403 105 1057
404 105 1023
405 105 1835
406 105 634
407 105 1057
408 105 609
409 105 860
410 105 826
411 105 1207
412 105 1499
413 105 1083
414 105 1685
416 105 1183
417 105 1566
418 105 859
419 105 644
420 105 1234
421 105 894
422 105 828
423 105 1961
424 105 847
425 105 902
426 105 1597
427 105 62
428 105 2534
429 105 1078
430 105 1123
431 105 1279
432 105 541
434 105 1674
435 105 1845
436 105 1755
437 105 1676
438 105 1132
439 105 302
440 105 1312
441 105 1294
442 105 1362
443 105 644
444 105 1581
445 105 529
446 105 1237
447 105 813
448 105 1379
449 105 2477
450 105 1456
451 105 1160
452 105 846
453 105 10
454 105 1655
455 105 2170
456 105 597
458 105 941
459 105 1304
460 105 2155
461 105 866
462 105 5
463 105 1122
464 105 2021
465 105 1686
466 105 1737
467 105 4
468 105 542
469 105 1961
470 105 1124
471 105 1169
472 105 857
473 105 800
474 105 2259
475 105 1734
476 105 39
477 105 807
478 105 1289
479 105 2099
480 105 1757
481 105 1817
482 105 668
483 105 1461
484 105 931
485 105 1322
486 105 1298
487 105 1584
488 105 772
489 105 1086
490 105 584
491 105 1494
492 105 676
493 105 658
494 105 1869
495 105 498
496 105 804
497 105 1083
498 105 3
499 105 909
500 105 1803
6 106 6
10 106 538
12 106 1361
15 106 768
21 106 868
28 106 946
37 106 165
38 106 741
40 106 576
46 106 1126
48 106 294
51 106 995
52 106 302
61 106 923
81 106 473
84 106 741
85 106 1308
97 106 1169
108 106 244
122 106 920
124 106 325
126 106 1016
132 106 791
139 106 433
149 106 779
150 106 536
160 106 633
162 106 167
165 106 613
174 106 932
176 106 185
177 106 328
186 106 380
187 106 455
188 106 299
190 106 695
191 106 95
199 106 738
202 106 640
207 106 575
211 106 1127
212 106 459
214 106 930
217 106 240
224 106 845
231 106 1420
234 106 628
235 106 756
243 106 455
256 106 1370
257 106 1607
258 106 1684
264 106 1646
270 106 430
273 106 1389
278 106 752
284 106 1294
285 106 138
287 106 316
291 106 729
296 106 1116
298 106 1249
299 106 1129
303 106 1081
304 106 687
310 106 369
325 106 1226
326 106 1386
332 106 811
334 106 536
356 106 578
366 106 130
371 106 536
378 106 1171
382 106 942
386 106 265
399 106 694
400 106 264
415 106 319
418 106 11
427 106 386
433 106 961
453 106 226
457 106 1209
462 106 1236
467 106 713
476 106 733
481 106 20
487 106 163
498 106 1510
24 107 2
41 107 651
45 107 1199
63 107 1584
67 107 1085
94 107 2312
101 107 1191
118 107 1470
121 107 587
143 107 1157
145 107 1590
147 107 673
155 107 2205
158 107 2958
173 107 1214
189 107 713
195 107 1211
203 107 1170
229 107 960
240 107 989
246 107 871
255 107 1122
261 107 1820
280 107 1231
302 107 490
305 107 1803
317 107 396
364 107 1695
414 107 3105
417 107 1839
420 107 2536
431 107 2108
442 107 2
464 107 2003
469 107 2820
474 107 177
479 107 1821
482 107 497
494 107 2076
500 107 1660
1 108 388
3 108 640
4 108 663
5 108 701
6 108 2261
7 108 1456
9 108 928
10 108 826
11 108 1399
12 108 1290
13 108 820
14 108 828
15 108 1183
16 108 1050
17 108 941
18 108 787
19 108 2711
20 108 582
21 108 834
22 108 2
23 108 366
24 108 1814
25 108 682
26 108 1457
28 108 389
29 108 703
30 108 929
31 108 1638
32 108 1296
33 108 662
34 108 2
35 108 631
36 108 9
37 108 1198
38 108 1834
39 108 1421
40 108 2133
42 108 361
43 108 764
44 108 827
46 108 1545
48 108 833
49 108 1966
50 108 1170
51 108 2597
52 108 372
53 108 1282
54 108 1245
55 108 1218
56 108 2270
58 108 1218
59 108 998
60 108 902
61 108 171
62 108 663
64 108 400
65 108 1347
68 108 955
69 108 2348
71 108 656
72 108 843
73 108 1313
74 108 521
75 108 1032
77 108 1139
78 108 1243
79 108 785
80 108 797
81 108 1415
82 108 545
84 108 369
85 108 1685
86 108 1686
88 108 867
90 108 9
91 108 709
92 108 935
93 108 1840
96 108 3042
97 108 1841
98 108 1375
99 108 1702
100 108 1672
103 108 225
105 108 15
106 108 936
107 108 834
108 108 295
109 108 1020
110 108 996
111 108 1044
112 108 960
113 108 677
114 108 1377
115 108 1706
117 108 1626
118 108 14
119 108 516
120 108 906
122 108 1235
123 108 846
124 108 1541
125 108 436
126 108 974
128 108 3
129 108 1202
130 108 950
131 108 2339
132 108 2360
134 108 1032
135 108 827
136 108 1181
137 108 1500
138 108 625
139 108 2539
140 108 942
141 108 795
142 108 885
144 108 1087
146 108 2613
148 108 481
149 108 1328
150 108 1414
151 108 749
152 108 1301
153 108 494
154 108 506
156 108 2323
157 108 940
159 108 816
160 108 1099
161 108 1661
162 108 976
163 108 1452
164 108 555
165 108 1263
166 108 943
167 108 316
168 108 1261
169 108 1050
170 108 951
171 108 1223
172 108 913
174 108 1173
175 108 852
176 108 1163
177 108 492
178 108 754
179 108 2520
180 108 733
181 108 4
182 108 2167
183 108 744
184 108 696
185 108 1305
186 108 1126
187 108 1447
188 108 481
190 108 995
191 108 1272
192 108 826
193 108 1430
194 108 1509
196 108 2177
197 108 1346
198 108 795
199 108 1775
200 108 809
201 108 386
202 108 1398
203 108 4
204 108 1527
205 108 996
206 108 458
207 108 1474
208 108 1419
209 108 978
210 108 1012
211 108 983
212 108 1267
213 108 788
214 108 1265
215 108 928
216 108 595
217 108 2140
218 108 1042
219 108 641
221 108 808
222 108 801
223 108 1314
224 108 1303
225 108 771
226 108 426
227 108 937
228 108 859
230 108 1190
231 108 1273
234 108 1139
235 108 1778
236 108 1112
237 108 481
238 108 1012
239 108 1693
240 108 7
243 108 593
244 108 759
245 108 1113
248 108 1095
249 108 614
250 108 1187
252 108 658
253 108 960
254 108 840
255 108 9
256 108 2266
257 108 1274
258 108 1462
259 108 1253
260 108 1974
262 108 1156
263 108 208
264 108 1313
265 108 425
266 108 874
267 108 961
269 108 726
270 108 1857
271 108 878
272 108 1306
273 108 2412
274 108 1641
275 108 1583
276 108 1133
277 108 153
278 108 2928
279 108 1046
282 108 586
283 108 422
284 108 1591
285 108 2223
286 108 711
287 108 348
288 108 1060
289 108 1542
290 108 1059
291 108 1104
293 108 1718
296 108 1709
297 108 64
298 108 878
299 108 1257
301 108 1307
303 108 1593
304 108 509
306 108 1112
307 108 1144
308 108 856
309 108 760
310 108 424
313 108 987
314 108 2100
315 108 754
316 108 918
318 108 1196
319 108 2311
320 108 1178
321 108 57
322 108 929
323 108 1529
324 108 904
325 108 797
326 108 910
327 108 430
328 108 1275
329 108 605
330 108 1322
332 108 1303
333 108 455
334 108 1369
335 108 983
336 108 1029
337 108 2015
339 108 1025
340 108 1406
341 108 838
342 108 1247
343 108 789
344 108 1045
345 108 1646
347 108 100
349 108 1211
350 108 748
351 108 1298
352 108 2052
353 108 1308
354 108 1343
355 108 731
356 108 2154
357 108 547
358 108 981
359 108 669
360 108 5
361 108 1316
362 108 1308
363 108 1081
365 108 622
366 108 1107
368 108 1229
369 108 1406
370 108 1005
371 108 617
372 108 8
373 108 820
374 108 1002
376 108 911
377 108 2210
378 108 1073
379 108 1763
380 108 1670
381 108 1385
382 108 1864
383 108 1302
385 108 885
386 108 1571
387 108 578
389 108 1160
390 108 1743
391 108 1383
392 108 780
394 108 1705
395 108 667
396 108 800
397 108 2224
399 108 1387
400 108 850
402 108 665
403 108 433
404 108 1298
406 108 1001
407 108 780
408 108 739
409 108 229
410 108 531
411 108 1253
413 108 1304
415 108 456
416 108 1062
418 108 1407
419 108 1526
421 108 561
422 108 815
423 108 1747
424 108 760
425 108 488
426 108 3113
427 108 1634
428 108 1426
429 108 2024
430 108 1785
432 108 73
433 108 191
434 108 785
435 108 1344
436 108 771
438 108 547
439 108 1215
441 108 935
442 108 927
443 108 1871
444 108 3126
445 108 687
446 108 1546
447 108 861
450 108 1994
452 108 882
453 108 2468
454 108 1877
455 108 4
456 108 739
457 108 2043
458 108 526
459 108 1464
460 108 1001
461 108 674
462 108 1652
465 108 2303
466 108 2336
467 108 1762
468 108 457
470 108 491
471 108 1447
472 108 1647
473 108 830
474 108 3
476 108 1199
477 108 1664
478 108 1500
479 108 4
480 108 1058
481 108 710
484 108 742
485 108 1529
487 108 1067
488 108 809
489 108 812
490 108 898
491 108 1247
492 108 1077
493 108 1121
495 108 1002
496 108 838
497 108 475
498 108 1743
499 108 2249
1 109 793
2 109 1624
3 109 1202
4 109 898
5 109 1039
6 109 1714
7 109 2582
8 109 756
9 109 1715
10 109 1880
11 109 1620
12 109 1898
13 109 853
14 109 1016
15 109 921
16 109 2041
17 109 2059
18 109 1704
19 109 2649
20 109 597
21 109 1504
22 109 1555
23 109 1391
24 109 1951
25 109 139
26 109 2640
27 109 1352
28 109 3447
29 109 1156
30 109 1398
31 109 1229
32 109 845
33 109 2104
34 109 1158
35 109 126
36 109 2181
37 109 1862
38 109 2214
39 109 1162
40 109 1709
41 109 3411
42 109 1346
43 109 608
44 109 560
45 109 1845
46 109 1569
47 109 1145
48 109 1880
49 109 1282
50 109 898
51 109 2947
52 109 1668
53 109 948
54 109 287
55 109 2323
56 109 2082
57 109 1604
58 109 977
59 109 1471
60 109 1407
61 109 2738
62 109 1001
63 109 1319
64 109 195
65 109 883
66 109 1061
67 109 1644
68 109 712
69 109 1429
70 109 1364
71 109 271
72 109 434
73 109 2428
74 109 1456
75 109 1416
76 109 2283
77 109 567
78 109 1260
79 109 917
80 109 700
81 109 1300
82 109 1139
83 109 1822
84 109 421
85 109 1617
86 109 1909
87 109 1498
88 109 1672
89 109 1496
90 109 1292
91 109 1046
92 109 367
93 109 510
94 109 1024
95 109 1614
96 109 1617
97 109 1478
98 109 863
99 109 975
100 109 1310
101 109 1818
102 109 1204
103 109 363
104 109 890
105 109 838
106 109 1456
107 109 36
108 109 758
109 109 1298
110 109 1340
111 109 1211
112 109 193
113 109 1071
114 109 1237
115 109 1102
116 109 1032
117 109 1558
118 109 1941
119 109 342
120 109 697
121 109 1084
122 109 1317
123 109 246
124 109 1559
125 109 1274
126 109 2338
127 109 742
128 109 885
129 109 1302
130 109 1154
131 109 1951
132 109 1497
133 109 1322
134 109 301
135 109 606
136 109 1069
137 109 738
138 109 587
139 109 1197
140 109 800
141 109 454
142 109 917
143 109 1922
144 109 1014
145 109 2398
146 109 2734
147 109 2221
148 109 1412
149 109 771
150 109 1481
151 109 1344
152 109 978
153 109 1219
154 109 935
155 109 1609
156 109 375
157 109 482
158 109 1715
159 109 456
160 109 1175
161 109 1899
162 109 1557
163 109 1175
164 109 769
165 109 2013
166 109 1352
167 109 63
168 109 1263
169 109 2053
170 109 285
171 109 267
172 109 322
173 109 1161
174 109 1142
175 109 437
176 109 1271
177 109 1268
178 109 753
179 109 2018
180 109 343
181 109 1630
182 109 1322
183 109 476
184 109 483
185 109 2406
186 109 996
187 109 1339
188 109 1183
189 109 992
190 109 1677
191 109 488
192 109 834
193 109 753
194 109 785
195 109 742
196 109 1110
197 109 1005
198 109 346
199 109 1993
200 109 1168
201 109 807
202 109 1868
203 109 1142
204 109 1881
205 109 2651
206 109 964
207 109 1090
208 109 769
209 109 1163
210 109 1967
211 109 2031
212 109 1994
213 109 1195
214 109 1764
215 109 875
216 109 1185
217 109 1436
218 109 1836
219 109 472
220 109 1882
221 109 768
222 109 496
223 109 807
224 109 2237
225 109 1773
226 109 1462
227 109 1340
228 109 560
229 109 2469
230 109 778
231 109 1913
232 109 457
233 109 1156
234 109 1279
235 109 2189
236 109 282
237 109 1077
238 109 1151
239 109 265
240 109 1231
241 109 1489
242 109 1956
243 109 384
244 109 719
245 109 601
246 109 1602
247 109 1388
248 109 1267
249 109 447
250 109 588
251 109 1290
252 109 572
253 109 1438
254 109 1448
255 109 2293
256 109 1807
257 109 397
258 109 1885
259 109 2543
260 109 1930
261 109 2055
262 109 966
263 109 2751
264 109 411
265 109 1478
266 109 335
267 109 1461
268 109 1580
269 109 444
270 109 2717
271 109 919
272 109 1071
273 109 1862
274 109 1838
275 109 2502
276 109 1272
277 109 652
278 109 1874
279 109 1179
280 109 2327
281 109 1516
282 109 245
283 109 1007
284 109 2590
285 109 2707
286 109 393
287 109 1684
288 109 1530
289 109 2574
290 109 1647
291 109 968
292 109 1352
293 109 269
294 109 1458
295 109 1261
296 109 1571
297 109 1056
298 109 2358
299 109 2536
300 109 1383
301 109 1949
302 109 3290
303 109 1309
304 109 692
305 109 1013
306 109 716
307 109 1037
308 109 1600
309 109 1047
310 109 1305
311 109 1927
312 109 1075
313 109 1617
314 109 984
315 109 796
316 109 2991
317 109 1338
318 109 1317
319 109 349
320 109 1275
321 109 1063
322 109 628
323 109 1248
324 109 667
325 109 1170
326 109 1372
327 109 1304
328 109 1054
329 109 248
330 109 620
331 109 1834
332 109 2215
333 109 1340
334 109 3390
335 109 609
336 109 1342
337 109 1599
338 109 484
339 109 1405
340 109 957
341 109 494
342 109 1042
343 109 1555
344 109 1214
345 109 1890
346 109 1438
347 109 912
348 109 1636
349 109 1402
350 109 1730
351 109 299
352 109 1886
353 109 970
354 109 2335
355 109 1661
356 109 1699
357 109 1034
358 109 1460
359 109 1260
360 109 1456
361 109 2529
362 109 1820
363 109 491
364 109 2278
365 109 569
366 109 966
367 109 854
368 109 980
369 109 1244
370 109 1108
371 109 1603
372 109 1454
373 109 2980
374 109 1438
375 109 1107
376 109 476
377 109 2070
378 109 996
379 109 766
380 109 973
381 109 2484
382 109 1790
383 109 446
384 109 1769
385 109 765
386 109 1142
387 109 992
388 109 1253
389 109 1299
390 109 305
391 109 2677
392 109 1061
393 109 1124
394 109 1310
395 109 1190
396 109 1081
397 109 1653
398 109 1662
399 109 1894
400 109 320
401 109 744
402 109 1338
403 109 784
404 109 981
405 109 1296
406 109 402
407 109 341
408 109 70
409 109 368
410 109 510
411 109 1080
412 109 1852
413 109 570
414 109 2076
415 109 1060
416 109 1908
417 109 2312
418 109 832
419 109 1864
420 109 2473
421 109 620
422 109 1153
423 109 282
424 109 444
425 109 1246
426 109 1687
427 109 1183
428 109 1228
429 109 951
430 109 468
431 109 781
432 109 883
433 109 2748
434 109 1007
435 109 874
436 109 1021
437 109 1695
438 109 702
439 109 1278
440 109 1774
441 109 907
442 109 1305
443 109 1241
444 109 1791
445 109 1096
446 109 2566
447 109 1022
448 109 1423
449 109 1161
450 109 1882
451 109 1458
452 109 2099
453 109 2152
454 109 1113
455 109 1858
456 109 1157
457 109 940
458 109 606
459 109 2529
460 109 1179
461 109 591
462 109 2668
463 109 730
464 109 1543
465 109 1931
466 109 2077
467 109 1138
468 109 527
469 109 1020
470 109 286
471 109 1284
472 109 1857
473 109 425
474 109 1215
475 109 1032
476 109 1478
477 109 1840
478 109 779
479 109 1364
480 109 1963
481 109 1611
482 109 3325
483 109 180
484 109 960
485 109 775
486 109 1402
487 109 1816
488 109 499
489 109 1548
490 109 2359
491 109 995
492 109 1601
493 109 284
494 109 1696
495 109 352
496 109 421
497 109 1307
498 109 2329
499 109 1381
500 109 1573
2 110 12
8 110 628
27 110 1711
34 110 1662
41 110 2724
45 110 1615
47 110 95
63 110 1411
67 110 1532
87 110 481
89 110 503
94 110 385
101 110 913
102 110 129
118 110 803
121 110 988
127 110 869
128 110 1198
143 110 1265
145 110 1074
147 110 469
155 110 1559
158 110 697
173 110 1483
181 110 993
189 110 347
195 110 484
203 110 1569
229 110 1788
232 110 798
240 110 965
246 110 2169
247 110 38
255 110 1093
261 110 389
268 110 390
280 110 573
281 110 15
292 110 1546
294 110 379
295 110 1
300 110 691
302 110 1226
305 110 1497
312 110 95
317 110 1770
331 110 45
338 110 1071
348 110 19
360 110 358
364 110 1589
367 110 399
372 110 332
379 110 5
384 110 127
398 110 217
401 110 1314
414 110 1254
417 110 166
420 110 1541
431 110 1032
437 110 396
449 110 954
451 110 693
455 110 1330
463 110 642
464 110 1698
469 110 1599
474 110 1494
479 110 495
482 110 1286
483 110 654
494 110 1841
500 110 569
2 111 106
8 111 967
27 111 2548
34 111 1719
41 111 2491
45 111 1999
47 111 1428
63 111 1138
67 111 2215
83 111 4
87 111 2856
89 111 2077
94 111 1439
101 111 3157
102 111 1718
118 111 1712
121 111 2886
127 111 1762
128 111 741
143 111 1384
145 111 715
147 111 2774
155 111 2569
158 111 3963
173 111 1859
181 111 1587
189 111 1515
195 111 3154
203 111 1668
220 111 4
229 111 842
232 111 2129
240 111 1156
242 111 280
246 111 1517
247 111 380
255 111 1909
261 111 2277
268 111 1788
280 111 1765
281 111 3
292 111 1110
294 111 1655
295 111 3
300 111 3688
302 111 1400
305 111 1238
311 111 263
312 111 1490
317 111 406
331 111 447
338 111 1528
348 111 123
360 111 1527
364 111 1764
367 111 1390
372 111 1515
384 111 952
398 111 2115
401 111 1732
412 111 2
414 111 1452
417 111 3025
420 111 2792
431 111 2124
437 111 1735
449 111 2338
451 111 3684
455 111 2407
463 111 913
464 111 2820
469 111 2603
474 111 1913
479 111 2137
482 111 1367
483 111 2099
494 111 2978
500 111 3365
8 112 1219
27 112 2436
34 112 1031
41 112 2374
45 112 3572
47 112 30
63 112 1522
67 112 2017
87 112 1381
89 112 2289
94 112 2765
101 112 1482
102 112 71
118 112 1771
121 112 1513
127 112 3649
128 112 861
143 112 1844
145 112 1991
147 112 2080
155 112 1344
158 112 1437
173 112 2477
181 112 1171
189 112 3212
195 112 1899
203 112 1547
229 112 2750
232 112 1976
240 112 2989
246 112 3504
247 112 4
255 112 2787
261 112 3235
268 112 30
280 112 1534
292 112 2139
294 112 330
300 112 2033
302 112 1890
305 112 1605
312 112 40
317 112 1602
338 112 1337
360 112 2059
364 112 2120
367 112 2094
372 112 2072
384 112 83
398 112 2287
401 112 1911
414 112 2961
417 112 4145
420 112 1811
431 112 2206
437 112 27
449 112 1401
451 112 2025
455 112 915
463 112 1275
464 112 1925
469 112 3014
474 112 3071
479 112 2401
482 112 1805
483 112 847
494 112 2694
500 112 2016
2 113 1513
8 113 1402
22 113 1
27 113 914
34 113 1631
41 113 871
45 113 479
47 113 749
57 113 214
63 113 613
66 113 512
67 113 2309
70 113 67
83 113 734
87 113 373
89 113 1341
90 113 54
94 113 922
101 113 761
102 113 1131
116 113 13
118 113 284
121 113 1335
127 113 1185
128 113 792
133 113 14
143 113 885
145 113 331
147 113 562
155 113 588
158 113 2024
173 113 2486
181 113 722
189 113 344
195 113 1231
203 113 1791
220 113 746
229 113 417
232 113 402
240 113 626
242 113 680
246 113 541
247 113 764
251 113 8
255 113 389
261 113 1226
268 113 191
280 113 1339
281 113 304
292 113 1263
294 113 528
295 113 951
300 113 908
302 113 973
305 113 1200
311 113 713
312 113 747
317 113 1901
331 113 606
338 113 314
346 113 4
348 113 1540
360 113 1049
364 113 503
367 113 222
372 113 966
375 113 262
384 113 1314
388 113 761
393 113 12
398 113 919
401 113 817
405 113 604
412 113 738
414 113 112
417 113 532
420 113 784
431 113 815
437 113 156
440 113 152
449 113 552
451 113 880
455 113 207
461 113 1
463 113 1469
464 113 1850
469 113 512
474 113 1134
475 113 555
479 113 1053
482 113 987
483 113 640
486 113 979
494 113 801
500 113 504
2 114 1414
8 114 796
27 114 2721
30 114 5
34 114 1661
41 114 2660
45 114 1810
47 114 531
57 114 1136
59 114 4
63 114 2269
66 114 1669
67 114 2022
70 114 34
75 114 10
83 114 2778
87 114 3516
89 114 1683
94 114 3131
101 114 2730
102 114 1172
106 114 3
118 114 564
121 114 2657
127 114 1596
128 114 1618
143 114 1977
145 114 1177
147 114 1244
155 114 1385
158 114 1757
173 114 2951
181 114 1529
189 114 1930
195 114 1687
203 114 1916
220 114 2753
229 114 2187
232 114 2499
240 114 2585
242 114 1683
246 114 2346
247 114 1962
253 114 5
255 114 1218
261 114 2477
268 114 1599
280 114 1201
281 114 605
292 114 1564
294 114 2171
295 114 1170
300 114 640
302 114 3785
305 114 3355
311 114 1708
312 114 539
317 114 1980
331 114 1077
338 114 2152
348 114 1485
360 114 1484
364 114 1793
367 114 959
372 114 1506
374 114 12
375 114 498
384 114 2054
388 114 2044
398 114 2354
401 114 1061
405 114 919
412 114 2826
414 114 1768
417 114 2598
420 114 2677
431 114 1766
437 114 1584
440 114 351
449 114 875
451 114 615
455 114 1341
463 114 730
464 114 1734
469 114 3130
474 114 1489
475 114 1680
479 114 1682
482 114 3943
483 114 1724
486 114 836
494 114 1266
500 114 2123
1 115 118
2 115 576
3 115 1396
4 115 503
5 115 654
6 115 955
8 115 1054
9 115 592
10 115 1306
11 115 924
12 115 858
13 115 637
14 115 354
15 115 436
17 115 1131
20 115 754
21 115 1563
22 115 518
23 115 751
25 115 289
27 115 1311
28 115 1414
29 115 1413
32 115 1021
34 115 460
35 115 459
36 115 932
37 115 689
38 115 1505
40 115 1215
41 115 957
42 115 846
43 115 583
44 115 915
45 115 1187
46 115 1266
47 115 913
48 115 1700
49 115 776
50 115 247
51 115 1022
52 115 800
54 115 402
55 115 411
56 115 75
57 115 659
58 115 892
60 115 853
61 115 1498
62 115 472
63 115 759
64 115 432
65 115 1180
66 115 1077
67 115 1000
68 115 1030
69 115 336
70 115 692
71 115 88
73 115 362
74 115 85
76 115 653
77 115 850
78 115 999
80 115 464
81 115 585
82 115 594
83 115 1096
84 115 824
85 115 588
87 115 718
88 115 132
89 115 1838
90 115 1469
91 115 303
92 115 822
93 115 197
94 115 1053
95 115 645
97 115 953
98 115 1227
99 115 455
101 115 622
102 115 630
103 115 191
104 115 1265
105 115 621
107 115 611
108 115 937
109 115 333
110 115 781
112 115 766
113 115 607
114 115 987
115 115 987
116 115 2108
117 115 405
118 115 1366
119 115 309
120 115 296
121 115 713
122 115 1108
123 115 214
124 115 660
125 115 1104
126 115 1023
127 115 1260
128 115 1302
129 115 689
132 115 1621
133 115 834
134 115 1697
135 115 413
136 115 431
139 115 700
140 115 783
141 115 771
142 115 1009
143 115 1092
144 115 485
145 115 440
147 115 711
148 115 73
149 115 1374
150 115 1276
151 115 28
152 115 728
153 115 979
155 115 1917
157 115 582
158 115 583
160 115 578
162 115 1592
163 115 811
164 115 807
165 115 1350
166 115 404
167 115 461
168 115 528
170 115 1778
171 115 405
172 115 439
173 115 1026
174 115 669
176 115 598
177 115 853
178 115 593
180 115 940
181 115 1636
182 115 956
183 115 777
184 115 319
186 115 225
187 115 545
188 115 1564
189 115 1505
190 115 441
191 115 1148
192 115 672
194 115 1076
195 115 1635
196 115 2
197 115 1592
198 115 895
199 115 604
200 115 610
201 115 964
202 115 1581
203 115 1013
204 115 939
206 115 146
207 115 1093
210 115 1236
211 115 1345
212 115 159
213 115 473
214 115 835
215 115 1008
216 115 1288
217 115 228
218 115 650
219 115 529
220 115 1117
221 115 396
223 115 1008
224 115 1650
227 115 641
228 115 422
229 115 274
230 115 788
231 115 838
232 115 1527
233 115 798
234 115 518
235 115 1515
236 115 434
237 115 225
238 115 454
240 115 1172
241 115 1223
242 115 799
243 115 1298
244 115 698
245 115 775
246 115 2050
247 115 359
248 115 245
249 115 498
250 115 173
251 115 1897
252 115 709
254 115 1231
255 115 918
256 115 1266
257 115 1194
258 115 1103
261 115 1653
262 115 270
264 115 1179
266 115 497
267 115 410
268 115 441
269 115 802
270 115 1210
271 115 532
272 115 1268
273 115 207
276 115 394
277 115 720
278 115 1322
280 115 596
281 115 257
282 115 543
283 115 908
284 115 1064
285 115 253
286 115 782
287 115 838
288 115 462
290 115 500
291 115 539
292 115 709
294 115 463
295 115 210
296 115 901
297 115 897
298 115 648
299 115 441
300 115 1847
301 115 669
302 115 668
303 115 1091
304 115 607
305 115 1380
306 115 566
307 115 492
308 115 1052
310 115 586
311 115 812
312 115 904
313 115 1356
314 115 316
315 115 381
317 115 1251
318 115 903
320 115 496
321 115 943
322 115 962
324 115 1033
325 115 138
326 115 1946
327 115 1155
328 115 455
329 115 749
330 115 847
331 115 1112
332 115 1651
333 115 750
334 115 932
335 115 332
336 115 634
337 115 1547
338 115 1021
339 115 108
340 115 1036
341 115 455
342 115 433
343 115 729
346 115 788
347 115 733
348 115 624
349 115 1102
351 115 400
353 115 693
355 115 662
356 115 1203
358 115 717
359 115 801
360 115 700
362 115 427
363 115 745
364 115 568
366 115 1423
367 115 1978
368 115 925
369 115 682
370 115 552
371 115 680
372 115 725
375 115 1182
376 115 777
378 115 512
379 115 614
380 115 428
382 115 637
383 115 514
384 115 1215
385 115 380
386 115 995
387 115 529
388 115 1579
389 115 584
391 115 1251
392 115 815
393 115 2029
395 115 1449
396 115 13
397 115 1166
398 115 596
399 115 968
400 115 1154
401 115 705
402 115 854
403 115 163
404 115 189
405 115 250
406 115 447
407 115 982
408 115 714
409 115 190
410 115 937
411 115 426
412 115 1098
413 115 615
414 115 888
415 115 791
416 115 1296
417 115 992
418 115 935
419 115 1002
420 115 781
421 115 597
422 115 263
424 115 806
425 115 1702
427 115 253
428 115 656
429 115 266
430 115 199
431 115 647
432 115 769
433 115 1518
434 115 837
435 115 1284
436 115 842
437 115 415
438 115 552
439 115 1011
440 115 1433
441 115 932
442 115 1217
443 115 646
445 115 455
447 115 446
448 115 1197
449 115 565
451 115 1720
452 115 458
453 115 1299
455 115 810
456 115 342
457 115 1378
458 115 861
461 115 570
462 115 1060
463 115 1036
464 115 838
467 115 911
468 115 406
469 115 1329
470 115 755
471 115 1082
474 115 886
475 115 1083
476 115 817
478 115 1069
479 115 1666
480 115 535
481 115 853
482 115 685
483 115 1410
484 115 779
485 115 1090
486 115 308
487 115 1181
489 115 749
490 115 1459
491 115 921
492 115 536
493 115 118
494 115 1126
495 115 375
497 115 731
498 115 1157
499 115 400
500 115 1596
3 116 372
4 116 551
5 116 126
6 116 521
7 116 440
9 116 971
10 116 1134
11 116 298
12 116 504
13 116 394
14 116 7
15 116 398
16 116 122
17 116 485
18 116 248
19 116 1132
20 116 529
21 116 443
23 116 574
24 116 763
25 116 105
26 116 437
28 116 654
29 116 414
30 116 151
31 116 206
32 116 654
33 116 542
35 116 701
37 116 584
38 116 982
39 116 222
40 116 586
42 116 808
43 116 876
44 116 338
46 116 562
48 116 192
49 116 385
50 116 908
51 116 353
52 116 262
53 116 427
54 116 302
55 116 436
56 116 48
58 116 309
59 116 170
60 116 737
61 116 225
62 116 389
64 116 473
65 116 313
68 116 957
69 116 1091
71 116 311
72 116 276
73 116 363
74 116 49
75 116 183
77 116 502
78 116 804
79 116 1275
80 116 372
81 116 674
82 116 1407
84 116 376
85 116 765
86 116 673
88 116 87
91 116 237
92 116 807
93 116 78
96 116 691
97 116 672
98 116 326
99 116 672
100 116 197
103 116 348
106 116 175
107 116 558
108 116 402
109 116 206
110 116 703
111 116 359
112 116 102
113 116 397
114 116 865
115 116 947
119 116 245
120 116 543
122 116 564
123 116 553
124 116 524
125 116 1089
126 116 136
129 116 387
130 116 386
131 116 153
132 116 620
134 116 350
135 116 668
136 116 895
137 116 448
138 116 26
139 116 170
140 116 546
141 116 1236
142 116 542
144 116 620
146 116 1088
148 116 49
149 116 687
150 116 361
152 116 238
153 116 679
154 116 23
156 116 1265
157 116 476
159 116 293
160 116 560
161 116 676
162 116 843
163 116 1072
165 116 595
166 116 643
167 116 209
168 116 402
169 116 116
170 116 375
171 116 319
172 116 516
174 116 499
175 116 303
176 116 371
177 116 418
178 116 627
179 116 173
180 116 320
182 116 165
183 116 431
184 116 319
185 116 351
186 116 666
187 116 707
188 116 415
190 116 465
191 116 554
192 116 209
193 116 454
194 116 325
196 116 26
197 116 170
198 116 1050
199 116 276
200 116 194
201 116 534
202 116 883
204 116 453
205 116 503
206 116 6
207 116 329
208 116 454
209 116 393
210 116 209
211 116 1971
212 116 712
213 116 93
214 116 514
215 116 611
216 116 671
217 116 465
218 116 132
219 116 234
221 116 324
222 116 303
223 116 637
224 116 492
225 116 239
226 116 472
227 116 893
228 116 691
230 116 774
231 116 492
234 116 738
235 116 924
236 116 397
237 116 21
238 116 656
239 116 400
243 116 764
244 116 466
245 116 520
248 116 551
249 116 240
250 116 549
252 116 124
253 116 193
254 116 544
256 116 842
257 116 329
258 116 883
259 116 287
260 116 742
262 116 862
263 116 1154
264 116 375
265 116 465
266 116 469
267 116 625
269 116 1117
270 116 1080
272 116 853
273 116 1071
274 116 660
275 116 439
276 116 858
277 116 461
278 116 350
279 116 370
282 116 66
283 116 690
284 116 1078
285 116 934
286 116 856
287 116 254
288 116 737
289 116 439
290 116 499
291 116 886
293 116 405
296 116 738
298 116 1516
299 116 1063
301 116 529
303 116 369
304 116 892
306 116 642
307 116 550
308 116 425
309 116 614
310 116 254
313 116 854
314 116 235
315 116 307
316 116 999
318 116 770
319 116 1244
320 116 485
322 116 420
323 116 184
324 116 906
325 116 324
326 116 595
327 116 625
328 116 897
329 116 411
330 116 140
332 116 497
333 116 739
334 116 308
335 116 348
336 116 924
337 116 667
340 116 886
341 116 429
342 116 919
343 116 437
344 116 356
345 116 632
349 116 669
350 116 239
351 116 320
352 116 795
353 116 164
354 116 298
355 116 473
356 116 589
357 116 855
358 116 169
359 116 211
361 116 334
362 116 427
363 116 298
365 116 31
366 116 461
368 116 174
369 116 1031
370 116 5
371 116 812
373 116 982
374 116 160
376 116 361
377 116 559
378 116 839
379 116 1192
380 116 984
381 116 321
382 116 1410
383 116 822
385 116 33
386 116 273
387 116 457
389 116 181
390 116 404
391 116 276
392 116 425
394 116 191
395 116 330
397 116 622
399 116 593
400 116 1056
402 116 228
403 116 539
406 116 388
407 116 1065
408 116 61
409 116 355
410 116 521
411 116 911
413 116 889
415 116 641
416 116 222
418 116 636
419 116 186
421 116 513
422 116 457
423 116 412
424 116 698
425 116 497
426 116 709
427 116 1674
428 116 1005
429 116 247
430 116 67
433 116 240
434 116 289
435 116 535
436 116 300
438 116 293
439 116 893
441 116 598
442 116 991
443 116 728
444 116 687
445 116 538
446 116 459
447 116 330
450 116 843
452 116 148
453 116 419
454 116 134
456 116 201
457 116 410
458 116 127
459 116 472
460 116 380
461 116 176
462 116 1109
465 116 574
466 116 556
467 116 436
468 116 466
470 116 451
471 116 1386
472 116 646
473 116 306
476 116 1229
477 116 603
478 116 345
479 116 3
480 116 587
481 116 1148
484 116 342
485 116 299
487 116 759
488 116 291
489 116 375
490 116 748
491 116 316
492 116 792
493 116 362
495 116 230
496 116 295
497 116 696
498 116 100
499 116 231
3 117 656
4 117 425
5 117 291
6 117 291
7 117 296
9 117 149
10 117 133
11 117 498
12 117 416
13 117 462
14 117 40
15 117 1199
16 117 96
17 117 1106
18 117 557
19 117 1099
20 117 306
21 117 775
23 117 1222
24 117 1158
25 117 290
26 117 325
28 117 766
29 117 112
30 117 841
31 117 1162
32 117 296
33 117 221
35 117 583
37 117 1083
38 117 1300
39 117 245
40 117 242
42 117 364
43 117 624
44 117 416
46 117 593
48 117 266
49 117 1152
50 117 467
51 117 298
52 117 729
53 117 342
54 117 98
55 117 77
56 117 137
58 117 732
59 117 880
60 117 454
61 117 1229
62 117 579
64 117 389
65 117 690
68 117 699
69 117 361
71 117 78
72 117 1280
73 117 450
74 117 521
75 117 869
77 117 683
78 117 581
79 117 1697
80 117 441
81 117 196
82 117 110
84 117 136
85 117 89
86 117 634
88 117 157
91 117 897
92 117 650
93 117 111
96 117 908
97 117 466
98 117 698
99 117 723
100 117 1187
103 117 349
106 117 916
107 117 313
108 117 535
109 117 490
110 117 479
111 117 1116
112 117 199
113 117 649
114 117 738
115 117 278
119 117 216
120 117 407
122 117 160
123 117 568
124 117 166
125 117 466
126 117 255
129 117 516
130 117 1194
131 117 1009
132 117 577
134 117 685
135 117 169
136 117 539
137 117 718
138 117 85
139 117 727
140 117 586
141 117 1237
142 117 525
144 117 974
146 117 1086
148 117 497
149 117 522
150 117 696
152 117 211
153 117 835
154 117 103
156 117 226
157 117 216
159 117 1270
160 117 590
161 117 663
162 117 877
163 117 241
165 117 1209
166 117 397
167 117 491
168 117 247
169 117 102
170 117 678
171 117 125
172 117 365
174 117 358
175 117 1253
176 117 1174
177 117 342
178 117 496
179 117 976
180 117 283
182 117 1283
183 117 399
184 117 475
185 117 1291
186 117 1044
187 117 174
188 117 553
190 117 475
191 117 812
192 117 554
193 117 677
194 117 192
196 117 71
197 117 352
198 117 466
199 117 489
200 117 473
201 117 300
202 117 447
204 117 606
205 117 262
206 117 112
207 117 306
208 117 731
209 117 1215
210 117 1434
211 117 175
212 117 873
213 117 225
214 117 926
215 117 494
216 117 871
217 117 254
218 117 873
219 117 183
221 117 273
222 117 1352
223 117 300
224 117 662
225 117 574
226 117 152
227 117 1171
228 117 170
230 117 161
231 117 399
234 117 1371
235 117 1270
236 117 453
237 117 17
238 117 292
239 117 235
243 117 362
244 117 215
245 117 646
248 117 262
249 117 170
250 117 327
252 117 376
253 117 878
254 117 1121
256 117 652
257 117 367
258 117 1247
259 117 1270
260 117 466
262 117 472
263 117 1008
264 117 345
265 117 171
266 117 366
267 117 450
269 117 1313
270 117 1100
272 117 515
273 117 690
274 117 598
275 117 285
276 117 723
277 117 423
278 117 216
279 117 1173
282 117 267
283 117 111
284 117 421
285 117 206
286 117 922
287 117 680
288 117 679
289 117 327
290 117 705
291 117 151
293 117 249
296 117 570
298 117 361
299 117 512
301 117 181
303 117 175
304 117 122
306 117 698
307 117 1043
308 117 1042
309 117 612
310 117 272
313 117 116
314 117 414
315 117 259
316 117 1113
318 117 577
319 117 253
320 117 836
322 117 231
323 117 1162
324 117 661
325 117 954
326 117 395
327 117 226
328 117 500
329 117 491
330 117 169
332 117 603
333 117 517
334 117 1341
335 117 214
336 117 1149
337 117 670
339 117 8
340 117 1209
341 117 226
342 117 524
343 117 119
344 117 1209
345 117 610
349 117 831
350 117 553
351 117 106
352 117 468
353 117 478
354 117 1239
355 117 329
356 117 250
357 117 325
358 117 448
359 117 128
361 117 1249
362 117 453
363 117 502
365 117 100
366 117 1069
368 117 924
369 117 197
371 117 655
373 117 1124
374 117 873
376 117 524
377 117 1105
378 117 657
379 117 629
380 117 443
381 117 1247
382 117 551
383 117 179
385 117 162
386 117 516
387 117 183
389 117 679
390 117 270
391 117 233
392 117 557
394 117 1232
395 117 626
397 117 519
399 117 1510
400 117 468
402 117 123
403 117 704
406 117 189
407 117 473
408 117 177
409 117 385
410 117 521
411 117 485
413 117 952
415 117 778
416 117 1433
418 117 457
419 117 652
421 117 322
422 117 1535
423 117 265
424 117 306
425 117 369
426 117 918
427 117 228
428 117 221
429 117 424
430 117 105
433 117 1163
434 117 213
435 117 439
436 117 231
438 117 165
439 117 740
441 117 524
442 117 429
443 117 563
444 117 952
445 117 149
446 117 329
447 117 460
450 117 440
452 117 445
453 117 707
454 117 638
456 117 694
457 117 1003
458 117 152
459 117 303
460 117 1169
461 117 305
462 117 433
465 117 1137
466 117 1114
467 117 554
468 117 392
470 117 674
471 117 529
472 117 642
473 117 1327
476 117 1033
477 117 639
478 117 141
480 117 498
481 117 685
484 117 422
485 117 184
487 117 1395
488 117 1346
489 117 146
490 117 244
491 117 705
492 117 350
493 117 381
495 117 411
496 117 1342
497 117 502
498 117 761
499 117 509
1 118 782
2 118 287
3 118 810
4 118 496
5 118 226
6 118 1021
7 118 959
8 118 372
9 118 664
10 118 1120
11 118 568
12 118 561
13 118 498
14 118 441
15 118 1324
16 118 966
17 118 666
18 118 940
19 118 1733
20 118 248
21 118 393
22 118 192
23 118 355
24 118 508
25 118 312
26 118 958
27 118 75
28 118 1011
29 118 888
30 118 1076
31 118 1386
32 118 125
33 118 1140
34 118 1397
35 118 551
36 118 258
37 118 200
38 118 1815
39 118 222
40 118 1112
42 118 627
43 118 263
44 118 241
46 118 1097
47 118 704
48 118 923
49 118 499
50 118 359
51 118 1201
52 118 1185
53 118 930
54 118 550
55 118 774
56 118 499
57 118 651
58 118 1382
59 118 1047
60 118 869
61 118 1237
62 118 660
64 118 173
65 118 1060
66 118 395
68 118 1765
69 118 770
70 118 624
71 118 184
72 118 1123
73 118 1547
74 118 548
75 118 1051
76 118 426
77 118 911
78 118 137
79 118 1244
80 118 462
81 118 616
82 118 155
83 118 225
84 118 942
85 118 1636
86 118 818
87 118 251
88 118 1025
89 118 913
90 118 623
91 118 410
92 118 401
93 118 484
95 118 502
96 118 483
97 118 1497
98 118 1055
99 118 290
100 118 1395
102 118 697
103 118 506
104 118 443
105 118 761
106 118 1044
107 118 644
108 118 156
109 118 129
110 118 486
111 118 486
112 118 245
113 118 224
114 118 485
115 118 599
116 118 796
117 118 957
119 118 484
120 118 419
122 118 1783
123 118 226
124 118 1792
125 118 1567
126 118 389
127 118 196
128 118 647
129 118 973
130 118 448
131 118 1474
132 118 543
133 118 443
134 118 618
135 118 696
136 118 665
137 118 1124
138 118 595
139 118 618
140 118 340
141 118 477
142 118 506
144 118 455
146 118 1785
148 118 585
149 118 885
150 118 1669
151 118 994
152 118 674
153 118 891
154 118 215
155 118 3
156 118 1596
157 118 367
159 118 1184
160 118 287
161 118 779
162 118 515
163 118 1004
164 118 778
165 118 577
166 118 177
167 118 409
168 118 614
169 118 987
170 118 583
171 118 549
172 118 577
174 118 748
175 118 1113
176 118 287
177 118 1236
178 118 661
179 118 1571
180 118 570
181 118 712
182 118 437
183 118 47
184 118 282
185 118 909
186 118 1307
187 118 622
188 118 1461
190 118 175
191 118 456
192 118 91
193 118 1132
194 118 1202
196 118 329
197 118 200
198 118 637
199 118 319
200 118 289
201 118 1055
202 118 1495
204 118 1152
205 118 653
206 118 438
207 118 473
208 118 1069
209 118 440
210 118 604
211 118 578
212 118 144
213 118 778
214 118 709
215 118 516
216 118 577
217 118 356
218 118 683
219 118 677
220 118 232
221 118 451
222 118 1090
223 118 108
224 118 178
225 118 972
226 118 1080
227 118 1133
228 118 672
230 118 687
231 118 574
232 118 220
233 118 812
234 118 1211
235 118 1818
236 118 95
237 118 580
238 118 653
239 118 97
241 118 503
242 118 530
243 118 596
244 118 599
245 118 978
247 118 1322
248 118 197
249 118 717
250 118 796
251 118 1048
252 118 358
253 118 1037
254 118 690
256 118 678
257 118 1180
258 118 1141
259 118 909
260 118 836
262 118 328
263 118 960
264 118 1187
265 118 1143
266 118 550
267 118 169
268 118 983
269 118 495
270 118 221
271 118 1305
272 118 877
273 118 646
274 118 808
275 118 952
276 118 173
277 118 224
278 118 359
279 118 466
281 118 538
282 118 463
283 118 414
284 118 292
285 118 321
286 118 131
287 118 1092
288 118 1047
289 118 935
290 118 340
291 118 646
292 118 452
293 118 92
294 118 914
295 118 1986
296 118 452
297 118 895
298 118 731
299 118 552
300 118 39
301 118 693
303 118 701
304 118 512
306 118 425
307 118 423
308 118 367
309 118 1396
310 118 1101
311 118 530
312 118 736
313 118 147
314 118 280
315 118 412
316 118 1098
317 118 2
318 118 159
319 118 1687
320 118 758
321 118 885
322 118 900
323 118 1412
324 118 1857
325 118 679
326 118 411
327 118 434
328 118 731
329 118 478
330 118 814
331 118 684
332 118 210
333 118 640
334 118 1254
335 118 683
336 118 1166
337 118 984
338 118 337
339 118 353
340 118 865
341 118 674
342 118 711
343 118 862
344 118 493
345 118 797
346 118 430
347 118 935
348 118 286
349 118 794
350 118 982
351 118 572
352 118 843
353 118 440
354 118 918
355 118 629
356 118 1100
357 118 591
358 118 779
359 118 878
360 118 1081
361 118 931
362 118 733
363 118 475
365 118 611
366 118 619
367 118 30
368 118 902
369 118 437
370 118 192
371 118 906
372 118 1034
373 118 1049
374 118 1052
375 118 405
376 118 319
377 118 473
378 118 497
379 118 966
380 118 632
381 118 962
382 118 332
383 118 575
384 118 660
385 118 559
386 118 620
387 118 270
388 118 664
389 118 755
390 118 118
391 118 467
392 118 580
393 118 724
394 118 1460
395 118 794
396 118 189
397 118 431
398 118 441
399 118 582
400 118 1034
401 118 682
402 118 841
403 118 188
404 118 776
405 118 804
406 118 268
407 118 627
408 118 400
409 118 459
410 118 867
411 118 741
412 118 242
413 118 456
415 118 562
416 118 638
418 118 642
419 118 365
421 118 625
422 118 339
423 118 73
424 118 572
425 118 797
426 118 528
427 118 1119
428 118 428
429 118 310
430 118 493
432 118 904
433 118 1253
434 118 640
435 118 644
436 118 630
437 118 974
438 118 310
439 118 470
440 118 250
441 118 550
442 118 237
443 118 97
444 118 545
445 118 473
446 118 955
447 118 222
448 118 506
449 118 422
450 118 833
451 118 28
452 118 570
453 118 482
454 118 1112
455 118 2100
456 118 878
457 118 428
458 118 336
459 118 1032
460 118 459
461 118 74
462 118 301
463 118 411
465 118 452
466 118 519
467 118 374
468 118 341
470 118 301
471 118 358
472 118 835
473 118 1128
474 118 5
475 118 374
476 118 551
477 118 843
478 118 1207
480 118 420
481 118 793
483 118 730
484 118 551
485 118 1173
486 118 496
487 118 1072
488 118 1090
489 118 328
490 118 429
491 118 1399
492 118 1146
493 118 508
495 118 116
496 118 1126
497 118 674
498 118 574
499 118 1242
4 119 261
5 119 35
6 119 32
7 119 1
10 119 25
11 119 7
12 119 5
13 119 719
15 119 34
17 119 8
20 119 1835
23 119 24
24 119 5
25 119 34
26 119 6
28 119 9
29 119 4
30 119 77
33 119 9
34 119 19
35 119 43
37 119 7
39 119 2
42 119 46
44 119 1
45 119 9
48 119 24
50 119 17
51 119 132
52 119 61
57 119 45
58 119 10
59 119 75
60 119 6
63 119 25
64 119 21
66 119 140
68 119 25
72 119 38
74 119 3
75 119 77
77 119 23
78 119 22
79 119 47
80 119 624
82 119 47
83 119 2
86 119 10
87 119 5
91 119 12
92 119 2
93 119 8
94 119 2
96 119 95
99 119 2
102 119 5
103 119 949
105 119 5
106 119 98
107 119 11
110 119 4
111 119 11
112 119 11
114 119 22
115 119 8
116 119 1
119 119 441
120 119 127
123 119 406
124 119 24
129 119 5
130 119 15
131 119 96
132 119 6
133 119 6
134 119 1
137 119 3
138 119 13
140 119 12
141 119 2
142 119 4
143 119 21
144 119 9
145 119 4
147 119 79
148 119 3
149 119 9
151 119 4
153 119 6
154 119 6
155 119 6
156 119 10
157 119 922
158 119 12
159 119 35
160 119 76
161 119 7
162 119 50
163 119 4
164 119 39
167 119 9
170 119 6
172 119 111
173 119 508
175 119 33
177 119 4
179 119 82
180 119 4
181 119 14
182 119 7
183 119 1258
184 119 75
185 119 37
186 119 9
188 119 3
189 119 1
190 119 6
191 119 18
192 119 578
193 119 4
194 119 7
195 119 3
196 119 7
197 119 11
202 119 32
204 119 15
207 119 8
208 119 4
209 119 5
210 119 16
212 119 25
213 119 2
214 119 3
215 119 6
218 119 34
220 119 4
221 119 588
222 119 39
224 119 5
226 119 16
227 119 21
229 119 51
230 119 1132
231 119 3
233 119 4
234 119 6
236 119 16
237 119 17
238 119 22
239 119 7
241 119 5
242 119 2
243 119 12
244 119 847
245 119 18
246 119 7
247 119 9
248 119 1
251 119 2
253 119 69
254 119 6
255 119 166
256 119 6
257 119 68
258 119 3
259 119 27
262 119 10
263 119 10
264 119 72
265 119 13
266 119 99
269 119 2
270 119 17
272 119 9
274 119 14
275 119 3
279 119 8
280 119 5
281 119 118
282 119 33
283 119 77
285 119 3
286 119 3
287 119 62
288 119 33
289 119 5
292 119 3
293 119 8
294 119 119
295 119 45
296 119 86
304 119 4
305 119 97
306 119 60
307 119 4
308 119 13
311 119 8
313 119 13
314 119 30
315 119 551
316 119 195
317 119 5
318 119 30
319 119 14
322 119 4
324 119 18
325 119 3
326 119 80
327 119 3
330 119 7
331 119 9
332 119 3
333 119 665
335 119 722
336 119 24
338 119 23
339 119 11
340 119 9
341 119 1195
343 119 13
344 119 9
345 119 13
353 119 12
354 119 41
355 119 6
357 119 79
359 119 32
360 119 85
361 119 41
363 119 47
365 119 8
368 119 3
370 119 9
371 119 4
372 119 118
373 119 163
374 119 79
375 119 29
376 119 4
377 119 74
378 119 30
379 119 15
380 119 6
381 119 35
383 119 17
384 119 3
385 119 27
386 119 10
387 119 443
388 119 4
389 119 2
390 119 1
391 119 36
392 119 2
393 119 3
396 119 2
400 119 55
402 119 33
403 119 99
405 119 44
408 119 9
409 119 893
410 119 8
412 119 6
413 119 4
415 119 14
416 119 22
419 119 1
420 119 5
421 119 1019
422 119 9
423 119 3
424 119 3
426 119 48
429 119 38
430 119 3
431 119 4
435 119 5
438 119 893
439 119 16
440 119 24
441 119 4
443 119 27
444 119 57
445 119 871
446 119 4
448 119 11
452 119 7
457 119 6
458 119 201
459 119 4
460 119 15
461 119 979
465 119 71
466 119 84
467 119 33
468 119 21
469 119 53
472 119 9
473 119 34
475 119 149
477 119 12
478 119 4
480 119 47
481 119 7
484 119 1480
485 119 6
487 119 27
488 119 34
491 119 8
493 119 8
494 119 7
495 119 72
496 119 23
497 119 668
498 119 171
499 119 14
4 120 4
5 120 3
11 120 4
13 120 4
16 120 5
20 120 364
32 120 5
33 120 9
51 120 4
66 120 5
68 120 6
78 120 4
80 120 745
96 120 9
103 120 937
114 120 3
119 120 1006
120 120 7
125 120 9
156 120 5
157 120 34
167 120 3
169 120 4
173 120 49
183 120 322
192 120 466
221 120 266
223 120 2
224 120 1
230 120 92
244 120 399
255 120 9
268 120 6
281 120 5
282 120 1
286 120 7
296 120 9
300 120 9
302 120 4
315 120 253
318 120 5
319 120 7
324 120 7
326 120 2
329 120 5
332 120 4
333 120 36
335 120 674
341 120 388
368 120 5
378 120 1
379 120 5
380 120 9
383 120 9
387 120 7
409 120 924
413 120 3
421 120 1145
422 120 2
426 120 5
437 120 9
438 120 570
439 120 3
444 120 3
445 120 225
451 120 6
458 120 5
461 120 195
467 120 1
475 120 3
482 120 9
484 120 273
495 120 26
497 120 43
498 120 3
19 121 1403
24 121 1614
30 121 1456
31 121 395
53 121 574
59 121 1455
72 121 706
75 121 1454
79 121 296
86 121 230
96 121 273
100 121 416
106 121 1430
111 121 215
130 121 224
131 121 766
146 121 1513
156 121 767
159 121 735
161 121 229
175 121 721
179 121 752
185 121 628
205 121 1809
209 121 228
222 121 673
226 121 182
239 121 1327
253 121 1506
259 121 589
260 121 635
263 121 656
265 121 208
274 121 215
279 121 189
293 121 1358
309 121 338
316 121 993
319 121 790
323 121 403
344 121 231
345 121 231
352 121 609
354 121 592
357 121 617
361 121 635
373 121 938
374 121 1404
377 121 1037
381 121 661
390 121 1377
394 121 389
423 121 1431
426 121 303
444 121 306
450 121 650
454 121 947
460 121 227
465 121 1004
466 121 1015
472 121 217
473 121 697
477 121 244
488 121 701
496 121 654
1 122 1351
2 122 878
3 122 2052
4 122 991
5 122 739
6 122 1377
7 122 1878
8 122 1245
9 122 1864
10 122 801
11 122 1108
12 122 878
13 122 610
14 122 1489
15 122 1587
16 122 653
17 122 1611
18 122 1544
19 122 2556
20 122 1179
21 122 2357
22 122 1753
23 122 1220
24 122 2853
25 122 668
26 122 1849
27 122 2596
28 122 1538
29 122 1048
30 122 1707
31 122 1856
32 122 623
33 122 926
34 122 2304
35 122 927
36 122 2017
37 122 1051
38 122 1934
39 122 1516
40 122 765
41 122 1233
42 122 2168
43 122 1207
44 122 583
45 122 2933
46 122 905
47 122 2054
48 122 2161
49 122 1753
50 122 1243
51 122 2454
52 122 799
53 122 2057
54 122 1034
55 122 879
56 122 1258
57 122 2194
58 122 2397
59 122 1715
60 122 2784
61 122 1850
62 122 911
63 122 1537
64 122 1097
65 122 2515
66 122 1583
67 122 2453
68 122 1441
69 122 2018
70 122 625
71 122 723
72 122 3065
73 122 2584
74 122 426
75 122 1667
76 122 550
77 122 1949
78 122 1574
79 122 1707
80 122 509
81 122 1609
82 122 806
83 122 2636
84 122 2036
85 122 1645
86 122 2240
87 122 2516
88 122 1388
89 122 2119
90 122 1475
91 122 941
92 122 828
93 122 1485
94 122 1557
95 122 196
96 122 2815
97 122 1554
98 122 2634
99 122 939
100 122 1844
101 122 1300
102 122 1197
103 122 659
104 122 727
105 122 841
106 122 1689
107 122 928
108 122 1262
109 122 1372
110 122 1725
111 122 2160
112 122 506
113 122 253
114 122 972
115 122 976
116 122 1522
117 122 2855
118 122 1791
119 122 741
120 122 1517
121 122 1855
122 122 2307
123 122 748
124 122 1454
125 122 1522
126 122 2066
127 122 1797
128 122 2477
129 122 887
130 122 2241
131 122 1240
132 122 1904
133 122 1246
134 122 1962
135 122 526
136 122 1794
137 122 1991
138 122 1158
139 122 2565
140 122 769
141 122 2230
142 122 750
143 122 1603
144 122 2279
145 122 3175
146 122 2570
147 122 1815
148 122 418
149 122 2101
150 122 2785
151 122 1215
152 122 800
153 122 2513
154 122 1239
155 122 1169
156 122 2026
157 122 1042
158 122 1519
159 122 3030
160 122 1545
161 122 2230
162 122 2227
163 122 871
164 122 1000
165 122 2225
166 122 2140
167 122 643
168 122 732
169 122 647
170 122 1942
171 122 996
172 122 675
173 122 2987
174 122 1996
175 122 3120
176 122 2176
177 122 1018
178 122 889
179 122 1198
180 122 1265
181 122 2543
182 122 1396
183 122 834
184 122 595
185 122 1600
186 122 1257
187 122 1663
188 122 1542
189 122 1380
190 122 2111
191 122 1942
192 122 1406
193 122 2020
194 122 1307
195 122 1781
196 122 1531
197 122 1114
198 122 895
199 122 1938
200 122 877
201 122 979
202 122 1551
203 122 2390
204 122 868
205 122 1772
206 122 910
207 122 1088
208 122 1969
209 122 2213
210 122 1740
211 122 1439
212 122 1223
213 122 2070
214 122 2284
215 122 749
216 122 1184
217 122 2053
218 122 589
219 122 975
220 122 2534
221 122 529
222 122 3032
223 122 606
224 122 2246
225 122 1537
226 122 2072
227 122 2019
228 122 551
229 122 1724
230 122 1296
231 122 871
232 122 758
233 122 1207
234 122 1587
235 122 1958
236 122 702
237 122 1066
238 122 635
239 122 1935
240 122 1529
241 122 838
242 122 1553
243 122 1429
244 122 1299
245 122 1985
246 122 3127
247 122 1378
248 122 908
249 122 901
250 122 1321
251 122 1581
252 122 611
253 122 1751
254 122 1287
255 122 1760
256 122 1162
257 122 1514
258 122 451
259 122 1585
260 122 1603
261 122 1053
262 122 1243
263 122 2414
264 122 1595
265 122 2082
266 122 630
267 122 2070
268 122 2620
269 122 2260
270 122 324
271 122 1249
272 122 718
273 122 1236
274 122 2293
275 122 1828
276 122 2171
277 122 1553
278 122 2582
279 122 2122
280 122 1556
281 122 1164
282 122 1035
283 122 1113
284 122 1220
285 122 820
286 122 792
287 122 779
288 122 2062
289 122 1894
290 122 509
291 122 1308
292 122 2292
293 122 1949
294 122 2884
295 122 752
296 122 1957
297 122 1380
298 122 1180
299 122 1398
300 122 2047
301 122 1788
302 122 2195
303 122 1240
304 122 2931
305 122 2602
306 122 1078
307 122 2340
308 122 1700
309 122 2083
310 122 1513
311 122 1570
312 122 2036
313 122 1903
314 122 1559
315 122 581
316 122 2335
317 122 2373
318 122 1544
319 122 2066
320 122 1735
321 122 1426
322 122 1213
323 122 1949
324 122 1421
325 122 1550
326 122 1405
327 122 1387
328 122 1971
329 122 582
330 122 1545
331 122 2559
332 122 2148
333 122 707
334 122 472
335 122 524
336 122 2025
337 122 1504
338 122 541
339 122 458
340 122 1442
341 122 1022
342 122 1925
343 122 1431
344 122 2249
345 122 2288
346 122 1194
347 122 904
348 122 878
349 122 1396
350 122 1517
351 122 992
352 122 1503
353 122 1171
354 122 1606
355 122 2352
356 122 777
357 122 1445
358 122 928
359 122 1116
360 122 1859
361 122 1728
362 122 468
363 122 595
364 122 2025
365 122 1228
366 122 1598
367 122 2707
368 122 2127
369 122 1065
370 122 881
371 122 1222
372 122 1867
373 122 2316
374 122 1657
375 122 1338
376 122 950
377 122 2486
378 122 738
379 122 1445
380 122 1851
381 122 1702
382 122 1674
383 122 1477
384 122 1205
385 122 831
386 122 1856
387 122 1002
388 122 873
389 122 723
390 122 1998
391 122 964
392 122 1835
393 122 1533
394 122 1898
395 122 1956
396 122 1144
397 122 1811
398 122 1514
399 122 1530
400 122 2778
401 122 2001
402 122 1123
403 122 1547
404 122 1944
405 122 1464
406 122 1044
407 122 869
408 122 970
409 122 649
410 122 978
411 122 1874
412 122 2598
413 122 1395
414 122 2994
415 122 1086
416 122 1689
417 122 1168
418 122 865
419 122 2310
420 122 1653
421 122 615
422 122 1236
423 122 1999
424 122 940
425 122 1409
426 122 2808
427 122 1739
428 122 1071
429 122 1492
430 122 1486
431 122 2037
432 122 935
433 122 1792
434 122 1202
435 122 1967
436 122 1163
437 122 2738
438 122 1195
439 122 930
440 122 1140
441 122 716
442 122 1600
443 122 1261
444 122 2903
445 122 1106
446 122 1829
447 122 1345
448 122 800
449 122 2553
450 122 1614
451 122 2028
452 122 2081
453 122 1680
454 122 1483
455 122 1481
456 122 1378
457 122 622
458 122 842
459 122 1859
460 122 2153
461 122 794
462 122 1181
463 122 1242
464 122 1491
465 122 2545
466 122 2474
467 122 2334
468 122 1240
469 122 1524
470 122 995
471 122 651
472 122 2291
473 122 3051
474 122 1600
475 122 1586
476 122 1861
477 122 2298
478 122 1218
479 122 337
480 122 1260
481 122 1278
482 122 2235
483 122 1815
484 122 868
485 122 1282
486 122 2296
487 122 1639
488 122 2989
489 122 1537
490 122 1439
491 122 2366
492 122 645
493 122 1107
494 122 2781
495 122 1050
496 122 2920
497 122 732
498 122 1236
499 122 1316
500 122 809
1 123 299
2 123 1089
3 123 617
4 123 148
5 123 602
6 123 576
7 123 1038
8 123 468
9 123 403
10 123 684
11 123 131
12 123 45
13 123 150
14 123 348
15 123 231
16 123 203
17 123 983
18 123 301
19 123 728
20 123 378
21 123 735
22 123 895
23 123 559
24 123 614
25 123 134
26 123 1007
27 123 1714
28 123 232
29 123 949
30 123 664
31 123 1436
32 123 344
33 123 410
34 123 259
35 123 360
36 123 180
37 123 632
38 123 591
39 123 870
40 123 401
41 123 867
42 123 647
43 123 91
44 123 117
45 123 384
46 123 718
47 123 249
48 123 708
49 123 423
50 123 64
51 123 98
52 123 213
53 123 396
54 123 211
55 123 1054
56 123 238
57 123 487
58 123 279
59 123 689
60 123 462
61 123 406
62 123 397
63 123 716
64 123 32
65 123 224
66 123 911
67 123 162
68 123 967
69 123 975
70 123 313
71 123 326
72 123 361
73 123 705
74 123 494
75 123 664
76 123 656
77 123 1023
78 123 146
79 123 384
80 123 263
81 123 172
82 123 457
83 123 231
84 123 175
85 123 546
86 123 175
87 123 118
88 123 373
89 123 546
90 123 180
91 123 167
92 123 173
93 123 475
94 123 368
95 123 426
96 123 1111
97 123 165
98 123 218
99 123 323
100 123 1433
101 123 146
102 123 594
103 123 400
104 123 345
105 123 356
106 123 708
107 123 381
108 123 921
109 123 593
110 123 1304
111 123 824
112 123 345
113 123 448
114 123 168
115 123 463
116 123 458
117 123 286
118 123 1362
119 123 213
120 123 475
121 123 276
122 123 889
123 123 178
124 123 347
125 123 426
126 123 1362
127 123 669
128 123 566
129 123 725
130 123 892
131 123 590
132 123 155
133 123 151
134 123 705
135 123 252
136 123 342
137 123 665
138 123 273
139 123 992
140 123 743
141 123 605
142 123 427
143 123 895
144 123 233
145 123 290
146 123 743
147 123 450
148 123 482
149 123 529
150 123 485
151 123 132
152 123 238
153 123 348
154 123 176
155 123 280
156 123 477
157 123 513
158 123 291
159 123 362
160 123 553
161 123 192
162 123 889
163 123 431
164 123 629
165 123 599
166 123 622
167 123 197
168 123 503
169 123 205
170 123 695
171 123 269
172 123 201
173 123 1700
174 123 1106
175 123 403
176 123 640
177 123 790
178 123 811
179 123 552
180 123 333
181 123 610
182 123 610
183 123 517
184 123 586
185 123 285
186 123 419
187 123 185
188 123 351
189 123 621
190 123 230
191 123 387
192 123 140
193 123 669
194 123 365
195 123 268
196 123 535
197 123 226
198 123 626
199 123 332
200 123 298
201 123 194
202 123 1457
203 123 517
204 123 159
205 123 339
206 123 138
207 123 473
208 123 673
209 123 865
210 123 165
211 123 492
212 123 408
213 123 853
214 123 622
215 123 443
216 123 578
217 123 742
218 123 381
219 123 413
220 123 216
221 123 493
222 123 375
223 123 332
224 123 182
225 123 312
226 123 728
227 123 752
228 123 256
229 123 1927
230 123 399
231 123 52
232 123 639
233 123 346
234 123 506
235 123 641
236 123 489
237 123 529
238 123 254
239 123 778
240 123 1062
241 123 438
242 123 1043
243 123 454
244 123 354
245 123 1035
246 123 664
247 123 179
248 123 182
249 123 396
250 123 787
251 123 292
252 123 169
253 123 678
254 123 263
255 123 1009
256 123 632
257 123 116
258 123 413
259 123 276
260 123 446
261 123 1099
262 123 69
263 123 1136
264 123 107
265 123 721
266 123 226
267 123 582
268 123 215
269 123 668
270 123 81
271 123 850
272 123 172
273 123 919
274 123 175
275 123 1018
276 123 828
277 123 479
278 123 300
279 123 864
280 123 184
281 123 288
282 123 411
283 123 186
284 123 624
285 123 1005
286 123 836
287 123 213
288 123 261
289 123 1049
290 123 337
291 123 563
292 123 626
293 123 721
294 123 171
295 123 997
296 123 811
297 123 764
298 123 685
299 123 797
300 123 1086
301 123 389
302 123 1086
303 123 1164
304 123 320
305 123 415
306 123 406
307 123 207
308 123 147
309 123 175
310 123 644
311 123 1118
312 123 259
313 123 391
314 123 667
315 123 460
316 123 441
317 123 296
318 123 116
319 123 509
320 123 301
321 123 785
322 123 146
323 123 1371
324 123 917
325 123 108
326 123 535
327 123 452
328 123 354
329 123 236
330 123 246
331 123 565
332 123 201
333 123 565
334 123 375
335 123 566
336 123 668
337 123 78
338 123 575
339 123 1045
340 123 769
341 123 200
342 123 377
343 123 120
344 123 920
345 123 199
346 123 268
347 123 751
348 123 1070
349 123 584
350 123 322
351 123 265
352 123 463
353 123 285
354 123 266
355 123 533
356 123 436
357 123 272
358 123 373
359 123 458
360 123 619
361 123 283
362 123 316
363 123 1163
364 123 684
365 123 264
366 123 636
367 123 765
368 123 226
369 123 74
370 123 305
371 123 642
372 123 622
373 123 439
374 123 694
375 123 127
376 123 427
377 123 220
378 123 387
379 123 137
380 123 571
381 123 283
382 123 1000
383 123 656
384 123 727
385 123 577
386 123 327
387 123 48
388 123 257
389 123 806
390 123 780
391 123 550
392 123 162
393 123 448
394 123 1372
395 123 561
396 123 117
397 123 413
398 123 657
399 123 268
400 123 1145
401 123 119
402 123 514
403 123 850
404 123 475
405 123 391
406 123 109
407 123 641
408 123 80
409 123 408
410 123 386
411 123 376
412 123 216
413 123 111
414 123 627
415 123 103
416 123 185
417 123 403
418 123 401
419 123 867
420 123 228
421 123 281
422 123 258
423 123 782
424 123 697
425 123 638
426 123 1072
427 123 702
428 123 84
429 123 636
430 123 539
431 123 228
432 123 772
433 123 358
434 123 299
435 123 316
436 123 306
437 123 214
438 123 65
439 123 178
440 123 395
441 123 463
442 123 506
443 123 209
444 123 1101
445 123 277
446 123 1093
447 123 523
448 123 424
449 123 1296
450 123 460
451 123 1139
452 123 380
453 123 232
454 123 738
455 123 198
456 123 277
457 123 504
458 123 336
459 123 1001
460 123 922
461 123 497
462 123 689
463 123 462
464 123 757
465 123 255
466 123 257
467 123 296
468 123 548
469 123 838
470 123 216
471 123 204
472 123 176
473 123 400
474 123 580
475 123 983
476 123 401
477 123 190
478 123 371
479 123 374
480 123 159
481 123 1045
482 123 1158
483 123 273
484 123 249
485 123 357
486 123 857
487 123 455
488 123 402
489 123 1168
490 123 333
491 123 295
492 123 746
493 123 226
494 123 121
495 123 303
496 123 372
497 123 614
498 123 320
499 123 191
500 123 504
1 124 719
2 124 782
3 124 1167
4 124 453
5 124 489
6 124 978
7 124 349
8 124 309
9 124 705
10 124 378
11 124 1135
12 124 273
13 124 809
14 124 649
15 124 482
16 124 583
17 124 353
18 124 720
19 124 945
20 124 346
21 124 479
22 124 1291
23 124 849
24 124 1661
25 124 593
26 124 396
27 124 342
28 124 1202
29 124 1877
30 124 479
31 124 1955
32 124 632
33 124 1628
34 124 758
35 124 718
36 124 1397
37 124 757
38 124 555
39 124 448
40 124 1151
41 124 645
42 124 1113
43 124 264
44 124 694
45 124 2091
46 124 2069
47 124 505
48 124 446
49 124 1139
50 124 418
51 124 1292
52 124 857
53 124 189
54 124 253
55 124 912
56 124 472
57 124 674
58 124 1023
59 124 438
60 124 1370
61 124 1621
62 124 907
63 124 285
64 124 645
65 124 299
66 124 521
67 124 901
68 124 1143
69 124 1192
70 124 630
71 124 789
72 124 1031
73 124 1403
74 124 318
75 124 453
76 124 869
77 124 815
78 124 773
79 124 487
80 124 466
81 124 328
82 124 1160
83 124 819
84 124 1734
85 124 1069
86 124 419
87 124 851
88 124 1580
89 124 889
90 124 273
91 124 608
92 124 517
93 124 326
94 124 1173
95 124 768
96 124 1040
97 124 269
98 124 306
99 124 896
100 124 2076
101 124 757
102 124 276
103 124 596
104 124 1017
105 124 398
106 124 473
107 124 375
108 124 1225
109 124 605
110 124 666
111 124 891
112 124 350
113 124 589
114 124 244
115 124 492
116 124 1225
117 124 300
118 124 344
119 124 603
120 124 405
121 124 220
122 124 501
123 124 881
124 124 785
125 124 854
126 124 2385
127 124 964
128 124 669
129 124 986
130 124 869
131 124 747
132 124 961
133 124 1321
134 124 1580
135 124 270
136 124 873
137 124 916
138 124 968
139 124 757
140 124 543
141 124 1598
142 124 1042
143 124 881
144 124 777
145 124 1924
146 124 991
147 124 1211
148 124 285
149 124 558
150 124 912
151 124 511
152 124 532
153 124 246
154 124 295
155 124 253
156 124 662
157 124 462
158 124 583
159 124 1002
160 124 1481
161 124 384
162 124 1303
163 124 365
164 124 1090
165 124 869
166 124 666
167 124 199
168 124 676
169 124 579
170 124 1634
171 124 247
172 124 479
173 124 2357
174 124 1445
175 124 1026
176 124 1449
177 124 1646
178 124 784
179 124 712
180 124 779
181 124 786
182 124 729
183 124 440
184 124 364
185 124 1145
186 124 1790
187 124 295
188 124 1094
189 124 1223
190 124 1766
191 124 742
192 124 505
193 124 935
194 124 844
195 124 864
196 124 458
197 124 953
198 124 562
199 124 696
200 124 546
201 124 226
202 124 1346
203 124 1287
204 124 1249
205 124 637
206 124 872
207 124 407
208 124 951
209 124 912
210 124 715
211 124 435
212 124 698
213 124 1041
214 124 906
215 124 1052
216 124 1148
217 124 161
218 124 877
219 124 1187
220 124 819
221 124 581
222 124 1012
223 124 626
224 124 1591
225 124 693
226 124 281
227 124 1190
228 124 250
229 124 1112
230 124 266
231 124 269
232 124 549
233 124 512
234 124 1092
235 124 547
236 124 683
237 124 364
238 124 339
239 124 729
240 124 460
241 124 928
242 124 1211
243 124 442
244 124 770
245 124 787
246 124 885
247 124 876
248 124 414
249 124 1146
250 124 227
251 124 480
252 124 553
253 124 452
254 124 1946
255 124 823
256 124 541
257 124 768
258 124 239
259 124 1259
260 124 805
261 124 1112
262 124 399
263 124 1861
264 124 726
265 124 272
266 124 532
267 124 619
268 124 852
269 124 1688
270 124 1231
271 124 647
272 124 358
273 124 834
274 124 368
275 124 395
276 124 1250
277 124 384
278 124 190
279 124 921
280 124 1096
281 124 1293
282 124 416
283 124 573
284 124 548
285 124 1737
286 124 577
287 124 866
288 124 453
289 124 388
290 124 1258
291 124 696
292 124 912
293 124 789
294 124 794
295 124 226
296 124 564
297 124 238
298 124 733
299 124 106
300 124 631
301 124 797
302 124 2279
303 124 811
304 124 836
305 124 853
306 124 699
307 124 754
308 124 288
309 124 326
310 124 1794
311 124 1151
312 124 525
313 124 1179
314 124 1153
315 124 518
316 124 963
317 124 444
318 124 746
319 124 690
320 124 601
321 124 254
322 124 410
323 124 1953
324 124 1089
325 124 1280
326 124 1247
327 124 799
328 124 900
329 124 326
330 124 571
331 124 1103
332 124 1623
333 124 1146
334 124 1067
335 124 89
336 124 1171
337 124 1401
338 124 1629
339 124 351
340 124 1474
341 124 207
342 124 875
343 124 1162
344 124 938
345 124 385
346 124 1638
347 124 558
348 124 793
349 124 1182
350 124 722
351 124 229
352 124 888
353 124 1071
354 124 1279
355 124 1885
356 124 1125
357 124 495
358 124 271
359 124 85
360 124 770
361 124 1165
362 124 1289
363 124 485
364 124 247
365 124 1001
366 124 880
367 124 1474
368 124 1407
369 124 895
370 124 926
371 124 1671
372 124 772
373 124 982
374 124 441
375 124 1544
376 124 382
377 124 1125
378 124 516
379 124 1180
380 124 904
381 124 1202
382 124 719
383 124 482
384 124 1624
385 124 308
386 124 1442
387 124 597
388 124 976
389 124 624
390 124 771
391 124 499
392 124 760
393 124 1193
394 124 2039
395 124 1192
396 124 524
397 124 982
398 124 1215
399 124 875
400 124 1193
401 124 1030
402 124 49
403 124 1354
404 124 838
405 124 1413
406 124 338
407 124 535
408 124 468
409 124 561
410 124 133
411 124 873
412 124 848
413 124 594
414 124 1027
415 124 1196
416 124 753
417 124 1617
418 124 1394
419 124 275
420 124 282
421 124 446
422 124 294
423 124 805
424 124 729
425 124 204
426 124 1133
427 124 894
428 124 882
429 124 1265
430 124 328
431 124 1535
432 124 504
433 124 1570
434 124 1510
435 124 207
436 124 1532
437 124 815
438 124 367
439 124 240
440 124 1192
441 124 1149
442 124 1004
443 124 380
444 124 1100
445 124 357
446 124 389
447 124 313
448 124 921
449 124 749
450 124 879
451 124 648
452 124 1203
453 124 1048
454 124 1236
455 124 319
456 124 1263
457 124 2133
458 124 597
459 124 386
460 124 904
461 124 895
462 124 582
463 124 301
464 124 1132
465 124 1199
466 124 1152
467 124 1241
468 124 648
469 124 3310
470 124 629
471 124 356
472 124 417
473 124 1050
474 124 1699
475 124 522
476 124 1239
477 124 388
478 124 862
479 124 285
480 124 440
481 124 974
482 124 2317
483 124 848
484 124 956
485 124 844
486 124 625
487 124 868
488 124 975
489 124 945
490 124 930
491 124 1086
492 124 829
493 124 750
494 124 1222
495 124 557
496 124 989
497 124 1191
498 124 1645
499 124 535
500 124 1642
1 125 1171
2 125 92
3 125 634
4 125 97
5 125 476
6 125 318
7 125 151
8 125 696
9 125 374
10 125 375
11 125 748
12 125 781
13 125 673
14 125 524
15 125 623
16 125 309
17 125 363
18 125 663
19 125 1434
20 125 185
21 125 1131
22 125 839
23 125 451
24 125 550
25 125 65
26 125 173
27 125 303
28 125 653
29 125 108
30 125 662
31 125 278
32 125 107
33 125 153
34 125 899
35 125 236
36 125 494
37 125 999
38 125 310
39 125 210
40 125 239
41 125 905
42 125 352
43 125 371
44 125 503
45 125 1419
46 125 474
47 125 363
48 125 225
49 125 189
50 125 356
51 125 473
52 125 270
53 125 283
54 125 132
55 125 269
56 125 54
57 125 133
58 125 1187
59 125 674
60 125 266
61 125 359
62 125 563
63 125 332
64 125 136
65 125 266
66 125 556
67 125 211
68 125 528
69 125 678
70 125 201
71 125 398
72 125 217
73 125 242
74 125 488
75 125 695
76 125 293
77 125 357
78 125 412
79 125 348
80 125 485
81 125 608
82 125 430
83 125 325
84 125 266
85 125 216
86 125 441
87 125 547
88 125 244
89 125 390
90 125 326
91 125 64
92 125 603
93 125 469
94 125 244
95 125 924
96 125 502
97 125 1196
98 125 317
99 125 117
100 125 280
101 125 1508
102 125 787
103 125 217
104 125 43
105 125 498
106 125 656
107 125 531
108 125 312
109 125 506
110 125 169
111 125 291
112 125 219
113 125 254
114 125 914
115 125 142
116 125 263
117 125 345
118 125 283
119 125 458
120 125 213
121 125 556
122 125 136
123 125 448
124 125 70
125 125 222
126 125 115
127 125 655
128 125 166
129 125 372
130 125 246
131 125 262
132 125 293
133 125 409
134 125 757
135 125 301
136 125 195
137 125 591
138 125 428
139 125 268
140 125 516
141 125 398
142 125 777
143 125 1254
144 125 780
145 125 102
146 125 1532
147 125 209
148 125 496
149 125 366
150 125 215
151 125 374
152 125 363
153 125 641
154 125 463
155 125 527
156 125 1273
157 125 437
158 125 282
159 125 234
160 125 337
161 125 459
162 125 657
163 125 465
164 125 719
165 125 295
166 125 213
167 125 431
168 125 812
169 125 293
170 125 802
171 125 127
172 125 298
173 125 643
174 125 363
175 125 251
176 125 264
177 125 959
178 125 229
179 125 258
180 125 249
181 125 360
182 125 359
183 125 119
184 125 555
185 125 122
186 125 239
187 125 583
188 125 480
189 125 783
190 125 466
191 125 178
192 125 700
193 125 568
194 125 411
195 125 150
196 125 406
197 125 617
198 125 227
199 125 319
200 125 348
201 125 486
202 125 761
203 125 608
204 125 187
205 125 234
206 125 349
207 125 762
208 125 639
209 125 234
210 125 704
211 125 168
212 125 226
213 125 684
214 125 363
215 125 860
216 125 516
217 125 640
218 125 602
219 125 303
220 125 337
221 125 121
222 125 234
223 125 118
224 125 321
225 125 670
226 125 266
227 125 96
228 125 267
229 125 586
230 125 236
231 125 743
232 125 1303
233 125 455
234 125 1072
235 125 285
236 125 60
237 125 748
238 125 156
239 125 211
240 125 190
241 125 240
242 125 528
243 125 1458
244 125 67
245 125 332
246 125 99
247 125 152
248 125 162
249 125 293
250 125 578
251 125 618
252 125 595
253 125 681
254 125 201
255 125 308
256 125 832
257 125 209
258 125 153
259 125 96
260 125 543
261 125 653
262 125 307
263 125 408
264 125 229
265 125 284
266 125 306
267 125 216
268 125 426
269 125 375
270 125 164
271 125 380
272 125 193
273 125 545
274 125 562
275 125 174
276 125 426
277 125 745
278 125 268
279 125 270
280 125 284
281 125 338
282 125 475
283 125 369
284 125 748
285 125 722
286 125 282
287 125 285
288 125 266
289 125 160
290 125 481
291 125 709
292 125 1095
293 125 198
294 125 303
295 125 627
296 125 627
297 125 814
298 125 853
299 125 787
300 125 1059
301 125 658
302 125 1040
303 125 589
304 125 762
305 125 658
306 125 315
307 125 765
308 125 560
309 125 716
310 125 147
311 125 540
312 125 344
313 125 300
314 125 746
315 125 114
316 125 665
317 125 780
318 125 393
319 125 1292
320 125 550
321 125 823
322 125 195
323 125 291
324 125 526
325 125 419
326 125 1028
327 125 344
328 125 227
329 125 151
330 125 1245
331 125 531
332 125 339
333 125 253
334 125 471
335 125 451
336 125 96
337 125 97
338 125 150
339 125 304
340 125 192
341 125 376
342 125 200
343 125 412
344 125 307
345 125 461
346 125 536
347 125 231
348 125 107
349 125 232
350 125 627
351 125 120
352 125 567
353 125 565
354 125 120
355 125 368
356 125 240
357 125 726
358 125 343
359 125 218
360 125 1103
361 125 104
362 125 402
363 125 181
364 125 961
365 125 473
366 125 617
367 125 493
368 125 468
369 125 71
370 125 315
371 125 255
372 125 1175
373 125 688
374 125 656
375 125 102
376 125 113
377 125 233
378 125 463
379 125 704
380 125 231
381 125 119
382 125 369
383 125 568
384 125 181
385 125 250
386 125 626
387 125 119
388 125 652
389 125 204
390 125 218
391 125 213
392 125 262
393 125 204
394 125 287
395 125 634
396 125 371
397 125 1042
398 125 228
399 125 215
400 125 839
401 125 791
402 125 211
403 125 384
404 125 423
405 125 801
406 125 418
407 125 245
408 125 168
409 125 223
410 125 143
411 125 215
412 125 324
413 125 660
414 125 986
415 125 268
416 125 699
417 125 700
418 125 275
419 125 157
420 125 765
421 125 176
422 125 347
423 125 196
424 125 203
425 125 286
426 125 485
427 125 150
428 125 73
429 125 746
430 125 496
431 125 1158
432 125 222
433 125 355
434 125 291
435 125 81
436 125 281
437 125 442
438 125 489
439 125 954
440 125 234
441 125 833
442 125 63
443 125 356
444 125 491
445 125 218
446 125 178
447 125 273
448 125 231
449 125 788
450 125 523
451 125 1063
452 125 630
453 125 189
454 125 1142
455 125 919
456 125 165
457 125 214
458 125 247
459 125 174
460 125 267
461 125 204
462 125 719
463 125 739
464 125 658
465 125 280
466 125 266
467 125 533
468 125 55
469 125 845
470 125 466
471 125 1069
472 125 450
473 125 208
474 125 201
475 125 578
476 125 175
477 125 439
478 125 399
479 125 1353
480 125 130
481 125 228
482 125 1097
483 125 647
484 125 369
485 125 374
486 125 437
487 125 794
488 125 218
489 125 584
490 125 823
491 125 1240
492 125 408
493 125 365
494 125 285
495 125 439
496 125 220
497 125 252
498 125 474
499 125 207
500 125 1239
1 126 436
2 126 446
3 126 709
4 126 729
5 126 1206
6 126 1487
7 126 974
8 126 1911
9 126 855
10 126 546
11 126 1099
12 126 2696
13 126 697
14 126 313
15 126 2139
16 126 2290
17 126 1465
18 126 1264
19 126 3007
20 126 482
21 126 1068
22 126 960
23 126 341
24 126 983
25 126 1215
26 126 961
27 126 1193
28 126 1258
29 126 1012
30 126 508
31 126 1449
32 126 541
33 126 845
34 126 491
35 126 589
36 126 1266
37 126 1290
38 126 907
39 126 915
40 126 1452
41 126 1238
42 126 1016
43 126 741
44 126 1120
45 126 1586
46 126 2224
47 126 1118
48 126 1184
49 126 1175
50 126 1077
51 126 1475
52 126 2009
53 126 1884
54 126 982
55 126 950
56 126 944
57 126 2715
58 126 1103
59 126 529
60 126 1066
61 126 985
62 126 961
63 126 1425
64 126 831
65 126 1800
66 126 669
67 126 830
68 126 1065
69 126 1297
70 126 1424
71 126 656
72 126 1328
73 126 1263
74 126 1443
75 126 491
76 126 942
77 126 1113
78 126 832
79 126 3402
80 126 486
81 126 982
82 126 414
83 126 1049
84 126 657
85 126 2014
86 126 2263
87 126 969
88 126 637
89 126 1268
90 126 1360
91 126 841
92 126 727
93 126 954
94 126 1161
95 126 1282
96 126 2417
97 126 1425
98 126 1809
99 126 1636
100 126 1405
101 126 2354
102 126 896
103 126 430
104 126 1055
105 126 434
106 126 486
107 126 444
108 126 1065
109 126 1637
110 126 822
111 126 1056
112 126 370
113 126 793
114 126 1062
115 126 599
116 126 799
117 126 1026
118 126 567
119 126 324
120 126 1007
121 126 1948
122 126 1268
123 126 608
124 126 1541
125 126 1681
126 126 1253
127 126 1246
128 126 480
129 126 1329
130 126 1074
131 126 1577
132 126 1856
133 126 709
134 126 1240
135 126 792
136 126 1913
137 126 772
138 126 1293
139 126 1230
140 126 750
141 126 675
142 126 402
143 126 713
144 126 1033
145 126 2600
146 126 2941
147 126 1227
148 126 1440
149 126 967
150 126 921
151 126 1468
152 126 1180
153 126 1129
154 126 783
155 126 1198
156 126 1022
157 126 719
158 126 2702
159 126 1302
160 126 1164
161 126 2340
162 126 1864
163 126 454
164 126 1477
165 126 1211
166 126 879
167 126 597
168 126 954
169 126 2367
170 126 1370
171 126 975
172 126 1001
173 126 2122
174 126 1068
175 126 1324
176 126 991
177 126 1785
178 126 662
179 126 1648
180 126 807
181 126 578
182 126 482
183 126 1028
184 126 740
185 126 355
186 126 2350
187 126 967
188 126 346
189 126 1912
190 126 1197
191 126 1669
192 126 898
193 126 797
194 126 504
195 126 2446
196 126 528
197 126 388
198 126 654
199 126 945
200 126 1124
201 126 1248
202 126 2006
203 126 459
204 126 1451
205 126 1128
206 126 1124
207 126 1023
208 126 821
209 126 1088
210 126 1913
211 126 1363
212 126 1649
213 126 1197
214 126 1908
215 126 465
216 126 1124
217 126 768
218 126 1086
219 126 529
220 126 968
221 126 679
222 126 1301
223 126 607
224 126 1245
225 126 1305
226 126 2497
227 126 1963
228 126 720
229 126 1218
230 126 981
231 126 2634
232 126 1956
233 126 1354
234 126 1418
235 126 911
236 126 565
237 126 604
238 126 1748
239 126 424
240 126 1039
241 126 444
242 126 1504
243 126 1913
244 126 529
245 126 1117
246 126 1333
247 126 1828
248 126 354
249 126 485
250 126 560
251 126 1542
252 126 483
253 126 540
254 126 1417
255 126 421
256 126 1171
257 126 2485
258 126 1713
259 126 398
260 126 1035
261 126 1401
262 126 1061
263 126 1034
264 126 2460
265 126 2421
266 126 1006
267 126 910
268 126 1955
269 126 718
270 126 1020
271 126 1169
272 126 1457
273 126 617
274 126 2368
275 126 971
276 126 759
277 126 1362
278 126 997
279 126 1036
280 126 2643
281 126 1202
282 126 788
283 126 536
284 126 1070
285 126 2124
286 126 350
287 126 1984
288 126 2040
289 126 920
290 126 1023
291 126 375
292 126 1424
293 126 413
294 126 1619
295 126 902
296 126 1626
297 126 1537
298 126 773
299 126 1493
300 126 564
301 126 882
302 126 1474
303 126 789
304 126 880
305 126 1756
306 126 736
307 126 1035
308 126 1258
309 126 918
310 126 2141
311 126 1473
312 126 1119
313 126 595
314 126 1124
315 126 624
316 126 1251
317 126 1929
318 126 831
319 126 1006
320 126 1304
321 126 1594
322 126 890
323 126 1368
324 126 1033
325 126 879
326 126 2324
327 126 1819
328 126 1706
329 126 787
330 126 757
331 126 1494
332 126 1291
333 126 1053
334 126 836
335 126 763
336 126 1921
337 126 1518
338 126 725
339 126 1076
340 126 1278
341 126 686
342 126 1930
343 126 1978
344 126 1038
345 126 2475
346 126 2287
347 126 1362
348 126 462
349 126 1453
350 126 1314
351 126 964
352 126 1034
353 126 799
354 126 371
355 126 1152
356 126 1413
357 126 700
358 126 1349
359 126 364
360 126 1611
361 126 396
362 126 881
363 126 1000
364 126 622
365 126 1339
366 126 1426
367 126 1176
368 126 2153
369 126 1178
370 126 606
371 126 1203
372 126 1699
373 126 1214
374 126 546
375 126 1865
376 126 1101
377 126 784
378 126 980
379 126 1424
380 126 950
381 126 383
382 126 1439
383 126 1680
384 126 1728
385 126 542
386 126 1212
387 126 1138
388 126 974
389 126 1032
390 126 415
391 126 941
392 126 470
393 126 762
394 126 1461
395 126 712
396 126 671
397 126 878
398 126 926
399 126 1523
400 126 1404
401 126 1651
402 126 383
403 126 1360
404 126 1206
405 126 1572
406 126 446
407 126 653
408 126 209
409 126 392
410 126 860
411 126 1924
412 126 1035
413 126 1126
414 126 1586
415 126 1306
416 126 1963
417 126 812
418 126 955
419 126 1336
420 126 664
421 126 626
422 126 773
423 126 437
424 126 499
425 126 1191
426 126 2500
427 126 598
428 126 1155
429 126 1156
430 126 890
431 126 1710
432 126 1414
433 126 959
434 126 736
435 126 1386
436 126 712
437 126 1938
438 126 467
439 126 1105
440 126 1426
441 126 444
442 126 838
443 126 1404
444 126 2468
445 126 1522
446 126 968
447 126 952
448 126 431
449 126 1223
450 126 997
451 126 538
452 126 1703
453 126 1574
454 126 1106
455 126 1143
456 126 886
457 126 1441
458 126 1335
459 126 956
460 126 1091
461 126 529
462 126 1035
463 126 1887
464 126 1291
465 126 784
466 126 709
467 126 2148
468 126 682
469 126 1711
470 126 1077
471 126 1252
472 126 2362
473 126 1254
474 126 1330
475 126 673
476 126 2134
477 126 2340
478 126 552
479 126 1823
480 126 592
481 126 1430
482 126 1493
483 126 1686
484 126 403
485 126 517
486 126 1805
487 126 2228
488 126 1367
489 126 898
490 126 666
491 126 1074
492 126 1581
493 126 662
494 126 468
495 126 1120
496 126 1330
497 126 1078
498 126 511
499 126 1784
500 126 3332
1 127 671
2 127 404
3 127 1539
4 127 912
5 127 265
6 127 885
7 127 554
8 127 860
9 127 449
10 127 792
11 127 164
12 127 845
13 127 524
14 127 1008
15 127 867
16 127 555
17 127 852
18 127 528
19 127 1389
20 127 510
21 127 1062
22 127 415
23 127 586
24 127 513
25 127 437
26 127 572
27 127 642
28 127 1279
29 127 871
30 127 689
31 127 640
32 127 603
33 127 962
34 127 641
35 127 455
36 127 737
37 127 1109
38 127 1317
39 127 859
40 127 1870
41 127 642
42 127 875
43 127 1213
44 127 706
45 127 531
46 127 1378
47 127 446
48 127 604
49 127 762
50 127 905
51 127 509
52 127 532
53 127 838
54 127 356
55 127 447
56 127 342
57 127 837
58 127 455
59 127 676
60 127 503
61 127 949
62 127 795
63 127 1798
64 127 270
65 127 338
66 127 218
67 127 641
68 127 293
69 127 203
70 127 481
71 127 498
72 127 858
73 127 1573
74 127 543
75 127 695
76 127 1066
77 127 1357
78 127 654
79 127 275
80 127 405
81 127 326
82 127 494
83 127 701
84 127 590
85 127 1192
86 127 719
87 127 1384
88 127 161
89 127 1868
90 127 1353
91 127 498
92 127 1396
93 127 621
94 127 2560
95 127 228
96 127 687
97 127 639
98 127 373
99 127 623
100 127 663
101 127 1420
102 127 456
103 127 478
104 127 601
105 127 473
106 127 716
107 127 589
108 127 410
109 127 1386
110 127 1038
111 127 417
112 127 309
113 127 959
114 127 545
115 127 1054
116 127 1583
117 127 695
118 127 1239
119 127 216
120 127 368
121 127 557
122 127 1620
123 127 842
124 127 930
125 127 859
126 127 1008
127 127 1136
128 127 1707
129 127 1664
130 127 390
131 127 1357
132 127 1153
133 127 701
134 127 538
135 127 408
136 127 454
137 127 357
138 127 230
139 127 1034
140 127 658
141 127 274
142 127 862
143 127 750
144 127 941
145 127 1574
146 127 1405
147 127 593
148 127 522
149 127 306
150 127 861
151 127 991
152 127 482
153 127 634
154 127 693
155 127 1183
156 127 695
157 127 451
158 127 722
159 127 909
160 127 1339
161 127 748
162 127 1061
163 127 999
164 127 206
165 127 541
166 127 1085
167 127 424
168 127 206
169 127 514
170 127 558
171 127 354
172 127 520
173 127 1207
174 127 755
175 127 912
176 127 884
177 127 974
178 127 445
179 127 1414
180 127 725
181 127 1625
182 127 1452
183 127 493
184 127 171
185 127 720
186 127 837
187 127 331
188 127 606
189 127 1643
190 127 528
191 127 673
192 127 232
193 127 376
194 127 668
195 127 670
196 127 331
197 127 1060
198 127 193
199 127 1486
200 127 934
201 127 743
202 127 598
203 127 1838
204 127 450
205 127 300
206 127 889
207 127 212
208 127 377
209 127 451
210 127 1019
211 127 568
212 127 388
213 127 984
214 127 558
215 127 821
216 127 708
217 127 303
218 127 246
219 127 995
220 127 693
221 127 310
222 127 916
223 127 599
224 127 911
225 127 516
226 127 989
227 127 305
228 127 437
229 127 1228
230 127 512
231 127 816
232 127 739
233 127 268
234 127 513
235 127 1314
236 127 388
237 127 595
238 127 1132
239 127 642
240 127 950
241 127 869
242 127 1271
243 127 1479
244 127 440
245 127 1364
246 127 1996
247 127 806
248 127 195
249 127 925
250 127 780
251 127 810
252 127 450
253 127 699
254 127 328
255 127 359
256 127 481
257 127 1086
258 127 1517
259 127 724
260 127 476
261 127 518
262 127 942
263 127 2004
264 127 1130
265 127 1018
266 127 548
267 127 1160
268 127 1110
269 127 261
270 127 1654
271 127 958
272 127 701
273 127 789
274 127 663
275 127 530
276 127 1105
277 127 174
278 127 1586
279 127 435
280 127 202
281 127 1986
282 127 790
283 127 880
284 127 835
285 127 727
286 127 666
287 127 526
288 127 808
289 127 558
290 127 616
291 127 643
292 127 941
293 127 694
294 127 739
295 127 853
296 127 1857
297 127 942
298 127 704
299 127 1422
300 127 663
301 127 902
302 127 2478
303 127 551
304 127 229
305 127 880
306 127 272
307 127 938
308 127 632
309 127 1081
310 127 591
311 127 1245
312 127 453
313 127 651
314 127 531
315 127 330
316 127 539
317 127 781
318 127 636
319 127 699
320 127 286
321 127 943
322 127 830
323 127 663
324 127 332
325 127 1310
326 127 978
327 127 697
328 127 508
329 127 1331
330 127 370
331 127 1003
332 127 943
333 127 342
334 127 936
335 127 707
336 127 317
337 127 1233
338 127 1422
339 127 661
340 127 1338
341 127 670
342 127 495
343 127 601
344 127 459
345 127 706
346 127 181
347 127 671
348 127 374
349 127 925
350 127 504
351 127 331
352 127 459
353 127 340
354 127 764
355 127 1531
356 127 1806
357 127 1145
358 127 450
359 127 746
360 127 517
361 127 716
362 127 616
363 127 669
364 127 348
365 127 215
366 127 867
367 127 2192
368 127 1037
369 127 673
370 127 1146
371 127 369
372 127 548
373 127 578
374 127 680
375 127 733
376 127 530
377 127 211
378 127 1080
379 127 311
380 127 831
381 127 687
382 127 1230
383 127 933
384 127 1317
385 127 733
386 127 551
387 127 321
388 127 1371
389 127 1030
390 127 693
391 127 786
392 127 286
393 127 1618
394 127 667
395 127 1555
396 127 1036
397 127 937
398 127 632
399 127 368
400 127 962
401 127 553
402 127 698
403 127 1210
404 127 530
405 127 584
406 127 304
407 127 194
408 127 756
409 127 558
410 127 729
411 127 520
412 127 706
413 127 700
414 127 1040
415 127 786
416 127 957
417 127 1188
418 127 420
419 127 489
420 127 621
421 127 611
422 127 871
423 127 688
424 127 511
425 127 902
426 127 652
427 127 1304
428 127 710
429 127 511
430 127 696
431 127 1569
432 127 607
433 127 972
434 127 384
435 127 1065
436 127 418
437 127 1192
438 127 232
439 127 552
440 127 603
441 127 801
442 127 378
443 127 1109
444 127 712
445 127 522
446 127 520
447 127 515
448 127 904
449 127 714
450 127 490
451 127 607
452 127 973
453 127 652
454 127 1534
455 127 456
456 127 1161
457 127 1128
458 127 606
459 127 580
460 127 461
461 127 434
462 127 876
463 127 959
464 127 1423
465 127 210
466 127 221
467 127 865
468 127 573
469 127 595
470 127 185
471 127 487
472 127 681
473 127 892
474 127 1013
475 127 227
476 127 1144
477 127 688
478 127 701
479 127 1595
480 127 1194
481 127 730
482 127 2368
483 127 457
484 127 146
485 127 659
486 127 256
487 127 903
488 127 910
489 127 678
490 127 1371
491 127 435
492 127 1431
493 127 440
494 127 337
495 127 545
496 127 897
497 127 332
498 127 414
499 127 708
500 127 1639
1 128 459
2 128 225
3 128 339
4 128 108
5 128 473
6 128 259
7 128 326
8 128 115
9 128 210
10 128 1491
11 128 142
12 128 86
13 128 465
14 128 272
15 128 360
16 128 526
17 128 506
18 128 115
19 128 717
20 128 319
21 128 168
22 128 150
23 128 259
24 128 128
25 128 209
26 128 350
27 128 401
28 128 199
29 128 843
30 128 501
31 128 465
32 128 340
33 128 534
34 128 271
35 128 183
36 128 825
37 128 752
38 128 367
39 128 1062
40 128 375
41 128 1526
42 128 115
43 128 471
44 128 396
45 128 488
46 128 148
47 128 1010
48 128 209
49 128 363
50 128 232
51 128 636
52 128 453
53 128 481
54 128 196
55 128 639
56 128 433
57 128 585
58 128 74
59 128 569
60 128 366
61 128 326
62 128 395
63 128 795
64 128 204
65 128 242
66 128 380
67 128 188
68 128 178
69 128 592
70 128 974
71 128 189
72 128 390
73 128 929
74 128 167
75 128 537
76 128 164
77 128 250
78 128 134
79 128 643
80 128 69
81 128 250
82 128 540
83 128 390
84 128 258
85 128 754
86 128 330
87 128 232
88 128 1022
89 128 342
90 128 126
91 128 367
92 128 342
93 128 777
94 128 696
95 128 1014
96 128 909
97 128 312
98 128 223
99 128 342
100 128 461
101 128 790
102 128 261
103 128 190
104 128 92
105 128 182
106 128 540
107 128 175
108 128 215
109 128 450
110 128 587
111 128 148
112 128 53
113 128 267
114 128 81
115 128 584
116 128 917
117 128 280
118 128 1111
119 128 279
120 128 211
121 128 364
122 128 682
123 128 224
124 128 495
125 128 215
126 128 219
127 128 755
128 128 1053
129 128 630
130 128 175
131 128 557
132 128 319
133 128 814
134 128 312
135 128 171
136 128 269
137 128 315
138 128 1162
139 128 327
140 128 582
141 128 79
142 128 240
143 128 207
144 128 326
145 128 297
146 128 718
147 128 342
148 128 166
149 128 297
150 128 472
151 128 425
152 128 502
153 128 878
154 128 438
155 128 437
156 128 778
157 128 222
158 128 340
159 128 421
160 128 218
161 128 308
162 128 486
163 128 637
164 128 86
165 128 170
166 128 507
167 128 112
168 128 158
169 128 489
170 128 311
171 128 189
172 128 285
173 128 759
174 128 769
175 128 406
176 128 372
177 128 476
178 128 274
179 128 515
180 128 425
181 128 670
182 128 191
183 128 476
184 128 201
185 128 161
186 128 412
187 128 298
188 128 175
189 128 689
190 128 219
191 128 956
192 128 349
193 128 294
194 128 812
195 128 148
196 128 282
197 128 154
198 128 219
199 128 214
200 128 317
201 128 563
202 128 561
203 128 547
204 128 552
205 128 386
206 128 117
207 128 1664
208 128 306
209 128 137
210 128 447
211 128 615
212 128 426
213 128 107
214 128 295
215 128 240
216 128 726
217 128 474
218 128 497
219 128 522
220 128 429
221 128 61
222 128 369
223 128 340
224 128 186
225 128 128
226 128 185
227 128 299
228 128 194
229 128 133
230 128 152
231 128 109
232 128 253
233 128 151
234 128 186
235 128 389
236 128 289
237 128 403
238 128 136
239 128 335
240 128 309
241 128 255
242 128 303
243 128 275
244 128 72
245 128 228
246 128 1300
247 128 79
248 128 311
249 128 496
250 128 93
251 128 95
252 128 223
253 128 557
254 128 173
255 128 605
256 128 379
257 128 672
258 128 157
259 128 136
260 128 394
261 128 160
262 128 208
263 128 1157
264 128 641
265 128 182
266 128 322
267 128 476
268 128 247
269 128 80
270 128 809
271 128 547
272 128 230
273 128 132
274 128 301
275 128 312
276 128 395
277 128 54
278 128 236
279 128 155
280 128 214
281 128 162
282 128 230
283 128 373
284 128 342
285 128 988
286 128 449
287 128 424
288 128 78
289 128 327
290 128 510
291 128 211
292 128 251
293 128 357
294 128 512
295 128 303
296 128 392
297 128 176
298 128 434
299 128 604
300 128 385
301 128 228
302 128 857
303 128 622
304 128 218
305 128 359
306 128 84
307 128 372
308 128 158
309 128 538
310 128 460
311 128 323
312 128 1108
313 128 449
314 128 559
315 128 62
316 128 1220
317 128 380
318 128 133
319 128 739
320 128 1003
321 128 163
322 128 405
323 128 485
324 128 180
325 128 722
326 128 298
327 128 124
328 128 208
329 128 270
330 128 502
331 128 883
332 128 178
333 128 289
334 128 384
335 128 123
336 128 283
337 128 495
338 128 733
339 128 403
340 128 381
341 128 524
342 128 246
343 128 202
344 128 141
345 128 320
346 128 280
347 128 401
348 128 236
349 128 680
350 128 118
351 128 196
352 128 437
353 128 331
354 128 157
355 128 661
356 128 348
357 128 409
358 128 372
359 128 1167
360 128 262
361 128 139
362 128 290
363 128 318
364 128 194
365 128 1110
366 128 181
367 128 606
368 128 801
369 128 162
370 128 153
371 128 313
372 128 278
373 128 1218
374 128 520
375 128 222
376 128 326
377 128 375
378 128 305
379 128 149
380 128 378
381 128 158
382 128 413
383 128 632
384 128 414
385 128 784
386 128 185
387 128 267
388 128 391
389 128 183
390 128 325
391 128 159
392 128 446
393 128 826
394 128 505
395 128 369
396 128 457
397 128 859
398 128 198
399 128 213
400 128 150
401 128 409
402 128 1146
403 128 294
404 128 229
405 128 395
406 128 89
407 128 236
408 128 159
409 128 178
410 128 198
411 128 238
412 128 391
413 128 232
414 128 108
415 128 245
416 128 500
417 128 531
418 128 612
419 128 760
420 128 258
421 128 268
422 128 448
423 128 345
424 128 165
425 128 634
426 128 889
427 128 197
428 128 176
429 128 584
430 128 764
431 128 213
432 128 390
433 128 350
434 128 161
435 128 145
436 128 128
437 128 240
438 128 470
439 128 94
440 128 1265
441 128 276
442 128 645
443 128 259
444 128 976
445 128 254
446 128 318
447 128 251
448 128 271
449 128 406
450 128 414
451 128 405
452 128 665
453 128 342
454 128 474
455 128 181
456 128 108
457 128 78
458 128 99
459 128 289
460 128 160
461 128 338
462 128 322
463 128 87
464 128 214
465 128 374
466 128 426
467 128 367
468 128 215
469 128 288
470 128 279
471 128 587
472 128 346
473 128 396
474 128 594
475 128 362
476 128 60
477 128 368
478 128 774
479 128 280
480 128 503
481 128 1346
482 128 910
483 128 398
484 128 136
485 128 766
486 128 138
487 128 714
488 128 402
489 128 692
490 128 101
491 128 94
492 128 682
493 128 76
494 128 198
495 128 339
496 128 377
497 128 263
498 128 436
499 128 824
500 128 774
1 129 583
2 129 1462
3 129 1243
4 129 1157
5 129 1108
6 129 1046
7 129 1326
8 129 616
9 129 1229
10 129 1039
11 129 1479
12 129 2158
13 129 879
14 129 1099
15 129 725
16 129 1675
17 129 1400
18 129 1019
19 129 746
20 129 506
21 129 1642
22 129 762
23 129 975
24 129 1323
25 129 721
26 129 1301
27 129 1746
28 129 1221
29 129 877
30 129 852
31 129 978
32 129 760
33 129 1121
34 129 1148
35 129 636
36 129 1467
37 129 1344
38 129 1726
39 129 1203
40 129 2137
41 129 1096
42 129 1861
43 129 221
44 129 923
45 129 1344
46 129 1003
47 129 3971
48 129 1146
49 129 679
50 129 842
51 129 788
52 129 1889
53 129 1495
54 129 589
55 129 709
56 129 1132
57 129 733
58 129 514
59 129 836
60 129 1786
61 129 1510
62 129 745
63 129 550
64 129 745
65 129 1568
66 129 975
67 129 2242
68 129 1204
69 129 518
70 129 951
71 129 681
72 129 1163
73 129 1693
74 129 1567
75 129 866
76 129 1262
77 129 1916
78 129 1682
79 129 2525
80 129 485
81 129 1870
82 129 638
83 129 1465
84 129 2150
85 129 1535
86 129 1517
87 129 1362
88 129 930
89 129 2145
90 129 1507
91 129 1582
92 129 325
93 129 915
94 129 936
95 129 652
96 129 974
97 129 2518
98 129 1533
99 129 329
100 129 945
101 129 1143
102 129 1093
103 129 542
104 129 547
105 129 1436
106 129 880
107 129 917
108 129 1616
109 129 216
110 129 978
111 129 1094
112 129 1010
113 129 364
114 129 152
115 129 731
116 129 1485
117 129 1232
118 129 1477
119 129 502
120 129 588
121 129 1452
122 129 1244
123 129 528
124 129 905
125 129 1089
126 129 632
127 129 1304
128 129 1836
129 129 1568
130 129 1062
131 129 1354
132 129 1069
133 129 1339
134 129 1424
135 129 309
136 129 803
137 129 513
138 129 715
139 129 2210
140 129 747
141 129 1273
142 129 1601
143 129 458
144 129 701
145 129 2089
146 129 704
147 129 2100
148 129 1532
149 129 1761
150 129 1020
151 129 1666
152 129 1479
153 129 1719
154 129 764
155 129 1102
156 129 1727
157 129 1248
158 129 1127
159 129 1160
160 129 1235
161 129 1531
162 129 1684
163 129 803
164 129 404
165 129 1369
166 129 1004
167 129 845
168 129 853
169 129 1621
170 129 1355
171 129 625
172 129 593
173 129 887
174 129 622
175 129 1194
176 129 228
177 129 946
178 129 1180
179 129 1370
180 129 1229
181 129 1218
182 129 1562
183 129 625
184 129 903
185 129 717
186 129 651
187 129 1821
188 129 1503
189 129 1802
190 129 900
191 129 1935
192 129 685
193 129 572
194 129 470
195 129 1368
196 129 1019
197 129 1339
198 129 882
199 129 1116
200 129 802
201 129 746
202 129 669
203 129 1168
204 129 864
205 129 392
206 129 1516
207 129 331
208 129 539
209 129 1090
210 129 2332
211 129 1867
212 129 2018
213 129 1879
214 129 1896
215 129 1673
216 129 1535
217 129 1659
218 129 1023
219 129 785
220 129 1546
221 129 299
222 129 1263
223 129 686
224 129 1236
225 129 994
226 129 318
227 129 832
228 129 319
229 129 1821
230 129 723
231 129 2125
232 129 1482
233 129 631
234 129 1462
235 129 1561
236 129 643
237 129 1064
238 129 535
239 129 1641
240 129 2196
241 129 1322
242 129 1269
243 129 1666
244 129 955
245 129 1751
246 129 1712
247 129 1856
248 129 495
249 129 750
250 129 1082
251 129 569
252 129 1448
253 129 862
254 129 1429
255 129 768
256 129 2471
257 129 2678
258 129 1278
259 129 717
260 129 1065
261 129 1788
262 129 819
263 129 1271
264 129 2682
265 129 263
266 129 549
267 129 1067
268 129 1796
269 129 1204
270 129 576
271 129 1418
272 129 1080
273 129 949
274 129 1535
275 129 1237
276 129 1088
277 129 491
278 129 1516
279 129 1062
280 129 1485
281 129 1054
282 129 501
283 129 424
284 129 1154
285 129 1152
286 129 849
287 129 1915
288 129 1238
289 129 1268
290 129 748
291 129 1474
292 129 2383
293 129 1578
294 129 626
295 129 1361
296 129 750
297 129 989
298 129 2589
299 129 1536
300 129 524
301 129 874
302 129 2016
303 129 394
304 129 1685
305 129 1803
306 129 876
307 129 689
308 129 1206
309 129 882
310 129 1241
311 129 1295
312 129 4099
313 129 605
314 129 721
315 129 324
316 129 1924
317 129 1753
318 129 1772
319 129 1824
320 129 415
321 129 988
322 129 857
323 129 910
324 129 1140
325 129 1952
326 129 1267
327 129 197
328 129 775
329 129 987
330 129 1224
331 129 954
332 129 1198
333 129 677
334 129 569
335 129 1002
336 129 879
337 129 1609
338 129 1172
339 129 933
340 129 1026
341 129 832
342 129 814
343 129 1674
344 129 1081
345 129 1510
346 129 2182
347 129 932
348 129 1474
349 129 1042
350 129 1046
351 129 620
352 129 1108
353 129 1042
354 129 702
355 129 1566
356 129 2172
357 129 2845
358 129 966
359 129 931
360 129 1561
361 129 747
362 129 1061
363 129 620
364 129 2339
365 129 700
366 129 1346
367 129 1762
368 129 1151
369 129 716
370 129 392
371 129 951
372 129 1551
373 129 1891
374 129 873
375 129 329
376 129 944
377 129 2508
378 129 1492
379 129 716
380 129 995
381 129 733
382 129 568
383 129 740
384 129 1372
385 129 1241
386 129 1589
387 129 523
388 129 1058
389 129 849
390 129 1748
391 129 972
392 129 1206
393 129 1453
394 129 941
395 129 1345
396 129 367
397 129 1393
398 129 1056
399 129 1075
400 129 2139
401 129 438
402 129 832
403 129 1581
404 129 603
405 129 1545
406 129 509
407 129 840
408 129 498
409 129 535
410 129 988
411 129 778
412 129 1524
413 129 1545
414 129 758
415 129 1635
416 129 2437
417 129 1826
418 129 1006
419 129 751
420 129 1184
421 129 607
422 129 889
423 129 1608
424 129 677
425 129 810
426 129 934
427 129 1262
428 129 675
429 129 731
430 129 919
431 129 1625
432 129 948
433 129 1585
434 129 575
435 129 851
436 129 647
437 129 1870
438 129 324
439 129 156
440 129 1185
441 129 1622
442 129 1561
443 129 1443
444 129 990
445 129 776
446 129 1317
447 129 1114
448 129 1285
449 129 861
450 129 1223
451 129 579
452 129 2084
453 129 652
454 129 2110
455 129 1277
456 129 852
457 129 2237
458 129 600
459 129 1380
460 129 1070
461 129 913
462 129 1191
463 129 634
464 129 794
465 129 2556
466 129 2674
467 129 1261
468 129 735
469 129 1741
470 129 266
471 129 642
472 129 1536
473 129 1243
474 129 1364
475 129 918
476 129 952
477 129 1459
478 129 440
479 129 857
480 129 931
481 129 1326
482 129 2115
483 129 1632
484 129 763
485 129 463
486 129 1988
487 129 1709
488 129 1209
489 129 1583
490 129 1211
491 129 498
492 129 1145
493 129 235
494 129 987
495 129 615
496 129 1193
497 129 670
498 129 1409
499 129 1972
500 129 763
1 130 701
2 130 548
3 130 215
4 130 413
5 130 232
6 130 1034
7 130 460
8 130 461
9 130 218
10 130 310
11 130 847
12 130 1031
13 130 504
14 130 962
15 130 197
16 130 440
17 130 240
18 130 224
19 130 967
20 130 328
21 130 644
22 130 827
23 130 349
24 130 294
25 130 150
26 130 444
27 130 560
28 130 526
29 130 962
30 130 205
31 130 334
32 130 228
33 130 816
34 130 804
35 130 316
36 130 132
37 130 676
38 130 206
39 130 425
40 130 816
41 130 298
42 130 604
43 130 895
44 130 580
45 130 683
46 130 843
47 130 418
48 130 1060
49 130 122
50 130 240
51 130 167
52 130 476
53 130 267
54 130 759
55 130 1226
56 130 849
57 130 654
58 130 161
59 130 220
60 130 65
61 130 483
62 130 460
63 130 725
64 130 278
65 130 676
66 130 432
67 130 787
68 130 174
69 130 433
70 130 500
71 130 754
72 130 447
73 130 250
74 130 541
75 130 203
76 130 412
77 130 641
78 130 539
79 130 626
80 130 315
81 130 575
82 130 155
83 130 958
84 130 336
85 130 559
86 130 317
87 130 1421
88 130 400
89 130 480
90 130 374
91 130 749
92 130 340
93 130 274
94 130 828
95 130 313
96 130 708
97 130 1197
98 130 637
99 130 477
100 130 303
101 130 597
102 130 442
103 130 451
104 130 467
105 130 1282
106 130 214
107 130 450
108 130 292
109 130 384
110 130 309
111 130 306
112 130 465
113 130 339
114 130 167
115 130 680
116 130 484
117 130 263
118 130 1370
119 130 269
120 130 362
121 130 609
122 130 1052
123 130 80
124 130 526
125 130 784
126 130 997
127 130 755
128 130 282
129 130 335
130 130 320
131 130 330
132 130 463
133 130 568
134 130 606
135 130 205
136 130 378
137 130 256
138 130 199
139 130 1091
140 130 927
141 130 955
142 130 1095
143 130 389
144 130 601
145 130 997
146 130 972
147 130 1108
148 130 499
149 130 793
150 130 377
151 130 598
152 130 245
153 130 439
154 130 437
155 130 847
156 130 654
157 130 486
158 130 964
159 130 469
160 130 374
161 130 305
162 130 915
163 130 277
164 130 193
165 130 572
166 130 306
167 130 139
168 130 266
169 130 459
170 130 598
171 130 723
172 130 516
173 130 1121
174 130 1579
175 130 453
176 130 255
177 130 725
178 130 772
179 130 345
180 130 206
181 130 447
182 130 714
183 130 378
184 130 559
185 130 225
186 130 243
187 130 632
188 130 197
189 130 1104
190 130 651
191 130 980
192 130 52
193 130 273
194 130 206
195 130 300
196 130 740
197 130 515
198 130 488
199 130 1117
200 130 270
201 130 360
202 130 759
203 130 911
204 130 243
205 130 761
206 130 1185
207 130 356
208 130 281
209 130 276
210 130 1043
211 130 762
212 130 149
213 130 833
214 130 1190
215 130 1110
216 130 184
217 130 220
218 130 277
219 130 272
220 130 967
221 130 320
222 130 509
223 130 288
224 130 1027
225 130 195
226 130 208
227 130 225
228 130 202
229 130 194
230 130 235
231 130 1033
232 130 242
233 130 533
234 130 217
235 130 188
236 130 91
237 130 361
238 130 965
239 130 404
240 130 661
241 130 315
242 130 230
243 130 791
244 130 207
245 130 666
246 130 782
247 130 694
248 130 617
249 130 257
250 130 936
251 130 241
252 130 668
253 130 207
254 130 93
255 130 726
256 130 176
257 130 306
258 130 710
259 130 225
260 130 1015
261 130 999
262 130 253
263 130 633
264 130 291
265 130 192
266 130 504
267 130 275
268 130 929
269 130 996
270 130 262
271 130 499
272 130 548
273 130 329
274 130 345
275 130 403
276 130 526
277 130 501
278 130 1356
279 130 313
280 130 985
281 130 1143
282 130 554
283 130 204
284 130 741
285 130 741
286 130 944
287 130 439
288 130 942
289 130 460
290 130 435
291 130 440
292 130 741
293 130 381
294 130 170
295 130 1035
296 130 623
297 130 1126
298 130 184
299 130 798
300 130 246
301 130 742
302 130 996
303 130 305
304 130 226
305 130 766
306 130 392
307 130 564
308 130 430
309 130 356
310 130 473
311 130 219
312 130 495
313 130 297
314 130 315
315 130 305
316 130 1271
317 130 1087
318 130 562
319 130 666
320 130 558
321 130 1168
322 130 1049
323 130 264
324 130 181
325 130 893
326 130 199
327 130 416
328 130 356
329 130 405
330 130 589
331 130 665
332 130 954
333 130 562
334 130 927
335 130 366
336 130 216
337 130 518
338 130 353
339 130 524
340 130 907
341 130 292
342 130 378
343 130 383
344 130 312
345 130 289
346 130 921
347 130 776
348 130 527
349 130 466
350 130 197
351 130 736
352 130 927
353 130 366
354 130 200
355 130 272
356 130 797
357 130 1011
358 130 463
359 130 245
360 130 1321
361 130 220
362 130 861
363 130 105
364 130 895
365 130 225
366 130 479
367 130 508
368 130 798
369 130 308
370 130 263
371 130 1060
372 130 1240
373 130 1276
374 130 194
375 130 581
376 130 295
377 130 990
378 130 460
379 130 257
380 130 519
381 130 225
382 130 1320
383 130 547
384 130 1161
385 130 613
386 130 229
387 130 527
388 130 1078
389 130 541
390 130 410
391 130 972
392 130 147
393 130 433
394 130 291
395 130 225
396 130 901
397 130 301
398 130 262
399 130 967
400 130 858
401 130 401
402 130 240
403 130 1077
404 130 347
405 130 474
406 130 271
407 130 527
408 130 516
409 130 456
410 130 457
411 130 362
412 130 926
413 130 860
414 130 455
415 130 548
416 130 1118
417 130 456
418 130 917
419 130 450
420 130 665
421 130 252
422 130 311
423 130 402
424 130 299
425 130 496
426 130 806
427 130 1342
428 130 296
429 130 308
430 130 299
431 130 811
432 130 810
433 130 448
434 130 525
435 130 350
436 130 564
437 130 994
438 130 379
439 130 143
440 130 713
441 130 1128
442 130 746
443 130 565
444 130 839
445 130 378
446 130 439
447 130 718
448 130 300
449 130 241
450 130 967
451 130 219
452 130 394
453 130 338
454 130 840
455 130 629
456 130 424
457 130 256
458 130 94
459 130 492
460 130 315
461 130 433
462 130 708
463 130 484
464 130 247
465 130 1003
466 130 1050
467 130 1038
468 130 593
469 130 849
470 130 327
471 130 308
472 130 329
473 130 468
474 130 953
475 130 462
476 130 737
477 130 337
478 130 210
479 130 302
480 130 221
481 130 601
482 130 1073
483 130 367
484 130 168
485 130 213
486 130 164
487 130 400
488 130 483
489 130 303
490 130 101
491 130 157
492 130 258
493 130 631
494 130 1241
495 130 221
496 130 495
497 130 529
498 130 841
499 130 145
500 130 230
1 131 800
2 131 767
3 131 1839
4 131 544
5 131 1295
6 131 1268
7 131 1115
8 131 1616
9 131 880
10 131 936
11 131 1774
12 131 1413
13 131 1354
14 131 1336
15 131 1931
16 131 1544
17 131 1507
18 131 1302
19 131 2378
20 131 846
21 131 2978
22 131 1717
23 131 1360
24 131 1371
25 131 633
26 131 1075
27 131 1529
28 131 1450
29 131 1351
30 131 2051
31 131 1304
32 131 579
33 131 1574
34 131 1788
35 131 657
36 131 1709
37 131 876
38 131 1156
39 131 1389
40 131 1162
41 131 4081
42 131 1181
43 131 1193
44 131 590
45 131 1542
46 131 3205
47 131 1282
48 131 1061
49 131 801
50 131 1346
51 131 2023
52 131 2067
53 131 3504
54 131 1324
55 131 1331
56 131 1556
57 131 2350
58 131 1535
59 131 1904
60 131 2486
61 131 726
62 131 997
63 131 2738
64 131 478
65 131 1509
66 131 1404
67 131 2646
68 131 1022
69 131 696
70 131 1416
71 131 495
72 131 1016
73 131 1873
74 131 784
75 131 1951
76 131 1587
77 131 1120
78 131 1781
79 131 2523
80 131 695
81 131 780
82 131 1504
83 131 1325
84 131 2474
85 131 2625
86 131 1693
87 131 2273
88 131 1555
89 131 1548
90 131 1009
91 131 1000
92 131 1456
93 131 1016
94 131 3460
95 131 1420
96 131 4113
97 131 1431
98 131 1467
99 131 1534
100 131 1262
101 131 360
102 131 2447
103 131 1028
104 131 1835
105 131 2603
106 131 1894
107 131 320
108 131 1560
109 131 1118
110 131 2262
111 131 1350
112 131 682
113 131 322
114 131 1783
115 131 2239
116 131 1169
117 131 1551
118 131 1430
119 131 460
120 131 355
121 131 2302
122 131 2511
123 131 1400
124 131 2935
125 131 2914
126 131 1863
127 131 2394
128 131 3164
129 131 1569
130 131 1422
131 131 1494
132 131 1404
133 131 2231
134 131 1776
135 131 896
136 131 1162
137 131 882
138 131 1289
139 131 2577
140 131 1452
141 131 1219
142 131 1095
143 131 3671
144 131 1476
145 131 2873
146 131 2427
147 131 1361
148 131 793
149 131 392
150 131 1728
151 131 783
152 131 696
153 131 2266
154 131 890
155 131 3480
156 131 2085
157 131 930
158 131 2574
159 131 1034
160 131 2050
161 131 1690
162 131 1833
163 131 1584
164 131 1301
165 131 2639
166 131 1612
167 131 769
168 131 1593
169 131 1554
170 131 1764
171 131 1336
172 131 496
173 131 2586
174 131 2351
175 131 1017
176 131 1742
177 131 1678
178 131 804
179 131 1514
180 131 1198
181 131 2081
182 131 584
183 131 855
184 131 469
185 131 2342
186 131 1866
187 131 805
188 131 1348
189 131 897
190 131 2150
191 131 2044
192 131 1145
193 131 857
194 131 1457
195 131 1130
196 131 1445
197 131 1268
198 131 1232
199 131 951
200 131 1109
201 131 943
202 131 1855
203 131 2044
204 131 1766
205 131 4294
206 131 1657
207 131 2573
208 131 864
209 131 1362
210 131 1460
211 131 2827
212 131 1577
213 131 937
214 131 1837
215 131 1187
216 131 948
217 131 2259
218 131 1998
219 131 817
220 131 1293
221 131 659
222 131 989
223 131 533
224 131 2277
225 131 1289
226 131 1776
227 131 1090
228 131 973
229 131 1355
230 131 1287
231 131 1425
232 131 2211
233 131 3276
234 131 1638
235 131 1137
236 131 1004
237 131 1184
238 131 2458
239 131 1332
240 131 1663
241 131 1968
242 131 1179
243 131 1613
244 131 625
245 131 1095
246 131 2790
247 131 1948
248 131 1586
249 131 819
250 131 1849
251 131 2844
252 131 853
253 131 1864
254 131 2744
255 131 2662
256 131 1023
257 131 1904
258 131 1164
259 131 2320
260 131 1147
261 131 1623
262 131 1294
263 131 1628
264 131 1874
265 131 1799
266 131 540
267 131 1565
268 131 2372
269 131 1222
270 131 1620
271 131 1956
272 131 1238
273 131 1405
274 131 1699
275 131 1112
276 131 702
277 131 1067
278 131 1777
279 131 1361
280 131 1093
281 131 1930
282 131 1117
283 131 1007
284 131 2647
285 131 1636
286 131 814
287 131 2157
288 131 1405
289 131 1095
290 131 2530
291 131 1546
292 131 1721
293 131 1374
294 131 906
295 131 1544
296 131 2049
297 131 1580
298 131 1680
299 131 1712
300 131 1243
301 131 1542
302 131 1472
303 131 869
304 131 1799
305 131 1625
306 131 988
307 131 1540
308 131 803
309 131 1456
310 131 1876
311 131 1250
312 131 1292
313 131 1752
314 131 1591
315 131 616
316 131 2796
317 131 1240
318 131 1703
319 131 2116
320 131 1500
321 131 1622
322 131 851
323 131 1301
324 131 1170
325 131 1068
326 131 3628
327 131 989
328 131 1292
329 131 748
330 131 1547
331 131 1141
332 131 2324
333 131 546
334 131 1970
335 131 924
336 131 1043
337 131 1380
338 131 922
339 131 609
340 131 1203
341 131 866
342 131 1277
343 131 1299
344 131 1378
345 131 1763
346 131 1044
347 131 1174
348 131 779
349 131 1387
350 131 1318
351 131 1328
352 131 1129
353 131 1231
354 131 2226
355 131 890
356 131 1146
357 131 2399
358 131 1831
359 131 2297
360 131 980
361 131 2266
362 131 931
363 131 888
364 131 2633
365 131 1395
366 131 882
367 131 2686
368 131 1268
369 131 1355
370 131 1639
371 131 1183
372 131 1007
373 131 2751
374 131 1996
375 131 2141
376 131 1349
377 131 2061
378 131 1295
379 131 1018
380 131 1889
381 131 2302
382 131 1107
383 131 1640
384 131 1115
385 131 1999
386 131 2488
387 131 999
388 131 874
389 131 1500
390 131 1392
391 131 2589
392 131 1374
393 131 1330
394 131 1249
395 131 1868
396 131 1155
397 131 1470
398 131 1482
399 131 1472
400 131 3118
401 131 1832
402 131 2208
403 131 1758
404 131 2037
405 131 2362
406 131 1112
407 131 1190
408 131 678
409 131 1074
410 131 1411
411 131 1183
412 131 1301
413 131 1018
414 131 2587
415 131 1398
416 131 1449
417 131 2095
418 131 1714
419 131 1238
420 131 1756
421 131 799
422 131 1088
423 131 1444
424 131 862
425 131 764
426 131 4369
427 131 1534
428 131 1294
429 131 1619
430 131 1021
431 131 2596
432 131 1156
433 131 729
434 131 1140
435 131 1147
436 131 1084
437 131 2382
438 131 686
439 131 1783
440 131 2289
441 131 1150
442 131 1147
443 131 750
444 131 4279
445 131 1264
446 131 1138
447 131 800
448 131 1975
449 131 1369
450 131 1154
451 131 1195
452 131 1218
453 131 1504
454 131 2660
455 131 792
456 131 1390
457 131 2528
458 131 560
459 131 1175
460 131 1385
461 131 642
462 131 2559
463 131 1727
464 131 2047
465 131 2160
466 131 2204
467 131 2307
468 131 417
469 131 2501
470 131 1258
471 131 1277
472 131 1778
473 131 1038
474 131 1767
475 131 1420
476 131 1600
477 131 1733
478 131 1466
479 131 3099
480 131 1833
481 131 2076
482 131 1412
483 131 2234
484 131 859
485 131 1488
486 131 976
487 131 1573
488 131 1020
489 131 1065
490 131 1361
491 131 1561
492 131 839
493 131 640
494 131 2285
495 131 1025
496 131 979
497 131 543
498 131 2279
499 131 1727
500 131 1777
7 132 4
8 132 4
9 132 3
11 132 3
12 132 5
17 132 7
18 132 3
20 132 3
22 132 2
26 132 5
33 132 5
39 132 5
40 132 5
41 132 4
43 132 5
55 132 12
56 132 6
60 132 2
61 132 14
64 132 2
65 132 3
68 132 7
69 132 10
71 132 2
72 132 5
74 132 2
79 132 6
80 132 1
81 132 2
86 132 3
87 132 7
92 132 4
93 132 4
94 132 5
98 132 2
99 132 3
104 132 4
108 132 4
113 132 4
114 132 11
116 132 1
118 132 2
120 132 3
123 132 8
125 132 5
129 132 8
134 132 6
136 132 12
139 132 2
142 132 6
144 132 13
147 132 7
148 132 4
149 132 3
150 132 6
151 132 3
152 132 4
153 132 4
154 132 6
155 132 4
159 132 5
161 132 7
163 132 3
164 132 3
168 132 3
169 132 2
170 132 11
173 132 1
175 132 7
176 132 7
178 132 6
182 132 5
185 132 4
187 132 5
188 132 6
198 132 5
199 132 5
202 132 6
205 132 1
206 132 3
207 132 8
210 132 4
215 132 5
217 132 2
219 132 2
222 132 8
225 132 3
226 132 13
227 132 4
229 132 4
231 132 3
234 132 3
237 132 2
240 132 6
246 132 3
247 132 6
248 132 5
249 132 1
252 132 2
254 132 8
256 132 6
259 132 8
265 132 3
272 132 4
273 132 13
274 132 11
275 132 5
280 132 4
281 132 7
283 132 2
284 132 4
286 132 3
289 132 5
290 132 6
291 132 4
296 132 3
297 132 3
299 132 2
305 132 4
307 132 10
309 132 6
317 132 4
320 132 2
321 132 5
324 132 4
327 132 4
328 132 12
329 132 14
336 132 3
337 132 3
339 132 8
342 132 8
345 132 3
346 132 10
350 132 4
354 132 5
355 132 7
356 132 6
357 132 4
361 132 1
362 132 5
363 132 3
366 132 2
368 132 3
370 132 1
376 132 3
377 132 1
380 132 5
381 132 4
386 132 9
388 132 8
391 132 1
393 132 3
398 132 3
399 132 7
401 132 8
404 132 4
406 132 8
407 132 4
408 132 4
411 132 7
415 132 4
416 132 3
418 132 1
421 132 3
424 132 7
425 132 3
427 132 3
430 132 1
433 132 11
435 132 3
438 132 1
439 132 10
441 132 4
443 132 1
446 132 4
452 132 5
457 132 6
459 132 3
461 132 3
462 132 3
463 132 3
464 132 2
465 132 4
466 132 4
467 132 9
468 132 5
469 132 11
470 132 3
471 132 3
472 132 4
473 132 6
474 132 4
476 132 8
477 132 4
487 132 2
488 132 5
494 132 5
495 132 2
496 132 2
500 132 9
1 133 271
2 133 400
3 133 801
4 133 514
5 133 565
6 133 1928
7 133 1042
8 133 1199
9 133 981
10 133 227
11 133 1097
12 133 838
13 133 311
14 133 886
15 133 1429
16 133 1365
17 133 690
18 133 963
19 133 1776
20 133 509
21 133 1525
22 133 718
23 133 1165
24 133 1625
25 133 542
26 133 1085
27 133 1384
28 133 1349
29 133 968
30 133 785
31 133 1495
32 133 718
33 133 616
34 133 769
35 133 530
36 133 790
37 133 1293
38 133 746
39 133 757
40 133 1288
41 133 968
42 133 872
43 133 546
44 133 1019
45 133 985
46 133 563
47 133 149
48 133 317
49 133 1474
50 133 612
51 133 1068
52 133 201
53 133 756
54 133 316
55 133 560
56 133 280
57 133 559
58 133 333
59 133 781
60 133 899
61 133 405
62 133 1000
63 133 896
64 133 368
65 133 725
66 133 1079
67 133 608
68 133 1346
69 133 385
70 133 550
71 133 578
72 133 1222
73 133 1201
74 133 526
75 133 722
76 133 437
77 133 632
78 133 347
79 133 479
80 133 289
81 133 259
82 133 943
83 133 1519
84 133 731
85 133 468
86 133 693
87 133 1111
88 133 1153
89 133 858
90 133 475
91 133 934
92 133 633
93 133 693
94 133 1334
95 133 635
96 133 1054
97 133 1463
98 133 733
99 133 1022
100 133 1533
101 133 439
102 133 220
103 133 409
104 133 660
105 133 659
106 133 789
107 133 287
108 133 295
109 133 854
110 133 508
111 133 593
112 133 524
113 133 548
114 133 430
115 133 710
116 133 1464
117 133 484
118 133 400
119 133 144
120 133 123
121 133 972
122 133 721
123 133 524
124 133 489
125 133 880
126 133 783
127 133 1374
128 133 701
129 133 875
130 133 584
131 133 707
132 133 345
133 133 288
134 133 394
135 133 299
136 133 1074
137 133 689
138 133 1274
139 133 257
140 133 520
141 133 1284
142 133 749
143 133 748
144 133 1051
145 133 1573
146 133 1825
147 133 1208
148 133 571
149 133 749
150 133 462
151 133 434
152 133 1077
153 133 622
154 133 848
155 133 217
156 133 912
157 133 276
158 133 970
159 133 1288
160 133 805
161 133 692
162 133 867
163 133 469
164 133 604
165 133 618
166 133 956
167 133 297
168 133 770
169 133 1346
170 133 376
171 133 317
172 133 829
173 133 1819
174 133 2076
175 133 1190
176 133 1455
177 133 550
178 133 301
179 133 729
180 133 77
181 133 1119
182 133 649
183 133 320
184 133 481
185 133 214
186 133 320
187 133 293
188 133 1061
189 133 487
190 133 1166
191 133 810
192 133 362
193 133 656
194 133 1256
195 133 469
196 133 756
197 133 99
198 133 400
199 133 839
200 133 482
201 133 646
202 133 862
203 133 309
204 133 628
205 133 1289
206 133 641
207 133 712
208 133 668
209 133 570
210 133 1467
211 133 299
212 133 621
213 133 825
214 133 515
215 133 736
216 133 578
217 133 1055
218 133 1147
219 133 763
220 133 1442
221 133 207
222 133 1240
223 133 767
224 133 727
225 133 998
226 133 666
227 133 449
228 133 292
229 133 375
230 133 617
231 133 873
232 133 835
233 133 438
234 133 1225
235 133 717
236 133 337
237 133 890
238 133 954
239 133 759
240 133 362
241 133 655
242 133 572
243 133 1603
244 133 587
245 133 635
246 133 687
247 133 420
248 133 459
249 133 775
250 133 368
251 133 936
252 133 259
253 133 798
254 133 111
255 133 1048
256 133 377
257 133 1334
258 133 1356
259 133 207
260 133 337
261 133 446
262 133 618
263 133 1397
264 133 1232
265 133 651
266 133 836
267 133 976
268 133 546
269 133 1293
270 133 900
271 133 497
272 133 575
273 133 1389
274 133 688
275 133 1039
276 133 1469
277 133 570
278 133 475
279 133 587
280 133 430
281 133 442
282 133 749
283 133 165
284 133 149
285 133 315
286 133 806
287 133 219
288 133 1183
289 133 1045
290 133 590
291 133 519
292 133 744
293 133 781
294 133 1245
295 133 1145
296 133 1190
297 133 234
298 133 690
299 133 582
300 133 1388
301 133 1070
302 133 1620
303 133 441
304 133 400
305 133 933
306 133 791
307 133 1028
308 133 306
309 133 594
310 133 1545
311 133 605
312 133 147
313 133 806
314 133 853
315 133 201
316 133 833
317 133 2103
318 133 378
319 133 898
320 133 1777
321 133 227
322 133 725
323 133 1580
324 133 1304
325 133 1316
326 133 711
327 133 1095
328 133 1041
329 133 660
330 133 895
331 133 901
332 133 698
333 133 413
334 133 369
335 133 501
336 133 458
337 133 621
338 133 1415
339 133 769
340 133 766
341 133 105
342 133 1046
343 133 1140
344 133 601
345 133 758
346 133 676
347 133 764
348 133 345
349 133 507
350 133 965
351 133 338
352 133 341
353 133 639
354 133 232
355 133 473
356 133 1198
357 133 371
358 133 818
359 133 305
360 133 1036
361 133 196
362 133 1161
363 133 1211
364 133 459
365 133 1213
366 133 646
367 133 563
368 133 1068
369 133 1004
370 133 879
371 133 2433
372 133 1002
373 133 906
374 133 788
375 133 1477
376 133 491
377 133 1108
378 133 789
379 133 645
380 133 667
381 133 209
382 133 289
383 133 618
384 133 657
385 133 491
386 133 969
387 133 503
388 133 987
389 133 518
390 133 735
391 133 910
392 133 383
393 133 1399
394 133 1548
395 133 821
396 133 579
397 133 1250
398 133 350
399 133 1278
400 133 1369
401 133 291
402 133 317
403 133 1286
404 133 544
405 133 272
406 133 468
407 133 389
408 133 113
409 133 381
410 133 1054
411 133 1079
412 133 1498
413 133 763
414 133 774
415 133 824
416 133 1467
417 133 1665
418 133 863
419 133 814
420 133 503
421 133 376
422 133 1002
423 133 770
424 133 638
425 133 654
426 133 1096
427 133 519
428 133 1022
429 133 895
430 133 621
431 133 630
432 133 748
433 133 414
434 133 530
435 133 608
436 133 548
437 133 580
438 133 374
439 133 412
440 133 1365
441 133 731
442 133 1341
443 133 1299
444 133 1233
445 133 244
446 133 1018
447 133 830
448 133 642
449 133 382
450 133 307
451 133 1425
452 133 570
453 133 743
454 133 1668
455 133 1338
456 133 1012
457 133 457
458 133 408
459 133 1017
460 133 585
461 133 326
462 133 143
463 133 1081
464 133 1356
465 133 1073
466 133 1119
467 133 499
468 133 418
469 133 1421
470 133 771
471 133 560
472 133 748
473 133 1252
474 133 780
475 133 1075
476 133 717
477 133 790
478 133 1268
479 133 274
480 133 625
481 133 1220
482 133 1692
483 133 492
484 133 559
485 133 1382
486 133 425
487 133 769
488 133 1220
489 133 1173
490 133 279
491 133 384
492 133 388
493 133 508
494 133 467
495 133 851
496 133 1227
497 133 428
498 133 162
499 133 435
500 133 932
1 134 11
11 134 4
19 134 6
20 134 2
25 134 2
32 134 3
48 134 1
54 134 4
60 134 4
61 134 2
65 134 1
67 134 2
84 134 5
98 134 3
101 134 3
108 134 3
112 134 3
117 134 4
126 134 1
128 134 7
134 134 4
137 134 4
139 134 4
146 134 6
170 134 3
171 134 5
176 134 2
177 134 2
193 134 7
205 134 11
208 134 2
223 134 1
224 134 5
232 134 6
237 134 3
246 134 5
247 134 6
252 134 5
286 134 4
294 134 10
297 134 1
305 134 6
310 134 4
316 134 4
321 134 3
332 134 6
333 134 6
351 134 2
359 134 2
364 134 6
370 134 2
373 134 6
396 134 6
397 134 4
401 134 1
402 134 4
404 134 3
408 134 3
413 134 3
433 134 2
434 134 11
436 134 10
458 134 1
461 134 2
467 134 10
471 134 4
494 134 2
497 134 1
1 135 763
2 135 867
3 135 738
4 135 728
5 135 603
6 135 1392
7 135 1007
8 135 336
9 135 893
10 135 1604
11 135 906
12 135 1016
13 135 497
14 135 1020
15 135 1412
16 135 968
17 135 650
18 135 1362
19 135 2079
20 135 345
21 135 447
22 135 893
23 135 1288
24 135 1430
25 135 463
26 135 981
27 135 1211
28 135 636
29 135 1440
30 135 1205
31 135 1469
32 135 686
33 135 764
34 135 1872
35 135 578
36 135 388
37 135 609
38 135 687
39 135 762
40 135 1626
41 135 1632
42 135 734
43 135 1023
44 135 262
45 135 1071
46 135 1655
47 135 834
48 135 603
49 135 1257
50 135 551
51 135 329
52 135 1392
53 135 930
54 135 721
55 135 1422
56 135 927
57 135 297
58 135 946
59 135 1163
60 135 1219
61 135 1951
62 135 434
63 135 1757
64 135 498
65 135 960
66 135 973
67 135 1852
68 135 1648
69 135 645
70 135 1317
71 135 488
72 135 654
73 135 991
74 135 761
75 135 1115
76 135 829
77 135 369
78 135 892
79 135 956
80 135 204
81 135 424
82 135 1339
83 135 1469
84 135 758
85 135 557
86 135 481
87 135 403
88 135 678
89 135 977
90 135 1198
91 135 812
92 135 711
93 135 300
94 135 1104
95 135 1251
96 135 1816
97 135 491
98 135 1001
99 135 908
100 135 1435
101 135 1052
102 135 648
103 135 589
104 135 333
105 135 814
106 135 1176
107 135 486
108 135 1219
109 135 1116
110 135 702
111 135 479
112 135 411
113 135 550
114 135 639
115 135 796
116 135 852
117 135 829
118 135 1733
119 135 769
120 135 107
121 135 183
122 135 681
123 135 610
124 135 757
125 135 1647
126 135 815
127 135 2315
128 135 1688
129 135 348
130 135 428
131 135 2476
132 135 241
133 135 1585
134 135 1682
135 135 988
136 135 1468
137 135 528
138 135 1015
139 135 848
140 135 652
141 135 1194
142 135 1188
143 135 1851
144 135 331
145 135 953
146 135 2176
147 135 1298
148 135 793
149 135 1444
150 135 897
151 135 1009
152 135 846
153 135 789
154 135 1205
155 135 610
156 135 1718
157 135 495
158 135 2092
159 135 611
160 135 1355
161 135 460
162 135 549
163 135 736
164 135 822
165 135 1551
166 135 887
167 135 254
168 135 1464
169 135 1001
170 135 1713
171 135 852
172 135 389
173 135 2466
174 135 946
175 135 627
176 135 1019
177 135 245
178 135 961
179 135 2582
180 135 1088
181 135 1906
182 135 595
183 135 1020
184 135 485
185 135 1319
186 135 2556
187 135 440
188 135 1980
189 135 1374
190 135 1188
191 135 596
192 135 493
193 135 480
194 135 1039
195 135 1380
196 135 389
197 135 845
198 135 710
199 135 278
200 135 1182
201 135 247
202 135 661
203 135 1920
204 135 1132
205 135 1192
206 135 963
207 135 1071
208 135 497
209 135 432
210 135 724
211 135 1120
212 135 664
213 135 739
214 135 1672
215 135 1163
216 135 874
217 135 957
218 135 1300
219 135 488
220 135 1479
221 135 389
222 135 625
223 135 684
224 135 1200
225 135 1364
226 135 1437
227 135 892
228 135 985
229 135 1083
230 135 1084
231 135 1060
232 135 1121
233 135 488
234 135 1304
235 135 635
236 135 596
237 135 911
238 135 986
239 135 675
240 135 1029
241 135 818
242 135 1123
243 135 944
244 135 413
245 135 413
246 135 491
247 135 1456
248 135 1021
249 135 473
250 135 836
251 135 1345
252 135 1207
253 135 1152
254 135 152
255 135 1752
256 135 2121
257 135 1206
258 135 1008
259 135 1308
260 135 922
261 135 972
262 135 557
263 135 2691
264 135 1161
265 135 1389
266 135 393
267 135 819
268 135 1514
269 135 1161
270 135 380
271 135 1133
272 135 1221
273 135 1114
274 135 458
275 135 988
276 135 857
277 135 757
278 135 1328
279 135 476
280 135 931
281 135 997
282 135 484
283 135 638
284 135 1133
285 135 1237
286 135 623
287 135 1241
288 135 806
289 135 1032
290 135 893
291 135 816
292 135 1238
293 135 660
294 135 2161
295 135 991
296 135 664
297 135 582
298 135 1968
299 135 1325
300 135 983
301 135 706
302 135 325
303 135 1213
304 135 1712
305 135 1156
306 135 314
307 135 321
308 135 574
309 135 725
310 135 1373
311 135 1072
312 135 774
313 135 1766
314 135 1104
315 135 410
316 135 2239
317 135 769
318 135 894
319 135 1748
320 135 1416
321 135 605
322 135 896
323 135 1424
324 135 1562
325 135 462
326 135 967
327 135 523
328 135 1406
329 135 687
330 135 1142
331 135 1866
332 135 1159
333 135 1073
334 135 1367
335 135 499
336 135 905
337 135 671
338 135 857
339 135 578
340 135 511
341 135 155
342 135 1460
343 135 458
344 135 473
345 135 462
346 135 1173
347 135 828
348 135 922
349 135 1997
350 135 1332
351 135 809
352 135 904
353 135 285
354 135 1299
355 135 1792
356 135 1551
357 135 1151
358 135 888
359 135 490
360 135 455
361 135 1253
362 135 1137
363 135 247
364 135 1226
365 135 1080
366 135 1238
367 135 2234
368 135 342
369 135 558
370 135 713
371 135 629
372 135 477
373 135 2169
374 135 1150
375 135 1501
376 135 902
377 135 1613
378 135 1568
379 135 1185
380 135 359
381 135 1347
382 135 1284
383 135 842
384 135 805
385 135 685
386 135 627
387 135 949
388 135 1058
389 135 1187
390 135 683
391 135 739
392 135 1135
393 135 862
394 135 1409
395 135 711
396 135 1113
397 135 697
398 135 804
399 135 1712
400 135 1944
401 135 2227
402 135 537
403 135 1960
404 135 1154
405 135 1485
406 135 428
407 135 730
408 135 521
409 135 625
410 135 799
411 135 1470
412 135 1470
413 135 643
414 135 2028
415 135 1055
416 135 689
417 135 144
418 135 1456
419 135 926
420 135 2271
421 135 867
422 135 928
423 135 668
424 135 373
425 135 945
426 135 1897
427 135 1025
428 135 595
429 135 1074
430 135 310
431 135 1432
432 135 831
433 135 1954
434 135 1082
435 135 1396
436 135 1148
437 135 1502
438 135 160
439 135 640
440 135 467
441 135 1148
442 135 1132
443 135 638
444 135 1866
445 135 612
446 135 1030
447 135 859
448 135 836
449 135 1009
450 135 929
451 135 913
452 135 873
453 135 1123
454 135 778
455 135 1183
456 135 751
457 135 1928
458 135 402
459 135 1020
460 135 508
461 135 888
462 135 1098
463 135 400
464 135 431
465 135 1586
466 135 1535
467 135 2260
468 135 346
469 135 922
470 135 471
471 135 739
472 135 464
473 135 619
474 135 1381
475 135 959
476 135 601
477 135 471
478 135 992
479 135 237
480 135 1403
481 135 817
482 135 323
483 135 826
484 135 761
485 135 1039
486 135 761
487 135 1298
488 135 672
489 135 1479
490 135 1195
491 135 987
492 135 1425
493 135 643
494 135 1120
495 135 670
496 135 623
497 135 1064
498 135 413
499 135 1057
500 135 2445
1 136 1055
2 136 1068
3 136 365
4 136 595
5 136 538
6 136 897
7 136 918
8 136 718
9 136 239
10 136 895
11 136 1352
12 136 1430
13 136 197
14 136 378
15 136 659
16 136 400
17 136 547
18 136 1277
19 136 833
20 136 303
21 136 438
22 136 1538
23 136 527
24 136 926
25 136 542
26 136 813
27 136 189
28 136 520
29 136 691
30 136 497
31 136 643
32 136 796
33 136 1240
34 136 1196
35 136 507
36 136 252
37 136 842
38 136 721
39 136 636
40 136 326
41 136 974
42 136 319
43 136 590
44 136 747
45 136 907
46 136 424
47 136 1034
48 136 514
49 136 1126
50 136 376
51 136 980
52 136 399
53 136 832
54 136 261
55 136 633
56 136 877
57 136 772
58 136 495
59 136 494
60 136 1028
61 136 1356
62 136 432
63 136 84
64 136 239
65 136 674
66 136 163
67 136 524
68 136 944
69 136 563
70 136 641
71 136 378
72 136 467
73 136 847
74 136 936
75 136 537
76 136 1164
77 136 433
78 136 726
79 136 1468
80 136 366
81 136 251
82 136 445
83 136 302
84 136 1291
85 136 150
86 136 529
87 136 1220
88 136 826
89 136 495
90 136 562
91 136 695
92 136 435
93 136 310
94 136 1854
95 136 374
96 136 791
97 136 1349
98 136 633
99 136 534
100 136 658
101 136 196
102 136 1100
103 136 544
104 136 1196
105 136 470
106 136 529
107 136 388
108 136 1877
109 136 733
110 136 433
111 136 1026
112 136 509
113 136 901
114 136 1003
115 136 858
116 136 774
117 136 438
118 136 1000
119 136 487
120 136 337
121 136 1453
122 136 797
123 136 569
124 136 895
125 136 923
126 136 458
127 136 1902
128 136 187
129 136 395
130 136 960
131 136 1547
132 136 357
133 136 424
134 136 144
135 136 214
136 136 204
137 136 931
138 136 284
139 136 697
140 136 467
141 136 409
142 136 877
143 136 839
144 136 502
145 136 1723
146 136 848
147 136 508
148 136 968
149 136 942
150 136 639
151 136 139
152 136 311
153 136 421
154 136 324
155 136 1174
156 136 198
157 136 436
158 136 685
159 136 435
160 136 1058
161 136 475
162 136 175
163 136 184
164 136 568
165 136 775
166 136 546
167 136 249
168 136 751
169 136 370
170 136 136
171 136 239
172 136 476
173 136 2681
174 136 827
175 136 456
176 136 830
177 136 888
178 136 410
179 136 1544
180 136 759
181 136 519
182 136 1141
183 136 516
184 136 580
185 136 1759
186 136 757
187 136 227
188 136 664
189 136 969
190 136 230
191 136 1537
192 136 590
193 136 880
194 136 1198
195 136 1488
196 136 677
197 136 354
198 136 321
199 136 1118
200 136 492
201 136 784
202 136 1093
203 136 223
204 136 1660
205 136 966
206 136 1023
207 136 412
208 136 918
209 136 1039
210 136 341
211 136 990
212 136 1402
213 136 416
214 136 941
215 136 874
216 136 1478
217 136 1192
218 136 561
219 136 758
220 136 297
221 136 456
222 136 464
223 136 827
224 136 305
225 136 1286
226 136 1136
227 136 719
228 136 209
229 136 1574
230 136 469
231 136 1387
232 136 473
233 136 884
234 136 973
235 136 760
236 136 558
237 136 157
238 136 410
239 136 1098
240 136 697
241 136 588
242 136 475
243 136 673
244 136 518
245 136 432
246 136 1445
247 136 1196
248 136 458
249 136 685
250 136 889
251 136 931
252 136 285
253 136 531
254 136 627
255 136 807
256 136 472
257 136 248
258 136 1333
259 136 1737
260 136 198
261 136 829
262 136 368
263 136 852
264 136 221
265 136 1176
266 136 438
267 136 512
268 136 1119
269 136 368
270 136 1040
271 136 508
272 136 1226
273 136 1182
274 136 532
275 136 871
276 136 747
277 136 200
278 136 2695
279 136 988
280 136 436
281 136 340
282 136 420
283 136 112
284 136 421
285 136 1680
286 136 589
287 136 368
288 136 815
289 136 890
290 136 371
291 136 1518
292 136 1381
293 136 1101
294 136 1886
295 136 705
296 136 109
297 136 1060
298 136 1005
299 136 164
300 136 722
301 136 533
302 136 1091
303 136 1187
304 136 953
305 136 394
306 136 778
307 136 529
308 136 807
309 136 1193
310 136 1949
311 136 455
312 136 976
313 136 1031
314 136 410
315 136 475
316 136 329
317 136 405
318 136 705
319 136 203
320 136 339
321 136 1027
322 136 97
323 136 653
324 136 989
325 136 886
326 136 550
327 136 168
328 136 192
329 136 623
330 136 977
331 136 542
332 136 332
333 136 225
334 136 1245
335 136 291
336 136 690
337 136 794
338 136 152
339 136 799
340 136 870
341 136 588
342 136 186
343 136 194
344 136 961
345 136 563
346 136 889
347 136 1153
348 136 1088
349 136 1446
350 136 1277
351 136 249
352 136 198
353 136 604
354 136 1774
355 136 969
356 136 353
357 136 847
358 136 625
359 136 607
360 136 817
361 136 1719
362 136 1181
363 136 667
364 136 375
365 136 302
366 136 487
367 136 331
368 136 1196
369 136 558
370 136 1117
371 136 596
372 136 855
373 136 311
374 136 531
375 136 365
376 136 706
377 136 1164
378 136 307
379 136 869
380 136 761
381 136 1735
382 136 159
383 136 756
384 136 1605
385 136 1000
386 136 1141
387 136 365
388 136 1159
389 136 461
390 136 1086
391 136 1159
392 136 799
393 136 712
394 136 625
395 136 360
396 136 993
397 136 833
398 136 1086
399 136 1170
400 136 1106
401 136 466
402 136 645
403 136 1043
404 136 465
405 136 804
406 136 351
407 136 306
408 136 523
409 136 518
410 136 648
411 136 177
412 136 311
413 136 1010
414 136 707
415 136 392
416 136 326
417 136 507
418 136 518
419 136 817
420 136 1099
421 136 467
422 136 531
423 136 1199
424 136 725
425 136 1002
426 136 825
427 136 431
428 136 606
429 136 427
430 136 319
431 136 1323
432 136 1101
433 136 1471
434 136 233
435 136 348
436 136 234
437 136 1142
438 136 329
439 136 1040
440 136 499
441 136 886
442 136 1295
443 136 627
444 136 841
445 136 760
446 136 892
447 136 459
448 136 555
449 136 463
450 136 206
451 136 774
452 136 696
453 136 1993
454 136 1397
455 136 624
456 136 171
457 136 1740
458 136 209
459 136 837
460 136 1031
461 136 760
462 136 420
463 136 713
464 136 2062
465 136 1107
466 136 1251
467 136 805
468 136 284
469 136 457
470 136 377
471 136 908
472 136 542
473 136 481
474 136 1625
475 136 148
476 136 1030
477 136 538
478 136 1210
479 136 1025
480 136 135
481 136 575
482 136 1114
483 136 596
484 136 789
485 136 1178
486 136 1006
487 136 1408
488 136 449
489 136 1494
490 136 935
491 136 547
492 136 1208
493 136 503
494 136 1856
495 136 372
496 136 457
497 136 243
498 136 422
499 136 771
500 136 1019
5 137 5
7 137 4
14 137 5
15 137 9
20 137 3
26 137 5
28 137 4
29 137 4
30 137 2
31 137 9
36 137 5
41 137 3
42 137 2
44 137 2
45 137 7
47 137 7
53 137 3
59 137 6
74 137 4
75 137 9
77 137 2
81 137 2
90 137 1
94 137 4
96 137 5
100 137 3
106 137 5
128 137 4
132 137 3
144 137 4
148 137 2
149 137 4
153 137 3
155 137 4
165 137 5
166 137 2
168 137 7
187 137 9
188 137 2
195 137 4
196 137 5
212 137 4
233 137 1
236 137 8
240 137 3
245 137 3
246 137 1
253 137 5
257 137 8
263 137 3
264 137 5
267 137 2
275 137 7
289 137 5
291 137 3
302 137 6
303 137 4
307 137 1
309 137 3
312 137 5
316 137 3
320 137 5
323 137 4
331 137 6
333 137 3
334 137 6
337 137 1
367 137 4
369 137 4
374 137 7
375 137 3
386 137 5
387 137 2
388 137 4
391 137 4
394 137 2
399 137 5
400 137 7
403 137 10
422 137 2
426 137 2
428 137 1
438 137 1
440 137 1
444 137 5
446 137 5
447 137 2
458 137 7
459 137 5
467 137 5
469 137 2
482 137 2
484 137 5
494 137 4
497 137 4
499 137 6
1 138 1635
2 138 1583
3 138 2072
4 138 1000
5 138 1067
6 138 1124
7 138 1774
8 138 1836
9 138 1392
10 138 1471
11 138 1748
12 138 1465
13 138 792
14 138 1405
15 138 1412
16 138 951
17 138 1978
18 138 1081
19 138 2873
20 138 947
21 138 2113
22 138 1252
23 138 1337
24 138 1783
25 138 585
26 138 1861
27 138 2155
28 138 2545
29 138 994
30 138 873
31 138 1660
32 138 1023
33 138 1422
34 138 1770
35 138 2450
36 138 1189
37 138 2230
38 138 2248
39 138 1689
40 138 3310
41 138 2834
42 138 2858
43 138 966
44 138 1950
45 138 2217
46 138 2099
47 138 1588
48 138 1497
49 138 2561
50 138 1041
51 138 2944
52 138 4365
53 138 1756
54 138 1348
55 138 1958
56 138 1002
57 138 1043
58 138 1469
59 138 857
60 138 1422
61 138 3185
62 138 756
63 138 2553
64 138 898
65 138 2100
66 138 2531
67 138 1926
68 138 1191
69 138 1253
70 138 2354
71 138 1043
72 138 1140
73 138 2814
74 138 2429
75 138 896
76 138 1299
77 138 1557
78 138 2300
79 138 851
80 138 473
81 138 917
82 138 696
83 138 2354
84 138 1739
85 138 1703
86 138 2715
87 138 2158
88 138 1334
89 138 1976
90 138 2673
91 138 1651
92 138 1252
93 138 1828
94 138 3743
95 138 1093
96 138 3425
97 138 1611
98 138 2134
99 138 1336
100 138 1654
101 138 2597
102 138 1376
103 138 1219
104 138 3059
105 138 849
106 138 852
107 138 674
108 138 1093
109 138 1352
110 138 1491
111 138 705
112 138 867
113 138 2460
114 138 1674
115 138 1449
116 138 2119
117 138 1391
118 138 1025
119 138 1121
120 138 859
121 138 3127
122 138 1926
123 138 788
124 138 2369
125 138 2051
126 138 2722
127 138 1034
128 138 1504
129 138 824
130 138 683
131 138 3218
132 138 2290
133 138 1154
134 138 2030
135 138 1235
136 138 683
137 138 1731
138 138 1334
139 138 2269
140 138 1126
141 138 2588
142 138 891
143 138 1814
144 138 1898
145 138 1828
146 138 3017
147 138 1470
148 138 2404
149 138 1569
150 138 2474
151 138 1355
152 138 939
153 138 1835
154 138 927
155 138 1057
156 138 1293
157 138 986
158 138 2481
159 138 1160
160 138 982
161 138 2736
162 138 1492
163 138 1586
164 138 1700
165 138 2594
166 138 1459
167 138 1008
168 138 1237
169 138 892
170 138 2019
171 138 1374
172 138 1004
173 138 1842
174 138 2728
175 138 1041
176 138 2390
177 138 2144
178 138 1286
179 138 3261
180 138 1134
181 138 293
182 138 1167
183 138 1068
184 138 707
185 138 3697
186 138 2027
187 138 903
188 138 1650
189 138 1760
190 138 982
191 138 2095
192 138 497
193 138 1718
194 138 2019
195 138 2123
196 138 1166
197 138 1505
198 138 523
199 138 2133
200 138 1272
201 138 1289
202 138 671
203 138 2003
204 138 1658
205 138 1606
206 138 1319
207 138 1789
208 138 1710
209 138 663
210 138 2031
211 138 1919
212 138 2531
213 138 1994
214 138 1942
215 138 920
216 138 1623
217 138 2240
218 138 952
219 138 684
220 138 2249
221 138 521
222 138 1130
223 138 1062
224 138 1532
225 138 1050
226 138 1462
227 138 671
228 138 1284
229 138 2116
230 138 600
231 138 1430
232 138 2845
233 138 1268
234 138 1741
235 138 2254
236 138 433
237 138 1354
238 138 1122
239 138 1797
240 138 2504
241 138 985
242 138 2039
243 138 1969
244 138 855
245 138 1536
246 138 2191
247 138 2861
248 138 1585
249 138 661
250 138 1472
251 138 1472
252 138 1280
253 138 864
254 138 2141
255 138 3408
256 138 1388
257 138 1099
258 138 1861
259 138 3700
260 138 1671
261 138 2854
262 138 1054
263 138 1923
264 138 977
265 138 1469
266 138 1037
267 138 1404
268 138 2501
269 138 2582
270 138 1410
271 138 2302
272 138 1438
273 138 1745
274 138 2753
275 138 1905
276 138 814
277 138 1277
278 138 1921
279 138 710
280 138 2522
281 138 1532
282 138 921
283 138 1516
284 138 2373
285 138 2472
286 138 660
287 138 4396
288 138 3102
289 138 1800
290 138 998
291 138 1708
292 138 1365
293 138 1929
294 138 634
295 138 2287
296 138 1686
297 138 1386
298 138 2353
299 138 2266
300 138 3199
301 138 881
302 138 1600
303 138 1905
304 138 2010
305 138 3547
306 138 869
307 138 1840
308 138 1231
309 138 3049
310 138 1646
311 138 2002
312 138 1586
313 138 1565
314 138 2093
315 138 477
316 138 2036
317 138 1191
318 138 2214
319 138 1261
320 138 1127
321 138 1369
322 138 302
323 138 1656
324 138 1190
325 138 762
326 138 2304
327 138 1598
328 138 700
329 138 1142
330 138 2654
331 138 1192
332 138 1502
333 138 546
334 138 3266
335 138 1024
336 138 715
337 138 1932
338 138 1931
339 138 1582
340 138 2386
341 138 890
342 138 763
343 138 2058
344 138 725
345 138 2718
346 138 1800
347 138 1080
348 138 1600
349 138 1981
350 138 1019
351 138 1415
352 138 1685
353 138 1152
354 138 3765
355 138 1930
356 138 3327
357 138 2437
358 138 1202
359 138 1387
360 138 1753
361 138 3701
362 138 1732
363 138 1227
364 138 1253
365 138 1321
366 138 2146
367 138 1438
368 138 1571
369 138 1398
370 138 1379
371 138 1463
372 138 1786
373 138 1985
374 138 913
375 138 1295
376 138 1858
377 138 2910
378 138 3025
379 138 2095
380 138 1592
381 138 3663
382 138 1679
383 138 2170
384 138 1035
385 138 1738
386 138 2905
387 138 275
388 138 1746
389 138 718
390 138 1870
391 138 1901
392 138 1361
393 138 2102
394 138 1628
395 138 2028
396 138 1894
397 138 1640
398 138 958
399 138 2010
400 138 2004
401 138 2339
402 138 1258
403 138 1610
404 138 1672
405 138 1882
406 138 677
407 138 578
408 138 1088
409 138 1254
410 138 976
411 138 694
412 138 2374
413 138 2497
414 138 3815
415 138 2311
416 138 2027
417 138 1020
418 138 1932
419 138 1697
420 138 1309
421 138 597
422 138 808
423 138 1904
424 138 1109
425 138 1481
426 138 3607
427 138 1266
428 138 1332
429 138 1999
430 138 1770
431 138 1495
432 138 1066
433 138 3059
434 138 1516
435 138 2013
436 138 1469
437 138 2554
438 138 931
439 138 1629
440 138 1907
441 138 847
442 138 1665
443 138 2011
444 138 3559
445 138 635
446 138 1858
447 138 1084
448 138 940
449 138 1195
450 138 1672
451 138 3144
452 138 1293
453 138 2822
454 138 3349
455 138 1294
456 138 1103
457 138 2148
458 138 867
459 138 1795
460 138 715
461 138 820
462 138 2358
463 138 1862
464 138 2505
465 138 2881
466 138 2890
467 138 3871
468 138 547
469 138 2539
470 138 1565
471 138 1126
472 138 2677
473 138 1035
474 138 776
475 138 2535
476 138 2655
477 138 2767
478 138 2003
479 138 1022
480 138 998
481 138 1703
482 138 1638
483 138 1233
484 138 1022
485 138 1980
486 138 1042
487 138 1328
488 138 1088
489 138 1091
490 138 1335
491 138 1517
492 138 1529
493 138 690
494 138 2808
495 138 860
496 138 1030
497 138 544
498 138 2704
499 138 2420
500 138 3316
1 139 1466
2 139 2137
3 139 942
4 139 851
5 139 1486
6 139 1588
7 139 1615
8 139 1320
9 139 1036
10 139 1509
11 139 801
12 139 1732
13 139 793
14 139 822
15 139 1629
16 139 1575
17 139 1132
18 139 978
19 139 1008
20 139 942
21 139 1684
22 139 1024
23 139 718
24 139 1525
25 139 588
26 139 1636
27 139 855
28 139 2935
29 139 682
30 139 784
31 139 1975
32 139 785
33 139 778
34 139 2153
35 139 1387
36 139 1628
37 139 757
38 139 1348
39 139 1025
40 139 1023
41 139 394
42 139 1333
43 139 1792
44 139 964
45 139 846
46 139 2268
47 139 1315
48 139 778
49 139 891
50 139 889
51 139 834
52 139 446
53 139 800
54 139 1334
55 139 1268
56 139 1461
57 139 489
58 139 1029
59 139 764
60 139 828
61 139 1789
62 139 1401
63 139 1268
64 139 919
65 139 436
66 139 1152
67 139 2692
68 139 2032
69 139 613
70 139 1222
71 139 551
72 139 2220
73 139 485
74 139 1132
75 139 793
76 139 1701
77 139 1482
78 139 1426
79 139 1434
80 139 675
81 139 904
82 139 524
83 139 820
84 139 503
85 139 1968
86 139 1615
87 139 631
88 139 1201
89 139 1091
90 139 798
91 139 395
92 139 692
93 139 956
94 139 838
95 139 818
96 139 1903
97 139 1350
98 139 420
99 139 872
100 139 1897
101 139 506
102 139 1397
103 139 1019
104 139 363
105 139 698
106 139 747
107 139 776
108 139 2174
109 139 839
110 139 1432
111 139 1374
112 139 194
113 139 929
114 139 826
115 139 551
116 139 1025
117 139 726
118 139 1560
119 139 1149
120 139 535
121 139 634
122 139 1560
123 139 949
124 139 1013
125 139 1682
126 139 569
127 139 2394
128 139 487
129 139 936
130 139 1366
131 139 1174
132 139 2494
133 139 1737
134 139 1715
135 139 729
136 139 1286
137 139 1291
138 139 1305
139 139 444
140 139 2285
141 139 460
142 139 1843
143 139 1106
144 139 1358
145 139 319
146 139 982
147 139 464
148 139 1148
149 139 601
150 139 1671
151 139 1108
152 139 917
153 139 841
154 139 1347
155 139 1781
156 139 1489
157 139 1036
158 139 1193
159 139 2276
160 139 1029
161 139 1681
162 139 327
163 139 725
164 139 1333
165 139 1159
166 139 1518
167 139 628
168 139 678
169 139 1448
170 139 1726
171 139 1281
172 139 882
173 139 1433
174 139 601
175 139 2241
176 139 1175
177 139 2514
178 139 533
179 139 1218
180 139 653
181 139 1435
182 139 1037
183 139 873
184 139 479
185 139 925
186 139 757
187 139 893
188 139 2373
189 139 1348
190 139 1069
191 139 1288
192 139 594
193 139 1254
194 139 1107
195 139 1593
196 139 928
197 139 1016
198 139 667
199 139 1119
200 139 1451
201 139 988
202 139 857
203 139 525
204 139 1783
205 139 1857
206 139 1076
207 139 1518
208 139 1342
209 139 1366
210 139 1331
211 139 1646
212 139 1042
213 139 1576
214 139 1489
215 139 1809
216 139 1362
217 139 1269
218 139 1277
219 139 933
220 139 833
221 139 579
222 139 2250
223 139 808
224 139 2608
225 139 976
226 139 659
227 139 1272
228 139 779
229 139 2676
230 139 444
231 139 1689
232 139 2330
233 139 1543
234 139 1076
235 139 1403
236 139 671
237 139 1483
238 139 1538
239 139 1345
240 139 1084
241 139 1994
242 139 2370
243 139 456
244 139 598
245 139 1404
246 139 2961
247 139 1263
248 139 993
249 139 925
250 139 824
251 139 1741
252 139 660
253 139 790
254 139 1264
255 139 2567
256 139 1632
257 139 441
258 139 2080
259 139 907
260 139 2384
261 139 1330
262 139 939
263 139 1730
264 139 380
265 139 663
266 139 854
267 139 1523
268 139 2630
269 139 485
270 139 1228
271 139 1008
272 139 1220
273 139 932
274 139 1649
275 139 1643
276 139 792
277 139 1200
278 139 1074
279 139 1403
280 139 1551
281 139 993
282 139 606
283 139 766
284 139 2748
285 139 1246
286 139 717
287 139 473
288 139 1420
289 139 1604
290 139 940
291 139 1865
292 139 1042
293 139 1343
294 139 185
295 139 1490
296 139 1002
297 139 683
298 139 862
299 139 1117
300 139 2085
301 139 784
302 139 1337
303 139 785
304 139 1717
305 139 847
306 139 1142
307 139 1440
308 139 2233
309 139 713
310 139 1501
311 139 2272
312 139 1302
313 139 746
314 139 1466
315 139 560
316 139 1952
317 139 1361
318 139 1467
319 139 1507
320 139 482
321 139 695
322 139 743
323 139 1962
324 139 2088
325 139 604
326 139 1458
327 139 1218
328 139 1330
329 139 1087
330 139 708
331 139 2005
332 139 2513
333 139 1068
334 139 1677
335 139 690
336 139 1251
337 139 1384
338 139 1897
339 139 1213
340 139 1080
341 139 604
342 139 1266
343 139 1005
344 139 1423
345 139 1570
346 139 649
347 139 1123
348 139 2146
349 139 980
350 139 941
351 139 1298
352 139 2508
353 139 941
354 139 898
355 139 1863
356 139 1008
357 139 1069
358 139 1246
359 139 1195
360 139 1461
361 139 992
362 139 635
363 139 1494
364 139 704
365 139 1398
366 139 2299
367 139 1079
368 139 1347
369 139 1657
370 139 1212
371 139 1303
372 139 1467
373 139 1874
374 139 795
375 139 1820
376 139 794
377 139 2157
378 139 1621
379 139 283
380 139 929
381 139 881
382 139 1517
383 139 668
384 139 1933
385 139 911
386 139 796
387 139 499
388 139 1536
389 139 801
390 139 1365
391 139 1311
392 139 758
393 139 1036
394 139 1871
395 139 1019
396 139 532
397 139 1347
398 139 1237
399 139 1507
400 139 1398
401 139 1882
402 139 1269
403 139 1387
404 139 862
405 139 1243
406 139 665
407 139 699
408 139 616
409 139 964
410 139 924
411 139 1246
412 139 811
413 139 1020
414 139 696
415 139 1193
416 139 1358
417 139 1223
418 139 1600
419 139 879
420 139 2167
421 139 699
422 139 1193
423 139 1424
424 139 766
425 139 1462
426 139 2058
427 139 1148
428 139 1745
429 139 1412
430 139 1026
431 139 760
432 139 1130
433 139 1846
434 139 807
435 139 991
436 139 838
437 139 2608
438 139 373
439 139 824
440 139 835
441 139 1780
442 139 1295
443 139 1581
444 139 2013
445 139 349
446 139 1721
447 139 943
448 139 2021
449 139 1908
450 139 2304
451 139 2335
452 139 467
453 139 1495
454 139 1654
455 139 2184
456 139 782
457 139 1454
458 139 889
459 139 1725
460 139 1388
461 139 652
462 139 2708
463 139 1400
464 139 1883
465 139 2199
466 139 2265
467 139 1137
468 139 120
469 139 2325
470 139 663
471 139 1420
472 139 1660
473 139 2337
474 139 1527
475 139 1151
476 139 1306
477 139 1618
478 139 1100
479 139 467
480 139 984
481 139 1276
482 139 1367
483 139 700
484 139 691
485 139 1093
486 139 837
487 139 1484
488 139 2283
489 139 1581
490 139 560
491 139 1028
492 139 1219
493 139 436
494 139 1825
495 139 653
496 139 2227
497 139 994
498 139 2069
499 139 1386
500 139 1429
1 140 9
2 140 19
3 140 3
5 140 21
6 140 8
7 140 41
8 140 97
9 140 26
11 140 8
12 140 46
13 140 33
14 140 17
15 140 43
16 140 16
17 140 1
18 140 21
19 140 22
20 140 17
21 140 22
22 140 18
23 140 29
24 140 46
25 140 11
26 140 46
27 140 37
28 140 34
29 140 20
30 140 1
31 140 43
33 140 95
34 140 1
35 140 22
36 140 46
37 140 67
38 140 57
39 140 4
40 140 4
41 140 47
42 140 25
43 140 5
44 140 50
45 140 46
46 140 22
47 140 18
48 140 14
49 140 52
50 140 15
51 140 27
52 140 21
53 140 79
54 140 12
55 140 34
56 140 30
57 140 37
58 140 25
59 140 6
60 140 6
61 140 93
62 140 20
63 140 6
64 140 32
65 140 27
66 140 27
67 140 36
68 140 90
69 140 9
70 140 34
71 140 5
72 140 46
73 140 50
74 140 77
75 140 3
76 140 28
77 140 47
78 140 28
79 140 23
80 140 10
81 140 10
82 140 32
83 140 66
84 140 47
85 140 41
86 140 18
87 140 17
88 140 6
89 140 67
90 140 22
91 140 22
92 140 21
93 140 15
94 140 31
95 140 6
96 140 52
97 140 46
98 140 32
99 140 18
100 140 60
101 140 62
102 140 51
103 140 37
104 140 50
105 140 25
106 140 3
107 140 11
108 140 59
109 140 6
110 140 47
111 140 12
112 140 6
113 140 30
114 140 22
115 140 33
116 140 23
117 140 24
118 140 50
119 140 15
120 140 58
121 140 10
122 140 16
123 140 11
124 140 19
125 140 52
126 140 7
127 140 29
128 140 19
129 140 21
130 140 23
131 140 22
132 140 54
133 140 8
134 140 24
135 140 20
136 140 6
137 140 69
138 140 8
139 140 76
140 140 8
141 140 29
142 140 22
143 140 83
144 140 82
145 140 42
146 140 29
147 140 14
148 140 86
149 140 5
150 140 22
151 140 30
152 140 33
153 140 16
154 140 24
155 140 15
156 140 3
157 140 10
158 140 5
159 140 39
160 140 25
161 140 17
162 140 7
163 140 34
164 140 8
165 140 29
166 140 12
167 140 98
168 140 10
169 140 13
170 140 26
171 140 15
172 140 18
173 140 42
174 140 9
175 140 49
176 140 8
177 140 6
178 140 45
179 140 28
180 140 7
181 140 21
182 140 36
183 140 7
184 140 3
185 140 4
186 140 13
187 140 9
188 140 22
189 140 21
190 140 67
191 140 10
192 140 7
193 140 69
194 140 21
195 140 40
196 140 31
197 140 9
198 140 15
199 140 19
200 140 13
201 140 42
202 140 12
203 140 36
204 140 34
205 140 10
206 140 17
207 140 68
208 140 60
209 140 26
210 140 48
211 140 51
212 140 14
213 140 26
214 140 102
215 140 28
216 140 19
217 140 27
218 140 37
219 140 9
220 140 61
221 140 5
222 140 24
224 140 28
225 140 26
226 140 16
227 140 33
228 140 21
229 140 74
230 140 5
231 140 45
232 140 46
233 140 32
234 140 61
235 140 62
236 140 20
238 140 25
239 140 57
240 140 6
241 140 24
242 140 64
243 140 24
244 140 22
245 140 56
246 140 97
247 140 85
248 140 18
249 140 8
250 140 5
251 140 66
252 140 47
253 140 3
254 140 33
255 140 41
256 140 45
257 140 61
258 140 82
259 140 3
260 140 61
261 140 47
262 140 12
263 140 65
264 140 54
265 140 20
266 140 14
267 140 10
268 140 22
269 140 29
270 140 16
271 140 73
272 140 39
273 140 36
274 140 15
275 140 34
276 140 65
277 140 9
278 140 7
279 140 26
280 140 36
281 140 24
282 140 26
283 140 12
284 140 5
285 140 49
286 140 15
287 140 22
288 140 21
289 140 39
290 140 21
291 140 49
292 140 37
293 140 60
294 140 31
295 140 18
296 140 25
297 140 12
299 140 55
300 140 23
301 140 53
302 140 25
303 140 25
304 140 14
305 140 22
306 140 1
307 140 84
308 140 34
309 140 10
310 140 19
311 140 54
312 140 18
314 140 12
315 140 12
316 140 19
317 140 41
318 140 26
319 140 9
320 140 37
321 140 12
322 140 21
323 140 54
324 140 89
325 140 48
326 140 42
327 140 28
328 140 3
329 140 10
330 140 35
331 140 40
332 140 24
333 140 20
334 140 4
335 140 1
336 140 28
337 140 33
338 140 69
339 140 10
340 140 34
341 140 6
342 140 5
343 140 16
344 140 19
345 140 30
346 140 58
347 140 58
348 140 24
349 140 44
350 140 22
351 140 12
352 140 53
353 140 18
354 140 2
355 140 49
356 140 6
357 140 100
358 140 30
359 140 18
360 140 81
361 140 4
363 140 11
364 140 9
365 140 13
366 140 53
367 140 74
368 140 5
369 140 42
370 140 47
371 140 25
372 140 79
373 140 21
374 140 4
375 140 29
376 140 24
377 140 53
378 140 39
379 140 59
380 140 24
381 140 5
382 140 45
383 140 11
384 140 63
385 140 26
386 140 50
387 140 31
388 140 54
389 140 4
390 140 68
391 140 8
392 140 18
393 140 29
394 140 57
395 140 4
396 140 9
397 140 18
398 140 49
399 140 44
400 140 4
401 140 14
402 140 22
403 140 13
404 140 11
405 140 3
406 140 11
407 140 11
408 140 7
409 140 20
410 140 25
411 140 3
412 140 55
413 140 36
414 140 3
415 140 59
416 140 50
417 140 52
418 140 19
419 140 45
420 140 69
421 140 4
422 140 3
423 140 62
425 140 2
426 140 40
427 140 33
428 140 51
429 140 21
430 140 13
431 140 5
432 140 70
433 140 92
434 140 21
435 140 16
436 140 23
437 140 21
438 140 22
439 140 18
440 140 11
441 140 25
442 140 26
443 140 19
444 140 58
445 140 12
446 140 29
447 140 3
448 140 31
449 140 25
450 140 43
451 140 15
453 140 19
455 140 2
456 140 51
457 140 66
458 140 16
459 140 40
460 140 21
462 140 6
463 140 88
464 140 35
465 140 85
466 140 74
467 140 27
468 140 12
469 140 12
470 140 9
471 140 33
472 140 20
473 140 36
474 140 2
475 140 25
476 140 41
477 140 22
478 140 15
479 140 40
480 140 16
481 140 28
482 140 22
483 140 7
484 140 32
485 140 21
486 140 40
487 140 30
488 140 29
489 140 5
490 140 54
491 140 22
492 140 4
493 140 6
494 140 9
496 140 37
497 140 11
498 140 61
499 140 28
500 140 13
1 141 596
2 141 602
3 141 1692
4 141 815
5 141 1341
6 141 1618
7 141 1263
8 141 514
9 141 1109
10 141 632
11 141 1039
12 141 761
13 141 705
14 141 1326
15 141 1945
16 141 747
17 141 448
18 141 943
19 141 3411
20 141 693
21 141 1806
22 141 882
23 141 464
24 141 2606
25 141 623
26 141 1089
27 141 979
28 141 856
29 141 1618
30 141 668
31 141 928
32 141 1316
33 141 1120
34 141 1722
35 141 980
36 141 1254
37 141 1359
38 141 737
39 141 651
40 141 1376
41 141 1239
42 141 672
43 141 1863
44 141 702
45 141 1237
46 141 955
47 141 1960
48 141 1632
49 141 1994
50 141 1216
51 141 610
52 141 1554
53 141 1615
54 141 1133
55 141 797
56 141 1303
57 141 892
58 141 982
59 141 712
60 141 1497
61 141 1094
62 141 749
63 141 1015
64 141 773
65 141 1330
66 141 844
67 141 1022
68 141 1468
69 141 952
70 141 464
71 141 1106
72 141 1284
73 141 882
74 141 725
75 141 707
76 141 2918
77 141 1156
78 141 861
79 141 1859
80 141 531
81 141 804
82 141 684
83 141 2319
84 141 1093
85 141 834
86 141 1724
87 141 1672
88 141 1352
89 141 1914
90 141 1386
91 141 509
92 141 909
93 141 863
94 141 966
95 141 1297
96 141 1935
97 141 827
98 141 1338
99 141 752
100 141 995
101 141 878
102 141 996
103 141 729
104 141 940
105 141 775
106 141 672
107 141 833
108 141 1779
109 141 637
110 141 1009
111 141 1844
112 141 591
113 141 1063
114 141 958
115 141 834
116 141 1523
117 141 803
118 141 3284
119 141 691
120 141 645
121 141 2190
122 141 455
123 141 415
124 141 1549
125 141 612
126 141 1195
127 141 1168
128 141 2866
129 141 1446
130 141 1888
131 141 1181
132 141 1585
133 141 1397
134 141 1619
135 141 1150
136 141 2209
137 141 659
138 141 1665
139 141 1111
140 141 794
141 141 1184
142 141 1463
143 141 1043
144 141 373
145 141 2013
146 141 3428
147 141 1305
148 141 724
149 141 2160
150 141 1503
151 141 803
152 141 1301
153 141 637
154 141 733
155 141 1574
156 141 2261
157 141 776
158 141 1331
159 141 1246
160 141 1492
161 141 1764
162 141 586
163 141 142
164 141 1154
165 141 1807
166 141 1143
167 141 543
168 141 578
169 141 728
170 141 1629
171 141 1054
172 141 1091
173 141 2567
174 141 1672
175 141 1232
176 141 813
177 141 852
178 141 543
179 141 1213
180 141 1887
181 141 1711
182 141 498
183 141 612
184 141 1156
185 141 842
186 141 1279
187 141 723
188 141 2055
189 141 1354
190 141 1065
191 141 1316
192 141 712
193 141 671
194 141 1651
195 141 865
196 141 1170
197 141 633
198 141 773
199 141 2481
200 141 766
201 141 398
202 141 1260
203 141 1526
204 141 1499
205 141 884
206 141 1084
207 141 1771
208 141 758
209 141 1856
210 141 1150
211 141 2063
212 141 1319
213 141 1187
214 141 1315
215 141 1480
216 141 992
217 141 1666
218 141 686
219 141 1774
220 141 2368
221 141 326
222 141 1198
223 141 1432
224 141 976
225 141 937
226 141 1081
227 141 952
228 141 1134
229 141 2212
230 141 159
231 141 750
232 141 1464
233 141 1899
234 141 910
235 141 696
236 141 548
237 141 1140
238 141 1229
239 141 1607
240 141 1719
241 141 1641
242 141 819
243 141 2493
244 141 615
245 141 1156
246 141 1260
247 141 1183
248 141 906
249 141 1784
250 141 684
251 141 543
252 141 1048
253 141 700
254 141 863
255 141 2724
256 141 330
257 141 2004
258 141 486
259 141 767
260 141 288
261 141 922
262 141 1280
263 141 1273
264 141 1993
265 141 1130
266 141 1044
267 141 1161
268 141 1744
269 141 1243
270 141 2114
271 141 968
272 141 1062
273 141 1926
274 141 1768
275 141 1160
276 141 945
277 141 738
278 141 911
279 141 1908
280 141 1486
281 141 1036
282 141 763
283 141 1510
284 141 759
285 141 1986
286 141 124
287 141 1557
288 141 706
289 141 1183
290 141 1378
291 141 580
292 141 1951
293 141 1559
294 141 834
295 141 1154
296 141 1445
297 141 944
298 141 1628
299 141 1263
300 141 1831
301 141 984
302 141 1189
303 141 1992
304 141 882
305 141 1482
306 141 918
307 141 386
308 141 1824
309 141 1194
310 141 1361
311 141 796
312 141 1932
313 141 1553
314 141 1293
315 141 338
316 141 1132
317 141 564
318 141 854
319 141 2377
320 141 1090
321 141 1029
322 141 679
323 141 1011
324 141 1372
325 141 1092
326 141 2838
327 141 1027
328 141 2079
329 141 1121
330 141 1136
331 141 2273
332 141 965
333 141 1232
334 141 922
335 141 397
336 141 985
337 141 933
338 141 1091
339 141 940
340 141 1569
341 141 1000
342 141 2141
343 141 2174
344 141 1933
345 141 1735
346 141 981
347 141 1892
348 141 645
349 141 649
350 141 1033
351 141 1110
352 141 267
353 141 328
354 141 819
355 141 464
356 141 1352
357 141 1515
358 141 1388
359 141 954
360 141 629
361 141 808
362 141 1492
363 141 318
364 141 967
365 141 1669
366 141 830
367 141 1721
368 141 1219
369 141 1155
370 141 1079
371 141 965
372 141 633
373 141 1137
374 141 679
375 141 1278
376 141 660
377 141 1549
378 141 1346
379 141 760
380 141 819
381 141 759
382 141 1275
383 141 1132
384 141 799
385 141 492
386 141 1495
387 141 998
388 141 758
389 141 1154
390 141 1724
391 141 992
392 141 193
393 141 1533
394 141 925
395 141 1660
396 141 363
397 141 1774
398 141 1624
399 141 183
400 141 911
401 141 1680
402 141 947
403 141 1290
404 141 269
405 141 1774
406 141 673
407 141 834
408 141 732
409 141 741
410 141 1034
411 141 2176
412 141 2384
413 141 649
414 141 1721
415 141 998
416 141 1183
417 141 1704
418 141 1044
419 141 638
420 141 795
421 141 514
422 141 1195
423 141 1657
424 141 845
425 141 888
426 141 2033
427 141 1276
428 141 1190
429 141 1294
430 141 841
431 141 1732
432 141 1829
433 141 1221
434 141 934
435 141 836
436 141 979
437 141 1731
438 141 744
439 141 954
440 141 1719
441 141 1459
442 141 1255
443 141 728
444 141 2076
445 141 693
446 141 1171
447 141 792
448 141 1706
449 141 1724
450 141 272
451 141 1880
452 141 603
453 141 1711
454 141 1876
455 141 826
456 141 1299
457 141 1346
458 141 826
459 141 1205
460 141 1911
461 141 1557
462 141 755
463 141 517
464 141 1476
465 141 1591
466 141 1617
467 141 2640
468 141 956
469 141 2016
470 141 999
471 141 559
472 141 1705
473 141 1188
474 141 946
475 141 857
476 141 1468
477 141 1702
478 141 1799
479 141 1009
480 141 1056
481 141 1435
482 141 1225
483 141 594
484 141 770
485 141 1784
486 141 903
487 141 830
488 141 1138
489 141 1372
490 141 1327
491 141 976
492 141 1621
493 141 391
494 141 2520
495 141 540
496 141 1192
497 141 1223
498 141 1138
499 141 2051
500 141 1070
